<?xml version="1.0"?>
<VTKFile type="UnstructuredGrid" version="0.1">
<UnstructuredGrid>
<Piece NumberOfPoints="      1156" NumberOfCells="      1024">
<Points>
<DataArray type="Float64"                                    Name="coordinates"                                                      NumberOfComponents=" 3" format="ascii">
              0.133000000               0.000000000               0.000000000               0.155937500               0.000000000               0.000000000               0.178875000               0.000000000               0.000000000               0.201812500               0.000000000               0.000000000               0.224750000               0.000000000               0.000000000               0.247687500               0.000000000               0.000000000               0.270625000               0.000000000               0.000000000               0.293562500               0.000000000               0.000000000               0.316500000               0.000000000               0.000000000               0.339437500               0.000000000               0.000000000               0.362375000               0.000000000               0.000000000               0.385312500               0.000000000               0.000000000               0.408250000               0.000000000               0.000000000               0.431187500               0.000000000               0.000000000               0.454125000               0.000000000               0.000000000               0.477062500               0.000000000               0.000000000               0.500000000               0.000000000               0.000000000               0.132359569               0.013036280               0.000000000               0.155337096               0.016127762               0.000000000               0.178314623               0.019219245               0.000000000               0.201292150               0.022310727               0.000000000               0.224269676               0.025402210               0.000000000               0.247247203               0.028493692               0.000000000               0.270224730               0.031585175               0.000000000               0.293202257               0.034676657               0.000000000               0.316179784               0.037768140               0.000000000               0.339157311               0.040859622               0.000000000               0.362134838               0.043951105               0.000000000               0.385112365               0.047042587               0.000000000               0.408089892               0.050134070               0.000000000               0.431067419               0.053225552               0.000000000               0.454044946               0.056317035               0.000000000               0.477022473               0.059408517               0.000000000               0.500000000               0.062500000               0.000000000               0.130444442               0.025947013               0.000000000               0.153541665               0.032137825               0.000000000               0.176638887               0.038328636               0.000000000               0.199736109               0.044519448               0.000000000               0.222833332               0.050710260               0.000000000               0.245930554               0.056901071               0.000000000               0.269027776               0.063091883               0.000000000               0.292124999               0.069282695               0.000000000               0.315222221               0.075473506               0.000000000               0.338319444               0.081664318               0.000000000               0.361416666               0.087855130               0.000000000               0.384513888               0.094045942               0.000000000               0.407611111               0.100236753               0.000000000               0.430708333               0.106427565               0.000000000               0.453805555               0.112618377               0.000000000               0.476902778               0.118809188               0.000000000               0.500000000               0.125000000               0.000000000               0.127273065               0.038607862               0.000000000               0.150568498               0.047913621               0.000000000               0.173863932               0.057219379               0.000000000               0.197159365               0.066525138               0.000000000               0.220454798               0.075830897               0.000000000               0.243750232               0.085136655               0.000000000               0.267045665               0.094442414               0.000000000               0.290341099               0.103748172               0.000000000               0.313636532               0.113053931               0.000000000               0.336931966               0.122359690               0.000000000               0.360227399               0.131665448               0.000000000               0.383522833               0.140971207               0.000000000               0.406818266               0.150276966               0.000000000               0.430113700               0.159582724               0.000000000               0.453409133               0.168888483               0.000000000               0.476704567               0.178194241               0.000000000               0.500000000               0.187500000               0.000000000               0.122875978               0.050896897               0.000000000               0.146446229               0.063340840               0.000000000               0.170016481               0.075784784               0.000000000               0.193586732               0.088228728               0.000000000               0.217156983               0.100672672               0.000000000               0.240727235               0.113116616               0.000000000               0.264297486               0.125560560               0.000000000               0.287867738               0.138004504               0.000000000               0.311437989               0.150448448               0.000000000               0.335008240               0.162892392               0.000000000               0.358578492               0.175336336               0.000000000               0.382148743               0.187780280               0.000000000               0.405718994               0.200224224               0.000000000               0.429289246               0.212668168               0.000000000               0.452859497               0.225112112               0.000000000               0.476429749               0.237556056               0.000000000               0.500000000               0.250000000               0.000000000               0.117295528               0.062695766               0.000000000               0.141214558               0.078308531               0.000000000               0.165133587               0.093921295               0.000000000               0.189052617               0.109534060               0.000000000               0.212971646               0.125146824               0.000000000               0.236890676               0.140759589               0.000000000               0.260809705               0.156372354               0.000000000               0.284728735               0.171985118               0.000000000               0.308647764               0.187597883               0.000000000               0.332566794               0.203210648               0.000000000               0.356485823               0.218823412               0.000000000               0.380404853               0.234436177               0.000000000               0.404323882               0.250048941               0.000000000               0.428242912               0.265661706               0.000000000               0.452161941               0.281274471               0.000000000               0.476080971               0.296887235               0.000000000               0.500000000               0.312500000               0.000000000               0.110585458               0.073890841               0.000000000               0.134923867               0.092710163               0.000000000               0.159262276               0.111529486               0.000000000               0.183600685               0.130348808               0.000000000               0.207939094               0.149168131               0.000000000               0.232277503               0.167987453               0.000000000               0.256615912               0.186806776               0.000000000               0.280954320               0.205626098               0.000000000               0.305292729               0.224445420               0.000000000               0.329631138               0.243264743               0.000000000               0.353969547               0.262084065               0.000000000               0.378307956               0.280903388               0.000000000               0.402646365               0.299722710               0.000000000               0.426984773               0.318542033               0.000000000               0.451323182               0.337361355               0.000000000               0.475661591               0.356180678               0.000000000               0.500000000               0.375000000               0.000000000               0.102810390               0.084374307               0.000000000               0.127634741               0.106444663               0.000000000               0.152459092               0.128515018               0.000000000               0.177283442               0.150585374               0.000000000               0.202107793               0.172655730               0.000000000               0.226932143               0.194726086               0.000000000               0.251756494               0.216796442               0.000000000               0.276580845               0.238866798               0.000000000               0.301405195               0.260937153               0.000000000               0.326229546               0.283007509               0.000000000               0.351053896               0.305077865               0.000000000               0.375878247               0.327148221               0.000000000               0.400702598               0.349218577               0.000000000               0.425526948               0.371288933               0.000000000               0.450351299               0.393359288               0.000000000               0.475175649               0.415429644               0.000000000               0.500000000               0.437500000               0.000000000               0.094045202               0.094045202               0.000000000               0.119417377               0.119417377               0.000000000               0.144789552               0.144789552               0.000000000               0.170161727               0.170161727               0.000000000               0.195533901               0.195533901               0.000000000               0.220906076               0.220906076               0.000000000               0.246278251               0.246278251               0.000000000               0.271650426               0.271650426               0.000000000               0.297022601               0.297022601               0.000000000               0.322394776               0.322394776               0.000000000               0.347766951               0.347766951               0.000000000               0.373139126               0.373139126               0.000000000               0.398511300               0.398511300               0.000000000               0.423883475               0.423883475               0.000000000               0.449255650               0.449255650               0.000000000               0.474627825               0.474627825               0.000000000               0.500000000               0.500000000               0.000000000               0.084374307               0.102810390               0.000000000               0.106444663               0.127634741               0.000000000               0.128515018               0.152459092               0.000000000               0.150585374               0.177283442               0.000000000               0.172655730               0.202107793               0.000000000               0.194726086               0.226932143               0.000000000               0.216796442               0.251756494               0.000000000               0.238866798               0.276580845               0.000000000               0.260937153               0.301405195               0.000000000               0.283007509               0.326229546               0.000000000               0.305077865               0.351053896               0.000000000               0.327148221               0.375878247               0.000000000               0.349218577               0.400702598               0.000000000               0.371288933               0.425526948               0.000000000               0.393359288               0.450351299               0.000000000               0.415429644               0.475175649               0.000000000               0.437500000               0.500000000               0.000000000               0.073890841               0.110585458               0.000000000               0.092710163               0.134923867               0.000000000               0.111529486               0.159262276               0.000000000               0.130348808               0.183600685               0.000000000               0.149168131               0.207939094               0.000000000               0.167987453               0.232277503               0.000000000               0.186806776               0.256615912               0.000000000               0.205626098               0.280954320               0.000000000               0.224445420               0.305292729               0.000000000               0.243264743               0.329631138               0.000000000               0.262084065               0.353969547               0.000000000               0.280903388               0.378307956               0.000000000               0.299722710               0.402646365               0.000000000               0.318542033               0.426984773               0.000000000               0.337361355               0.451323182               0.000000000               0.356180678               0.475661591               0.000000000               0.375000000               0.500000000               0.000000000               0.062695766               0.117295528               0.000000000               0.078308531               0.141214558               0.000000000               0.093921295               0.165133587               0.000000000               0.109534060               0.189052617               0.000000000               0.125146824               0.212971646               0.000000000               0.140759589               0.236890676               0.000000000               0.156372354               0.260809705               0.000000000               0.171985118               0.284728735               0.000000000               0.187597883               0.308647764               0.000000000               0.203210648               0.332566794               0.000000000               0.218823412               0.356485823               0.000000000               0.234436177               0.380404853               0.000000000               0.250048941               0.404323882               0.000000000               0.265661706               0.428242912               0.000000000               0.281274471               0.452161941               0.000000000               0.296887235               0.476080971               0.000000000               0.312500000               0.500000000               0.000000000               0.050896897               0.122875978               0.000000000               0.063340840               0.146446229               0.000000000               0.075784784               0.170016481               0.000000000               0.088228728               0.193586732               0.000000000               0.100672672               0.217156983               0.000000000               0.113116616               0.240727235               0.000000000               0.125560560               0.264297486               0.000000000               0.138004504               0.287867738               0.000000000               0.150448448               0.311437989               0.000000000               0.162892392               0.335008240               0.000000000               0.175336336               0.358578492               0.000000000               0.187780280               0.382148743               0.000000000               0.200224224               0.405718994               0.000000000               0.212668168               0.429289246               0.000000000               0.225112112               0.452859497               0.000000000               0.237556056               0.476429749               0.000000000               0.250000000               0.500000000               0.000000000               0.038607862               0.127273065               0.000000000               0.047913621               0.150568498               0.000000000               0.057219379               0.173863932               0.000000000               0.066525138               0.197159365               0.000000000               0.075830897               0.220454798               0.000000000               0.085136655               0.243750232               0.000000000               0.094442414               0.267045665               0.000000000               0.103748172               0.290341099               0.000000000               0.113053931               0.313636532               0.000000000               0.122359690               0.336931966               0.000000000               0.131665448               0.360227399               0.000000000               0.140971207               0.383522833               0.000000000               0.150276966               0.406818266               0.000000000               0.159582724               0.430113700               0.000000000               0.168888483               0.453409133               0.000000000               0.178194241               0.476704567               0.000000000               0.187500000               0.500000000               0.000000000               0.025947013               0.130444442               0.000000000               0.032137825               0.153541665               0.000000000               0.038328636               0.176638887               0.000000000               0.044519448               0.199736109               0.000000000               0.050710260               0.222833332               0.000000000               0.056901071               0.245930554               0.000000000               0.063091883               0.269027776               0.000000000               0.069282695               0.292124999               0.000000000               0.075473506               0.315222221               0.000000000               0.081664318               0.338319444               0.000000000               0.087855130               0.361416666               0.000000000               0.094045942               0.384513888               0.000000000               0.100236753               0.407611111               0.000000000               0.106427565               0.430708333               0.000000000               0.112618377               0.453805555               0.000000000               0.118809188               0.476902778               0.000000000               0.125000000               0.500000000               0.000000000               0.013036280               0.132359569               0.000000000               0.016127762               0.155337096               0.000000000               0.019219245               0.178314623               0.000000000               0.022310727               0.201292150               0.000000000               0.025402210               0.224269676               0.000000000               0.028493692               0.247247203               0.000000000               0.031585175               0.270224730               0.000000000               0.034676657               0.293202257               0.000000000               0.037768140               0.316179784               0.000000000               0.040859622               0.339157311               0.000000000               0.043951105               0.362134838               0.000000000               0.047042587               0.385112365               0.000000000               0.050134070               0.408089892               0.000000000               0.053225552               0.431067419               0.000000000               0.056317035               0.454044946               0.000000000               0.059408517               0.477022473               0.000000000               0.062500000               0.500000000               0.000000000               0.000000000               0.133000000               0.000000000               0.000000000               0.155937500               0.000000000               0.000000000               0.178875000               0.000000000               0.000000000               0.201812500               0.000000000               0.000000000               0.224750000               0.000000000               0.000000000               0.247687500               0.000000000               0.000000000               0.270625000               0.000000000               0.000000000               0.293562500               0.000000000               0.000000000               0.316500000               0.000000000               0.000000000               0.339437500               0.000000000               0.000000000               0.362375000               0.000000000               0.000000000               0.385312500               0.000000000               0.000000000               0.408250000               0.000000000               0.000000000               0.431187500               0.000000000               0.000000000               0.454125000               0.000000000               0.000000000               0.477062500               0.000000000               0.000000000               0.500000000               0.000000000               0.133000000               0.000000000               0.000000000               0.155937500               0.000000000               0.000000000               0.178875000               0.000000000               0.000000000               0.201812500               0.000000000               0.000000000               0.224750000               0.000000000               0.000000000               0.247687500               0.000000000               0.000000000               0.270625000               0.000000000               0.000000000               0.293562500               0.000000000               0.000000000               0.316500000               0.000000000               0.000000000               0.339437500               0.000000000               0.000000000               0.362375000               0.000000000               0.000000000               0.385312500               0.000000000               0.000000000               0.408250000               0.000000000               0.000000000               0.431187500               0.000000000               0.000000000               0.454125000               0.000000000               0.000000000               0.477062500               0.000000000               0.000000000               0.500000000               0.000000000               0.000000000               0.132359569              -0.013036280               0.000000000               0.155337096              -0.016127762               0.000000000               0.178314623              -0.019219245               0.000000000               0.201292150              -0.022310727               0.000000000               0.224269676              -0.025402210               0.000000000               0.247247203              -0.028493692               0.000000000               0.270224730              -0.031585175               0.000000000               0.293202257              -0.034676657               0.000000000               0.316179784              -0.037768140               0.000000000               0.339157311              -0.040859622               0.000000000               0.362134838              -0.043951105               0.000000000               0.385112365              -0.047042587               0.000000000               0.408089892              -0.050134070               0.000000000               0.431067419              -0.053225552               0.000000000               0.454044946              -0.056317035               0.000000000               0.477022473              -0.059408517               0.000000000               0.500000000              -0.062500000               0.000000000               0.130444442              -0.025947013               0.000000000               0.153541665              -0.032137825               0.000000000               0.176638887              -0.038328636               0.000000000               0.199736109              -0.044519448               0.000000000               0.222833332              -0.050710260               0.000000000               0.245930554              -0.056901071               0.000000000               0.269027776              -0.063091883               0.000000000               0.292124999              -0.069282695               0.000000000               0.315222221              -0.075473506               0.000000000               0.338319444              -0.081664318               0.000000000               0.361416666              -0.087855130               0.000000000               0.384513888              -0.094045942               0.000000000               0.407611111              -0.100236753               0.000000000               0.430708333              -0.106427565               0.000000000               0.453805555              -0.112618377               0.000000000               0.476902778              -0.118809188               0.000000000               0.500000000              -0.125000000               0.000000000               0.127273065              -0.038607862               0.000000000               0.150568498              -0.047913621               0.000000000               0.173863932              -0.057219379               0.000000000               0.197159365              -0.066525138               0.000000000               0.220454798              -0.075830897               0.000000000               0.243750232              -0.085136655               0.000000000               0.267045665              -0.094442414               0.000000000               0.290341099              -0.103748172               0.000000000               0.313636532              -0.113053931               0.000000000               0.336931966              -0.122359690               0.000000000               0.360227399              -0.131665448               0.000000000               0.383522833              -0.140971207               0.000000000               0.406818266              -0.150276966               0.000000000               0.430113700              -0.159582724               0.000000000               0.453409133              -0.168888483               0.000000000               0.476704567              -0.178194241               0.000000000               0.500000000              -0.187500000               0.000000000               0.122875978              -0.050896897               0.000000000               0.146446229              -0.063340840               0.000000000               0.170016481              -0.075784784               0.000000000               0.193586732              -0.088228728               0.000000000               0.217156983              -0.100672672               0.000000000               0.240727235              -0.113116616               0.000000000               0.264297486              -0.125560560               0.000000000               0.287867738              -0.138004504               0.000000000               0.311437989              -0.150448448               0.000000000               0.335008240              -0.162892392               0.000000000               0.358578492              -0.175336336               0.000000000               0.382148743              -0.187780280               0.000000000               0.405718994              -0.200224224               0.000000000               0.429289246              -0.212668168               0.000000000               0.452859497              -0.225112112               0.000000000               0.476429749              -0.237556056               0.000000000               0.500000000              -0.250000000               0.000000000               0.117295528              -0.062695766               0.000000000               0.141214558              -0.078308531               0.000000000               0.165133587              -0.093921295               0.000000000               0.189052617              -0.109534060               0.000000000               0.212971646              -0.125146824               0.000000000               0.236890676              -0.140759589               0.000000000               0.260809705              -0.156372354               0.000000000               0.284728735              -0.171985118               0.000000000               0.308647764              -0.187597883               0.000000000               0.332566794              -0.203210648               0.000000000               0.356485823              -0.218823412               0.000000000               0.380404853              -0.234436177               0.000000000               0.404323882              -0.250048941               0.000000000               0.428242912              -0.265661706               0.000000000               0.452161941              -0.281274471               0.000000000               0.476080971              -0.296887235               0.000000000               0.500000000              -0.312500000               0.000000000               0.110585458              -0.073890841               0.000000000               0.134923867              -0.092710163               0.000000000               0.159262276              -0.111529486               0.000000000               0.183600685              -0.130348808               0.000000000               0.207939094              -0.149168131               0.000000000               0.232277503              -0.167987453               0.000000000               0.256615912              -0.186806776               0.000000000               0.280954320              -0.205626098               0.000000000               0.305292729              -0.224445420               0.000000000               0.329631138              -0.243264743               0.000000000               0.353969547              -0.262084065               0.000000000               0.378307956              -0.280903388               0.000000000               0.402646365              -0.299722710               0.000000000               0.426984773              -0.318542033               0.000000000               0.451323182              -0.337361355               0.000000000               0.475661591              -0.356180678               0.000000000               0.500000000              -0.375000000               0.000000000               0.102810390              -0.084374307               0.000000000               0.127634741              -0.106444663               0.000000000               0.152459092              -0.128515018               0.000000000               0.177283442              -0.150585374               0.000000000               0.202107793              -0.172655730               0.000000000               0.226932143              -0.194726086               0.000000000               0.251756494              -0.216796442               0.000000000               0.276580845              -0.238866798               0.000000000               0.301405195              -0.260937153               0.000000000               0.326229546              -0.283007509               0.000000000               0.351053896              -0.305077865               0.000000000               0.375878247              -0.327148221               0.000000000               0.400702598              -0.349218577               0.000000000               0.425526948              -0.371288933               0.000000000               0.450351299              -0.393359288               0.000000000               0.475175649              -0.415429644               0.000000000               0.500000000              -0.437500000               0.000000000               0.094045202              -0.094045202               0.000000000               0.119417377              -0.119417377               0.000000000               0.144789552              -0.144789552               0.000000000               0.170161727              -0.170161727               0.000000000               0.195533901              -0.195533901               0.000000000               0.220906076              -0.220906076               0.000000000               0.246278251              -0.246278251               0.000000000               0.271650426              -0.271650426               0.000000000               0.297022601              -0.297022601               0.000000000               0.322394776              -0.322394776               0.000000000               0.347766951              -0.347766951               0.000000000               0.373139126              -0.373139126               0.000000000               0.398511300              -0.398511300               0.000000000               0.423883475              -0.423883475               0.000000000               0.449255650              -0.449255650               0.000000000               0.474627825              -0.474627825               0.000000000               0.500000000              -0.500000000               0.000000000               0.084374307              -0.102810390               0.000000000               0.106444663              -0.127634741               0.000000000               0.128515018              -0.152459092               0.000000000               0.150585374              -0.177283442               0.000000000               0.172655730              -0.202107793               0.000000000               0.194726086              -0.226932143               0.000000000               0.216796442              -0.251756494               0.000000000               0.238866798              -0.276580845               0.000000000               0.260937153              -0.301405195               0.000000000               0.283007509              -0.326229546               0.000000000               0.305077865              -0.351053896               0.000000000               0.327148221              -0.375878247               0.000000000               0.349218577              -0.400702598               0.000000000               0.371288933              -0.425526948               0.000000000               0.393359288              -0.450351299               0.000000000               0.415429644              -0.475175649               0.000000000               0.437500000              -0.500000000               0.000000000               0.073890841              -0.110585458               0.000000000               0.092710163              -0.134923867               0.000000000               0.111529486              -0.159262276               0.000000000               0.130348808              -0.183600685               0.000000000               0.149168131              -0.207939094               0.000000000               0.167987453              -0.232277503               0.000000000               0.186806776              -0.256615912               0.000000000               0.205626098              -0.280954320               0.000000000               0.224445420              -0.305292729               0.000000000               0.243264743              -0.329631138               0.000000000               0.262084065              -0.353969547               0.000000000               0.280903388              -0.378307956               0.000000000               0.299722710              -0.402646365               0.000000000               0.318542033              -0.426984773               0.000000000               0.337361355              -0.451323182               0.000000000               0.356180678              -0.475661591               0.000000000               0.375000000              -0.500000000               0.000000000               0.062695766              -0.117295528               0.000000000               0.078308531              -0.141214558               0.000000000               0.093921295              -0.165133587               0.000000000               0.109534060              -0.189052617               0.000000000               0.125146824              -0.212971646               0.000000000               0.140759589              -0.236890676               0.000000000               0.156372354              -0.260809705               0.000000000               0.171985118              -0.284728735               0.000000000               0.187597883              -0.308647764               0.000000000               0.203210648              -0.332566794               0.000000000               0.218823412              -0.356485823               0.000000000               0.234436177              -0.380404853               0.000000000               0.250048941              -0.404323882               0.000000000               0.265661706              -0.428242912               0.000000000               0.281274471              -0.452161941               0.000000000               0.296887235              -0.476080971               0.000000000               0.312500000              -0.500000000               0.000000000               0.050896897              -0.122875978               0.000000000               0.063340840              -0.146446229               0.000000000               0.075784784              -0.170016481               0.000000000               0.088228728              -0.193586732               0.000000000               0.100672672              -0.217156983               0.000000000               0.113116616              -0.240727235               0.000000000               0.125560560              -0.264297486               0.000000000               0.138004504              -0.287867738               0.000000000               0.150448448              -0.311437989               0.000000000               0.162892392              -0.335008240               0.000000000               0.175336336              -0.358578492               0.000000000               0.187780280              -0.382148743               0.000000000               0.200224224              -0.405718994               0.000000000               0.212668168              -0.429289246               0.000000000               0.225112112              -0.452859497               0.000000000               0.237556056              -0.476429749               0.000000000               0.250000000              -0.500000000               0.000000000               0.038607862              -0.127273065               0.000000000               0.047913621              -0.150568498               0.000000000               0.057219379              -0.173863932               0.000000000               0.066525138              -0.197159365               0.000000000               0.075830897              -0.220454798               0.000000000               0.085136655              -0.243750232               0.000000000               0.094442414              -0.267045665               0.000000000               0.103748172              -0.290341099               0.000000000               0.113053931              -0.313636532               0.000000000               0.122359690              -0.336931966               0.000000000               0.131665448              -0.360227399               0.000000000               0.140971207              -0.383522833               0.000000000               0.150276966              -0.406818266               0.000000000               0.159582724              -0.430113700               0.000000000               0.168888483              -0.453409133               0.000000000               0.178194241              -0.476704567               0.000000000               0.187500000              -0.500000000               0.000000000               0.025947013              -0.130444442               0.000000000               0.032137825              -0.153541665               0.000000000               0.038328636              -0.176638887               0.000000000               0.044519448              -0.199736109               0.000000000               0.050710260              -0.222833332               0.000000000               0.056901071              -0.245930554               0.000000000               0.063091883              -0.269027776               0.000000000               0.069282695              -0.292124999               0.000000000               0.075473506              -0.315222221               0.000000000               0.081664318              -0.338319444               0.000000000               0.087855130              -0.361416666               0.000000000               0.094045942              -0.384513888               0.000000000               0.100236753              -0.407611111               0.000000000               0.106427565              -0.430708333               0.000000000               0.112618377              -0.453805555               0.000000000               0.118809188              -0.476902778               0.000000000               0.125000000              -0.500000000               0.000000000               0.013036280              -0.132359569               0.000000000               0.016127762              -0.155337096               0.000000000               0.019219245              -0.178314623               0.000000000               0.022310727              -0.201292150               0.000000000               0.025402210              -0.224269676               0.000000000               0.028493692              -0.247247203               0.000000000               0.031585175              -0.270224730               0.000000000               0.034676657              -0.293202257               0.000000000               0.037768140              -0.316179784               0.000000000               0.040859622              -0.339157311               0.000000000               0.043951105              -0.362134838               0.000000000               0.047042587              -0.385112365               0.000000000               0.050134070              -0.408089892               0.000000000               0.053225552              -0.431067419               0.000000000               0.056317035              -0.454044946               0.000000000               0.059408517              -0.477022473               0.000000000               0.062500000              -0.500000000               0.000000000               0.000000000              -0.133000000               0.000000000               0.000000000              -0.155937500               0.000000000               0.000000000              -0.178875000               0.000000000               0.000000000              -0.201812500               0.000000000               0.000000000              -0.224750000               0.000000000               0.000000000              -0.247687500               0.000000000               0.000000000              -0.270625000               0.000000000               0.000000000              -0.293562500               0.000000000               0.000000000              -0.316500000               0.000000000               0.000000000              -0.339437500               0.000000000               0.000000000              -0.362375000               0.000000000               0.000000000              -0.385312500               0.000000000               0.000000000              -0.408250000               0.000000000               0.000000000              -0.431187500               0.000000000               0.000000000              -0.454125000               0.000000000               0.000000000              -0.477062500               0.000000000               0.000000000              -0.500000000               0.000000000              -0.133000000               0.000000000               0.000000000              -0.155937500               0.000000000               0.000000000              -0.178875000               0.000000000               0.000000000              -0.201812500               0.000000000               0.000000000              -0.224750000               0.000000000               0.000000000              -0.247687500               0.000000000               0.000000000              -0.270625000               0.000000000               0.000000000              -0.293562500               0.000000000               0.000000000              -0.316500000               0.000000000               0.000000000              -0.339437500               0.000000000               0.000000000              -0.362375000               0.000000000               0.000000000              -0.385312500               0.000000000               0.000000000              -0.408250000               0.000000000               0.000000000              -0.431187500               0.000000000               0.000000000              -0.454125000               0.000000000               0.000000000              -0.477062500               0.000000000               0.000000000              -0.500000000               0.000000000               0.000000000              -0.132359569              -0.013036280               0.000000000              -0.155337096              -0.016127762               0.000000000              -0.178314623              -0.019219245               0.000000000              -0.201292150              -0.022310727               0.000000000              -0.224269676              -0.025402210               0.000000000              -0.247247203              -0.028493692               0.000000000              -0.270224730              -0.031585175               0.000000000              -0.293202257              -0.034676657               0.000000000              -0.316179784              -0.037768140               0.000000000              -0.339157311              -0.040859622               0.000000000              -0.362134838              -0.043951105               0.000000000              -0.385112365              -0.047042587               0.000000000              -0.408089892              -0.050134070               0.000000000              -0.431067419              -0.053225552               0.000000000              -0.454044946              -0.056317035               0.000000000              -0.477022473              -0.059408517               0.000000000              -0.500000000              -0.062500000               0.000000000              -0.130444442              -0.025947013               0.000000000              -0.153541665              -0.032137825               0.000000000              -0.176638887              -0.038328636               0.000000000              -0.199736109              -0.044519448               0.000000000              -0.222833332              -0.050710260               0.000000000              -0.245930554              -0.056901071               0.000000000              -0.269027776              -0.063091883               0.000000000              -0.292124999              -0.069282695               0.000000000              -0.315222221              -0.075473506               0.000000000              -0.338319444              -0.081664318               0.000000000              -0.361416666              -0.087855130               0.000000000              -0.384513888              -0.094045942               0.000000000              -0.407611111              -0.100236753               0.000000000              -0.430708333              -0.106427565               0.000000000              -0.453805555              -0.112618377               0.000000000              -0.476902778              -0.118809188               0.000000000              -0.500000000              -0.125000000               0.000000000              -0.127273065              -0.038607862               0.000000000              -0.150568498              -0.047913621               0.000000000              -0.173863932              -0.057219379               0.000000000              -0.197159365              -0.066525138               0.000000000              -0.220454798              -0.075830897               0.000000000              -0.243750232              -0.085136655               0.000000000              -0.267045665              -0.094442414               0.000000000              -0.290341099              -0.103748172               0.000000000              -0.313636532              -0.113053931               0.000000000              -0.336931966              -0.122359690               0.000000000              -0.360227399              -0.131665448               0.000000000              -0.383522833              -0.140971207               0.000000000              -0.406818266              -0.150276966               0.000000000              -0.430113700              -0.159582724               0.000000000              -0.453409133              -0.168888483               0.000000000              -0.476704567              -0.178194241               0.000000000              -0.500000000              -0.187500000               0.000000000              -0.122875978              -0.050896897               0.000000000              -0.146446229              -0.063340840               0.000000000              -0.170016481              -0.075784784               0.000000000              -0.193586732              -0.088228728               0.000000000              -0.217156983              -0.100672672               0.000000000              -0.240727235              -0.113116616               0.000000000              -0.264297486              -0.125560560               0.000000000              -0.287867738              -0.138004504               0.000000000              -0.311437989              -0.150448448               0.000000000              -0.335008240              -0.162892392               0.000000000              -0.358578492              -0.175336336               0.000000000              -0.382148743              -0.187780280               0.000000000              -0.405718994              -0.200224224               0.000000000              -0.429289246              -0.212668168               0.000000000              -0.452859497              -0.225112112               0.000000000              -0.476429749              -0.237556056               0.000000000              -0.500000000              -0.250000000               0.000000000              -0.117295528              -0.062695766               0.000000000              -0.141214558              -0.078308531               0.000000000              -0.165133587              -0.093921295               0.000000000              -0.189052617              -0.109534060               0.000000000              -0.212971646              -0.125146824               0.000000000              -0.236890676              -0.140759589               0.000000000              -0.260809705              -0.156372354               0.000000000              -0.284728735              -0.171985118               0.000000000              -0.308647764              -0.187597883               0.000000000              -0.332566794              -0.203210648               0.000000000              -0.356485823              -0.218823412               0.000000000              -0.380404853              -0.234436177               0.000000000              -0.404323882              -0.250048941               0.000000000              -0.428242912              -0.265661706               0.000000000              -0.452161941              -0.281274471               0.000000000              -0.476080971              -0.296887235               0.000000000              -0.500000000              -0.312500000               0.000000000              -0.110585458              -0.073890841               0.000000000              -0.134923867              -0.092710163               0.000000000              -0.159262276              -0.111529486               0.000000000              -0.183600685              -0.130348808               0.000000000              -0.207939094              -0.149168131               0.000000000              -0.232277503              -0.167987453               0.000000000              -0.256615912              -0.186806776               0.000000000              -0.280954320              -0.205626098               0.000000000              -0.305292729              -0.224445420               0.000000000              -0.329631138              -0.243264743               0.000000000              -0.353969547              -0.262084065               0.000000000              -0.378307956              -0.280903388               0.000000000              -0.402646365              -0.299722710               0.000000000              -0.426984773              -0.318542033               0.000000000              -0.451323182              -0.337361355               0.000000000              -0.475661591              -0.356180678               0.000000000              -0.500000000              -0.375000000               0.000000000              -0.102810390              -0.084374307               0.000000000              -0.127634741              -0.106444663               0.000000000              -0.152459092              -0.128515018               0.000000000              -0.177283442              -0.150585374               0.000000000              -0.202107793              -0.172655730               0.000000000              -0.226932143              -0.194726086               0.000000000              -0.251756494              -0.216796442               0.000000000              -0.276580845              -0.238866798               0.000000000              -0.301405195              -0.260937153               0.000000000              -0.326229546              -0.283007509               0.000000000              -0.351053896              -0.305077865               0.000000000              -0.375878247              -0.327148221               0.000000000              -0.400702598              -0.349218577               0.000000000              -0.425526948              -0.371288933               0.000000000              -0.450351299              -0.393359288               0.000000000              -0.475175649              -0.415429644               0.000000000              -0.500000000              -0.437500000               0.000000000              -0.094045202              -0.094045202               0.000000000              -0.119417377              -0.119417377               0.000000000              -0.144789552              -0.144789552               0.000000000              -0.170161727              -0.170161727               0.000000000              -0.195533901              -0.195533901               0.000000000              -0.220906076              -0.220906076               0.000000000              -0.246278251              -0.246278251               0.000000000              -0.271650426              -0.271650426               0.000000000              -0.297022601              -0.297022601               0.000000000              -0.322394776              -0.322394776               0.000000000              -0.347766951              -0.347766951               0.000000000              -0.373139126              -0.373139126               0.000000000              -0.398511300              -0.398511300               0.000000000              -0.423883475              -0.423883475               0.000000000              -0.449255650              -0.449255650               0.000000000              -0.474627825              -0.474627825               0.000000000              -0.500000000              -0.500000000               0.000000000              -0.084374307              -0.102810390               0.000000000              -0.106444663              -0.127634741               0.000000000              -0.128515018              -0.152459092               0.000000000              -0.150585374              -0.177283442               0.000000000              -0.172655730              -0.202107793               0.000000000              -0.194726086              -0.226932143               0.000000000              -0.216796442              -0.251756494               0.000000000              -0.238866798              -0.276580845               0.000000000              -0.260937153              -0.301405195               0.000000000              -0.283007509              -0.326229546               0.000000000              -0.305077865              -0.351053896               0.000000000              -0.327148221              -0.375878247               0.000000000              -0.349218577              -0.400702598               0.000000000              -0.371288933              -0.425526948               0.000000000              -0.393359288              -0.450351299               0.000000000              -0.415429644              -0.475175649               0.000000000              -0.437500000              -0.500000000               0.000000000              -0.073890841              -0.110585458               0.000000000              -0.092710163              -0.134923867               0.000000000              -0.111529486              -0.159262276               0.000000000              -0.130348808              -0.183600685               0.000000000              -0.149168131              -0.207939094               0.000000000              -0.167987453              -0.232277503               0.000000000              -0.186806776              -0.256615912               0.000000000              -0.205626098              -0.280954320               0.000000000              -0.224445420              -0.305292729               0.000000000              -0.243264743              -0.329631138               0.000000000              -0.262084065              -0.353969547               0.000000000              -0.280903388              -0.378307956               0.000000000              -0.299722710              -0.402646365               0.000000000              -0.318542033              -0.426984773               0.000000000              -0.337361355              -0.451323182               0.000000000              -0.356180678              -0.475661591               0.000000000              -0.375000000              -0.500000000               0.000000000              -0.062695766              -0.117295528               0.000000000              -0.078308531              -0.141214558               0.000000000              -0.093921295              -0.165133587               0.000000000              -0.109534060              -0.189052617               0.000000000              -0.125146824              -0.212971646               0.000000000              -0.140759589              -0.236890676               0.000000000              -0.156372354              -0.260809705               0.000000000              -0.171985118              -0.284728735               0.000000000              -0.187597883              -0.308647764               0.000000000              -0.203210648              -0.332566794               0.000000000              -0.218823412              -0.356485823               0.000000000              -0.234436177              -0.380404853               0.000000000              -0.250048941              -0.404323882               0.000000000              -0.265661706              -0.428242912               0.000000000              -0.281274471              -0.452161941               0.000000000              -0.296887235              -0.476080971               0.000000000              -0.312500000              -0.500000000               0.000000000              -0.050896897              -0.122875978               0.000000000              -0.063340840              -0.146446229               0.000000000              -0.075784784              -0.170016481               0.000000000              -0.088228728              -0.193586732               0.000000000              -0.100672672              -0.217156983               0.000000000              -0.113116616              -0.240727235               0.000000000              -0.125560560              -0.264297486               0.000000000              -0.138004504              -0.287867738               0.000000000              -0.150448448              -0.311437989               0.000000000              -0.162892392              -0.335008240               0.000000000              -0.175336336              -0.358578492               0.000000000              -0.187780280              -0.382148743               0.000000000              -0.200224224              -0.405718994               0.000000000              -0.212668168              -0.429289246               0.000000000              -0.225112112              -0.452859497               0.000000000              -0.237556056              -0.476429749               0.000000000              -0.250000000              -0.500000000               0.000000000              -0.038607862              -0.127273065               0.000000000              -0.047913621              -0.150568498               0.000000000              -0.057219379              -0.173863932               0.000000000              -0.066525138              -0.197159365               0.000000000              -0.075830897              -0.220454798               0.000000000              -0.085136655              -0.243750232               0.000000000              -0.094442414              -0.267045665               0.000000000              -0.103748172              -0.290341099               0.000000000              -0.113053931              -0.313636532               0.000000000              -0.122359690              -0.336931966               0.000000000              -0.131665448              -0.360227399               0.000000000              -0.140971207              -0.383522833               0.000000000              -0.150276966              -0.406818266               0.000000000              -0.159582724              -0.430113700               0.000000000              -0.168888483              -0.453409133               0.000000000              -0.178194241              -0.476704567               0.000000000              -0.187500000              -0.500000000               0.000000000              -0.025947013              -0.130444442               0.000000000              -0.032137825              -0.153541665               0.000000000              -0.038328636              -0.176638887               0.000000000              -0.044519448              -0.199736109               0.000000000              -0.050710260              -0.222833332               0.000000000              -0.056901071              -0.245930554               0.000000000              -0.063091883              -0.269027776               0.000000000              -0.069282695              -0.292124999               0.000000000              -0.075473506              -0.315222221               0.000000000              -0.081664318              -0.338319444               0.000000000              -0.087855130              -0.361416666               0.000000000              -0.094045942              -0.384513888               0.000000000              -0.100236753              -0.407611111               0.000000000              -0.106427565              -0.430708333               0.000000000              -0.112618377              -0.453805555               0.000000000              -0.118809188              -0.476902778               0.000000000              -0.125000000              -0.500000000               0.000000000              -0.013036280              -0.132359569               0.000000000              -0.016127762              -0.155337096               0.000000000              -0.019219245              -0.178314623               0.000000000              -0.022310727              -0.201292150               0.000000000              -0.025402210              -0.224269676               0.000000000              -0.028493692              -0.247247203               0.000000000              -0.031585175              -0.270224730               0.000000000              -0.034676657              -0.293202257               0.000000000              -0.037768140              -0.316179784               0.000000000              -0.040859622              -0.339157311               0.000000000              -0.043951105              -0.362134838               0.000000000              -0.047042587              -0.385112365               0.000000000              -0.050134070              -0.408089892               0.000000000              -0.053225552              -0.431067419               0.000000000              -0.056317035              -0.454044946               0.000000000              -0.059408517              -0.477022473               0.000000000              -0.062500000              -0.500000000               0.000000000               0.000000000              -0.133000000               0.000000000               0.000000000              -0.155937500               0.000000000               0.000000000              -0.178875000               0.000000000               0.000000000              -0.201812500               0.000000000               0.000000000              -0.224750000               0.000000000               0.000000000              -0.247687500               0.000000000               0.000000000              -0.270625000               0.000000000               0.000000000              -0.293562500               0.000000000               0.000000000              -0.316500000               0.000000000               0.000000000              -0.339437500               0.000000000               0.000000000              -0.362375000               0.000000000               0.000000000              -0.385312500               0.000000000               0.000000000              -0.408250000               0.000000000               0.000000000              -0.431187500               0.000000000               0.000000000              -0.454125000               0.000000000               0.000000000              -0.477062500               0.000000000               0.000000000              -0.500000000               0.000000000              -0.133000000               0.000000000               0.000000000              -0.155937500               0.000000000               0.000000000              -0.178875000               0.000000000               0.000000000              -0.201812500               0.000000000               0.000000000              -0.224750000               0.000000000               0.000000000              -0.247687500               0.000000000               0.000000000              -0.270625000               0.000000000               0.000000000              -0.293562500               0.000000000               0.000000000              -0.316500000               0.000000000               0.000000000              -0.339437500               0.000000000               0.000000000              -0.362375000               0.000000000               0.000000000              -0.385312500               0.000000000               0.000000000              -0.408250000               0.000000000               0.000000000              -0.431187500               0.000000000               0.000000000              -0.454125000               0.000000000               0.000000000              -0.477062500               0.000000000               0.000000000              -0.500000000               0.000000000               0.000000000              -0.132359569               0.013036280               0.000000000              -0.155337096               0.016127762               0.000000000              -0.178314623               0.019219245               0.000000000              -0.201292150               0.022310727               0.000000000              -0.224269676               0.025402210               0.000000000              -0.247247203               0.028493692               0.000000000              -0.270224730               0.031585175               0.000000000              -0.293202257               0.034676657               0.000000000              -0.316179784               0.037768140               0.000000000              -0.339157311               0.040859622               0.000000000              -0.362134838               0.043951105               0.000000000              -0.385112365               0.047042587               0.000000000              -0.408089892               0.050134070               0.000000000              -0.431067419               0.053225552               0.000000000              -0.454044946               0.056317035               0.000000000              -0.477022473               0.059408517               0.000000000              -0.500000000               0.062500000               0.000000000              -0.130444442               0.025947013               0.000000000              -0.153541665               0.032137825               0.000000000              -0.176638887               0.038328636               0.000000000              -0.199736109               0.044519448               0.000000000              -0.222833332               0.050710260               0.000000000              -0.245930554               0.056901071               0.000000000              -0.269027776               0.063091883               0.000000000              -0.292124999               0.069282695               0.000000000              -0.315222221               0.075473506               0.000000000              -0.338319444               0.081664318               0.000000000              -0.361416666               0.087855130               0.000000000              -0.384513888               0.094045942               0.000000000              -0.407611111               0.100236753               0.000000000              -0.430708333               0.106427565               0.000000000              -0.453805555               0.112618377               0.000000000              -0.476902778               0.118809188               0.000000000              -0.500000000               0.125000000               0.000000000              -0.127273065               0.038607862               0.000000000              -0.150568498               0.047913621               0.000000000              -0.173863932               0.057219379               0.000000000              -0.197159365               0.066525138               0.000000000              -0.220454798               0.075830897               0.000000000              -0.243750232               0.085136655               0.000000000              -0.267045665               0.094442414               0.000000000              -0.290341099               0.103748172               0.000000000              -0.313636532               0.113053931               0.000000000              -0.336931966               0.122359690               0.000000000              -0.360227399               0.131665448               0.000000000              -0.383522833               0.140971207               0.000000000              -0.406818266               0.150276966               0.000000000              -0.430113700               0.159582724               0.000000000              -0.453409133               0.168888483               0.000000000              -0.476704567               0.178194241               0.000000000              -0.500000000               0.187500000               0.000000000              -0.122875978               0.050896897               0.000000000              -0.146446229               0.063340840               0.000000000              -0.170016481               0.075784784               0.000000000              -0.193586732               0.088228728               0.000000000              -0.217156983               0.100672672               0.000000000              -0.240727235               0.113116616               0.000000000              -0.264297486               0.125560560               0.000000000              -0.287867738               0.138004504               0.000000000              -0.311437989               0.150448448               0.000000000              -0.335008240               0.162892392               0.000000000              -0.358578492               0.175336336               0.000000000              -0.382148743               0.187780280               0.000000000              -0.405718994               0.200224224               0.000000000              -0.429289246               0.212668168               0.000000000              -0.452859497               0.225112112               0.000000000              -0.476429749               0.237556056               0.000000000              -0.500000000               0.250000000               0.000000000              -0.117295528               0.062695766               0.000000000              -0.141214558               0.078308531               0.000000000              -0.165133587               0.093921295               0.000000000              -0.189052617               0.109534060               0.000000000              -0.212971646               0.125146824               0.000000000              -0.236890676               0.140759589               0.000000000              -0.260809705               0.156372354               0.000000000              -0.284728735               0.171985118               0.000000000              -0.308647764               0.187597883               0.000000000              -0.332566794               0.203210648               0.000000000              -0.356485823               0.218823412               0.000000000              -0.380404853               0.234436177               0.000000000              -0.404323882               0.250048941               0.000000000              -0.428242912               0.265661706               0.000000000              -0.452161941               0.281274471               0.000000000              -0.476080971               0.296887235               0.000000000              -0.500000000               0.312500000               0.000000000              -0.110585458               0.073890841               0.000000000              -0.134923867               0.092710163               0.000000000              -0.159262276               0.111529486               0.000000000              -0.183600685               0.130348808               0.000000000              -0.207939094               0.149168131               0.000000000              -0.232277503               0.167987453               0.000000000              -0.256615912               0.186806776               0.000000000              -0.280954320               0.205626098               0.000000000              -0.305292729               0.224445420               0.000000000              -0.329631138               0.243264743               0.000000000              -0.353969547               0.262084065               0.000000000              -0.378307956               0.280903388               0.000000000              -0.402646365               0.299722710               0.000000000              -0.426984773               0.318542033               0.000000000              -0.451323182               0.337361355               0.000000000              -0.475661591               0.356180678               0.000000000              -0.500000000               0.375000000               0.000000000              -0.102810390               0.084374307               0.000000000              -0.127634741               0.106444663               0.000000000              -0.152459092               0.128515018               0.000000000              -0.177283442               0.150585374               0.000000000              -0.202107793               0.172655730               0.000000000              -0.226932143               0.194726086               0.000000000              -0.251756494               0.216796442               0.000000000              -0.276580845               0.238866798               0.000000000              -0.301405195               0.260937153               0.000000000              -0.326229546               0.283007509               0.000000000              -0.351053896               0.305077865               0.000000000              -0.375878247               0.327148221               0.000000000              -0.400702598               0.349218577               0.000000000              -0.425526948               0.371288933               0.000000000              -0.450351299               0.393359288               0.000000000              -0.475175649               0.415429644               0.000000000              -0.500000000               0.437500000               0.000000000              -0.094045202               0.094045202               0.000000000              -0.119417377               0.119417377               0.000000000              -0.144789552               0.144789552               0.000000000              -0.170161727               0.170161727               0.000000000              -0.195533901               0.195533901               0.000000000              -0.220906076               0.220906076               0.000000000              -0.246278251               0.246278251               0.000000000              -0.271650426               0.271650426               0.000000000              -0.297022601               0.297022601               0.000000000              -0.322394776               0.322394776               0.000000000              -0.347766951               0.347766951               0.000000000              -0.373139126               0.373139126               0.000000000              -0.398511300               0.398511300               0.000000000              -0.423883475               0.423883475               0.000000000              -0.449255650               0.449255650               0.000000000              -0.474627825               0.474627825               0.000000000              -0.500000000               0.500000000               0.000000000              -0.084374307               0.102810390               0.000000000              -0.106444663               0.127634741               0.000000000              -0.128515018               0.152459092               0.000000000              -0.150585374               0.177283442               0.000000000              -0.172655730               0.202107793               0.000000000              -0.194726086               0.226932143               0.000000000              -0.216796442               0.251756494               0.000000000              -0.238866798               0.276580845               0.000000000              -0.260937153               0.301405195               0.000000000              -0.283007509               0.326229546               0.000000000              -0.305077865               0.351053896               0.000000000              -0.327148221               0.375878247               0.000000000              -0.349218577               0.400702598               0.000000000              -0.371288933               0.425526948               0.000000000              -0.393359288               0.450351299               0.000000000              -0.415429644               0.475175649               0.000000000              -0.437500000               0.500000000               0.000000000              -0.073890841               0.110585458               0.000000000              -0.092710163               0.134923867               0.000000000              -0.111529486               0.159262276               0.000000000              -0.130348808               0.183600685               0.000000000              -0.149168131               0.207939094               0.000000000              -0.167987453               0.232277503               0.000000000              -0.186806776               0.256615912               0.000000000              -0.205626098               0.280954320               0.000000000              -0.224445420               0.305292729               0.000000000              -0.243264743               0.329631138               0.000000000              -0.262084065               0.353969547               0.000000000              -0.280903388               0.378307956               0.000000000              -0.299722710               0.402646365               0.000000000              -0.318542033               0.426984773               0.000000000              -0.337361355               0.451323182               0.000000000              -0.356180678               0.475661591               0.000000000              -0.375000000               0.500000000               0.000000000              -0.062695766               0.117295528               0.000000000              -0.078308531               0.141214558               0.000000000              -0.093921295               0.165133587               0.000000000              -0.109534060               0.189052617               0.000000000              -0.125146824               0.212971646               0.000000000              -0.140759589               0.236890676               0.000000000              -0.156372354               0.260809705               0.000000000              -0.171985118               0.284728735               0.000000000              -0.187597883               0.308647764               0.000000000              -0.203210648               0.332566794               0.000000000              -0.218823412               0.356485823               0.000000000              -0.234436177               0.380404853               0.000000000              -0.250048941               0.404323882               0.000000000              -0.265661706               0.428242912               0.000000000              -0.281274471               0.452161941               0.000000000              -0.296887235               0.476080971               0.000000000              -0.312500000               0.500000000               0.000000000              -0.050896897               0.122875978               0.000000000              -0.063340840               0.146446229               0.000000000              -0.075784784               0.170016481               0.000000000              -0.088228728               0.193586732               0.000000000              -0.100672672               0.217156983               0.000000000              -0.113116616               0.240727235               0.000000000              -0.125560560               0.264297486               0.000000000              -0.138004504               0.287867738               0.000000000              -0.150448448               0.311437989               0.000000000              -0.162892392               0.335008240               0.000000000              -0.175336336               0.358578492               0.000000000              -0.187780280               0.382148743               0.000000000              -0.200224224               0.405718994               0.000000000              -0.212668168               0.429289246               0.000000000              -0.225112112               0.452859497               0.000000000              -0.237556056               0.476429749               0.000000000              -0.250000000               0.500000000               0.000000000              -0.038607862               0.127273065               0.000000000              -0.047913621               0.150568498               0.000000000              -0.057219379               0.173863932               0.000000000              -0.066525138               0.197159365               0.000000000              -0.075830897               0.220454798               0.000000000              -0.085136655               0.243750232               0.000000000              -0.094442414               0.267045665               0.000000000              -0.103748172               0.290341099               0.000000000              -0.113053931               0.313636532               0.000000000              -0.122359690               0.336931966               0.000000000              -0.131665448               0.360227399               0.000000000              -0.140971207               0.383522833               0.000000000              -0.150276966               0.406818266               0.000000000              -0.159582724               0.430113700               0.000000000              -0.168888483               0.453409133               0.000000000              -0.178194241               0.476704567               0.000000000              -0.187500000               0.500000000               0.000000000              -0.025947013               0.130444442               0.000000000              -0.032137825               0.153541665               0.000000000              -0.038328636               0.176638887               0.000000000              -0.044519448               0.199736109               0.000000000              -0.050710260               0.222833332               0.000000000              -0.056901071               0.245930554               0.000000000              -0.063091883               0.269027776               0.000000000              -0.069282695               0.292124999               0.000000000              -0.075473506               0.315222221               0.000000000              -0.081664318               0.338319444               0.000000000              -0.087855130               0.361416666               0.000000000              -0.094045942               0.384513888               0.000000000              -0.100236753               0.407611111               0.000000000              -0.106427565               0.430708333               0.000000000              -0.112618377               0.453805555               0.000000000              -0.118809188               0.476902778               0.000000000              -0.125000000               0.500000000               0.000000000              -0.013036280               0.132359569               0.000000000              -0.016127762               0.155337096               0.000000000              -0.019219245               0.178314623               0.000000000              -0.022310727               0.201292150               0.000000000              -0.025402210               0.224269676               0.000000000              -0.028493692               0.247247203               0.000000000              -0.031585175               0.270224730               0.000000000              -0.034676657               0.293202257               0.000000000              -0.037768140               0.316179784               0.000000000              -0.040859622               0.339157311               0.000000000              -0.043951105               0.362134838               0.000000000              -0.047042587               0.385112365               0.000000000              -0.050134070               0.408089892               0.000000000              -0.053225552               0.431067419               0.000000000              -0.056317035               0.454044946               0.000000000              -0.059408517               0.477022473               0.000000000              -0.062500000               0.500000000               0.000000000               0.000000000               0.133000000               0.000000000               0.000000000               0.155937500               0.000000000               0.000000000               0.178875000               0.000000000               0.000000000               0.201812500               0.000000000               0.000000000               0.224750000               0.000000000               0.000000000               0.247687500               0.000000000               0.000000000               0.270625000               0.000000000               0.000000000               0.293562500               0.000000000               0.000000000               0.316500000               0.000000000               0.000000000               0.339437500               0.000000000               0.000000000               0.362375000               0.000000000               0.000000000               0.385312500               0.000000000               0.000000000               0.408250000               0.000000000               0.000000000               0.431187500               0.000000000               0.000000000               0.454125000               0.000000000               0.000000000               0.477062500               0.000000000               0.000000000               0.500000000               0.000000000 </DataArray>
</Points>
<Cells>
<DataArray type="Int32"                                    Name="connectivity"                                                      NumberOfComponents=" 1" format="ascii">
         0          1         18         17          1          2         19         18          2          3         20         19          3          4         21         20          4          5         22         21          5          6         23         22          6          7         24         23          7          8         25         24          8          9         26         25          9         10         27         26         10         11         28         27         11         12         29         28         12         13         30         29         13         14         31         30         14         15         32         31         15         16         33         32         17         18         35         34         18         19         36         35         19         20         37         36         20         21         38         37         21         22         39         38         22         23         40         39         23         24         41         40         24         25         42         41         25         26         43         42         26         27         44         43         27         28         45         44         28         29         46         45         29         30         47         46         30         31         48         47         31         32         49         48         32         33         50         49         34         35         52         51         35         36         53         52         36         37         54         53         37         38         55         54         38         39         56         55         39         40         57         56         40         41         58         57         41         42         59         58         42         43         60         59         43         44         61         60         44         45         62         61         45         46         63         62         46         47         64         63         47         48         65         64         48         49         66         65         49         50         67         66         51         52         69         68         52         53         70         69         53         54         71         70         54         55         72         71         55         56         73         72         56         57         74         73         57         58         75         74         58         59         76         75         59         60         77         76         60         61         78         77         61         62         79         78         62         63         80         79         63         64         81         80         64         65         82         81         65         66         83         82         66         67         84         83         68         69         86         85         69         70         87         86         70         71         88         87         71         72         89         88         72         73         90         89         73         74         91         90         74         75         92         91         75         76         93         92         76         77         94         93         77         78         95         94         78         79         96         95         79         80         97         96         80         81         98         97         81         82         99         98         82         83        100         99         83         84        101        100         85         86        103        102         86         87        104        103         87         88        105        104         88         89        106        105         89         90        107        106         90         91        108        107         91         92        109        108         92         93        110        109         93         94        111        110         94         95        112        111         95         96        113        112         96         97        114        113         97         98        115        114         98         99        116        115         99        100        117        116        100        101        118        117        102        103        120        119        103        104        121        120        104        105        122        121        105        106        123        122        106        107        124        123        107        108        125        124        108        109        126        125        109        110        127        126        110        111        128        127        111        112        129        128        112        113        130        129        113        114        131        130        114        115        132        131        115        116        133        132        116        117        134        133        117        118        135        134        119        120        137        136        120        121        138        137        121        122        139        138        122        123        140        139        123        124        141        140        124        125        142        141        125        126        143        142        126        127        144        143        127        128        145        144        128        129        146        145        129        130        147        146        130        131        148        147        131        132        149        148        132        133        150        149        133        134        151        150        134        135        152        151        136        137        154        153        137        138        155        154        138        139        156        155        139        140        157        156        140        141        158        157        141        142        159        158        142        143        160        159        143        144        161        160        144        145        162        161        145        146        163        162        146        147        164        163        147        148        165        164        148        149        166        165        149        150        167        166        150        151        168        167        151        152        169        168        153        154        171        170        154        155        172        171        155        156        173        172        156        157        174        173        157        158        175        174        158        159        176        175        159        160        177        176        160        161        178        177        161        162        179        178        162        163        180        179        163        164        181        180        164        165        182        181        165        166        183        182        166        167        184        183        167        168        185        184        168        169        186        185        170        171        188        187        171        172        189        188        172        173        190        189        173        174        191        190        174        175        192        191        175        176        193        192        176        177        194        193        177        178        195        194        178        179        196        195        179        180        197        196        180        181        198        197        181        182        199        198        182        183        200        199        183        184        201        200        184        185        202        201        185        186        203        202        187        188        205        204        188        189        206        205        189        190        207        206        190        191        208        207        191        192        209        208        192        193        210        209        193        194        211        210        194        195        212        211        195        196        213        212        196        197        214        213        197        198        215        214        198        199        216        215        199        200        217        216        200        201        218        217        201        202        219        218        202        203        220        219        204        205        222        221        205        206        223        222        206        207        224        223        207        208        225        224        208        209        226        225        209        210        227        226        210        211        228        227        211        212        229        228        212        213        230        229        213        214        231        230        214        215        232        231        215        216        233        232        216        217        234        233        217        218        235        234        218        219        236        235        219        220        237        236        221        222        239        238        222        223        240        239        223        224        241        240        224        225        242        241        225        226        243        242        226        227        244        243        227        228        245        244        228        229        246        245        229        230        247        246        230        231        248        247        231        232        249        248        232        233        250        249        233        234        251        250        234        235        252        251        235        236        253        252        236        237        254        253        238        239        256        255        239        240        257        256        240        241        258        257        241        242        259        258        242        243        260        259        243        244        261        260        244        245        262        261        245        246        263        262        246        247        264        263        247        248        265        264        248        249        266        265        249        250        267        266        250        251        268        267        251        252        269        268        252        253        270        269        253        254        271        270        255        256        273        272        256        257        274        273        257        258        275        274        258        259        276        275        259        260        277        276        260        261        278        277        261        262        279        278        262        263        280        279        263        264        281        280        264        265        282        281        265        266        283        282        266        267        284        283        267        268        285        284        268        269        286        285        269        270        287        286        270        271        288        287        306        307          1          0        307        308          2          1        308        309          3          2        309        310          4          3        310        311          5          4        311        312          6          5        312        313          7          6        313        314          8          7        314        315          9          8        315        316         10          9        316        317         11         10        317        318         12         11        318        319         13         12        319        320         14         13        320        321         15         14        321        322         16         15        323        324        307        306        324        325        308        307        325        326        309        308        326        327        310        309        327        328        311        310        328        329        312        311        329        330        313        312        330        331        314        313        331        332        315        314        332        333        316        315        333        334        317        316        334        335        318        317        335        336        319        318        336        337        320        319        337        338        321        320        338        339        322        321        340        341        324        323        341        342        325        324        342        343        326        325        343        344        327        326        344        345        328        327        345        346        329        328        346        347        330        329        347        348        331        330        348        349        332        331        349        350        333        332        350        351        334        333        351        352        335        334        352        353        336        335        353        354        337        336        354        355        338        337        355        356        339        338        357        358        341        340        358        359        342        341        359        360        343        342        360        361        344        343        361        362        345        344        362        363        346        345        363        364        347        346        364        365        348        347        365        366        349        348        366        367        350        349        367        368        351        350        368        369        352        351        369        370        353        352        370        371        354        353        371        372        355        354        372        373        356        355        374        375        358        357        375        376        359        358        376        377        360        359        377        378        361        360        378        379        362        361        379        380        363        362        380        381        364        363        381        382        365        364        382        383        366        365        383        384        367        366        384        385        368        367        385        386        369        368        386        387        370        369        387        388        371        370        388        389        372        371        389        390        373        372        391        392        375        374        392        393        376        375        393        394        377        376        394        395        378        377        395        396        379        378        396        397        380        379        397        398        381        380        398        399        382        381        399        400        383        382        400        401        384        383        401        402        385        384        402        403        386        385        403        404        387        386        404        405        388        387        405        406        389        388        406        407        390        389        408        409        392        391        409        410        393        392        410        411        394        393        411        412        395        394        412        413        396        395        413        414        397        396        414        415        398        397        415        416        399        398        416        417        400        399        417        418        401        400        418        419        402        401        419        420        403        402        420        421        404        403        421        422        405        404        422        423        406        405        423        424        407        406        425        426        409        408        426        427        410        409        427        428        411        410        428        429        412        411        429        430        413        412        430        431        414        413        431        432        415        414        432        433        416        415        433        434        417        416        434        435        418        417        435        436        419        418        436        437        420        419        437        438        421        420        438        439        422        421        439        440        423        422        440        441        424        423        442        443        426        425        443        444        427        426        444        445        428        427        445        446        429        428        446        447        430        429        447        448        431        430        448        449        432        431        449        450        433        432        450        451        434        433        451        452        435        434        452        453        436        435        453        454        437        436        454        455        438        437        455        456        439        438        456        457        440        439        457        458        441        440        459        460        443        442        460        461        444        443        461        462        445        444        462        463        446        445        463        464        447        446        464        465        448        447        465        466        449        448        466        467        450        449        467        468        451        450        468        469        452        451        469        470        453        452        470        471        454        453        471        472        455        454        472        473        456        455        473        474        457        456        474        475        458        457        476        477        460        459        477        478        461        460        478        479        462        461        479        480        463        462        480        481        464        463        481        482        465        464        482        483        466        465        483        484        467        466        484        485        468        467        485        486        469        468        486        487        470        469        487        488        471        470        488        489        472        471        489        490        473        472        490        491        474        473        491        492        475        474        493        494        477        476        494        495        478        477        495        496        479        478        496        497        480        479        497        498        481        480        498        499        482        481        499        500        483        482        500        501        484        483        501        502        485        484        502        503        486        485        503        504        487        486        504        505        488        487        505        506        489        488        506        507        490        489        507        508        491        490        508        509        492        491        510        511        494        493        511        512        495        494        512        513        496        495        513        514        497        496        514        515        498        497        515        516        499        498        516        517        500        499        517        518        501        500        518        519        502        501        519        520        503        502        520        521        504        503        521        522        505        504        522        523        506        505        523        524        507        506        524        525        508        507        525        526        509        508        527        528        511        510        528        529        512        511        529        530        513        512        530        531        514        513        531        532        515        514        532        533        516        515        533        534        517        516        534        535        518        517        535        536        519        518        536        537        520        519        537        538        521        520        538        539        522        521        539        540        523        522        540        541        524        523        541        542        525        524        542        543        526        525        544        545        528        527        545        546        529        528        546        547        530        529        547        548        531        530        548        549        532        531        549        550        533        532        550        551        534        533        551        552        535        534        552        553        536        535        553        554        537        536        554        555        538        537        555        556        539        538        556        557        540        539        557        558        541        540        558        559        542        541        559        560        543        542        561        562        545        544        562        563        546        545        563        564        547        546        564        565        548        547        565        566        549        548        566        567        550        549        567        568        551        550        568        569        552        551        569        570        553        552        570        571        554        553        571        572        555        554        572        573        556        555        573        574        557        556        574        575        558        557        575        576        559        558        576        577        560        559        578        579        596        595        579        580        597        596        580        581        598        597        581        582        599        598        582        583        600        599        583        584        601        600        584        585        602        601        585        586        603        602        586        587        604        603        587        588        605        604        588        589        606        605        589        590        607        606        590        591        608        607        591        592        609        608        592        593        610        609        593        594        611        610        595        596        613        612        596        597        614        613        597        598        615        614        598        599        616        615        599        600        617        616        600        601        618        617        601        602        619        618        602        603        620        619        603        604        621        620        604        605        622        621        605        606        623        622        606        607        624        623        607        608        625        624        608        609        626        625        609        610        627        626        610        611        628        627        612        613        630        629        613        614        631        630        614        615        632        631        615        616        633        632        616        617        634        633        617        618        635        634        618        619        636        635        619        620        637        636        620        621        638        637        621        622        639        638        622        623        640        639        623        624        641        640        624        625        642        641        625        626        643        642        626        627        644        643        627        628        645        644        629        630        647        646        630        631        648        647        631        632        649        648        632        633        650        649        633        634        651        650        634        635        652        651        635        636        653        652        636        637        654        653        637        638        655        654        638        639        656        655        639        640        657        656        640        641        658        657        641        642        659        658        642        643        660        659        643        644        661        660        644        645        662        661        646        647        664        663        647        648        665        664        648        649        666        665        649        650        667        666        650        651        668        667        651        652        669        668        652        653        670        669        653        654        671        670        654        655        672        671        655        656        673        672        656        657        674        673        657        658        675        674        658        659        676        675        659        660        677        676        660        661        678        677        661        662        679        678        663        664        681        680        664        665        682        681        665        666        683        682        666        667        684        683        667        668        685        684        668        669        686        685        669        670        687        686        670        671        688        687        671        672        689        688        672        673        690        689        673        674        691        690        674        675        692        691        675        676        693        692        676        677        694        693        677        678        695        694        678        679        696        695        680        681        698        697        681        682        699        698        682        683        700        699        683        684        701        700        684        685        702        701        685        686        703        702        686        687        704        703        687        688        705        704        688        689        706        705        689        690        707        706        690        691        708        707        691        692        709        708        692        693        710        709        693        694        711        710        694        695        712        711        695        696        713        712        697        698        715        714        698        699        716        715        699        700        717        716        700        701        718        717        701        702        719        718        702        703        720        719        703        704        721        720        704        705        722        721        705        706        723        722        706        707        724        723        707        708        725        724        708        709        726        725        709        710        727        726        710        711        728        727        711        712        729        728        712        713        730        729        714        715        732        731        715        716        733        732        716        717        734        733        717        718        735        734        718        719        736        735        719        720        737        736        720        721        738        737        721        722        739        738        722        723        740        739        723        724        741        740        724        725        742        741        725        726        743        742        726        727        744        743        727        728        745        744        728        729        746        745        729        730        747        746        731        732        749        748        732        733        750        749        733        734        751        750        734        735        752        751        735        736        753        752        736        737        754        753        737        738        755        754        738        739        756        755        739        740        757        756        740        741        758        757        741        742        759        758        742        743        760        759        743        744        761        760        744        745        762        761        745        746        763        762        746        747        764        763        748        749        766        765        749        750        767        766        750        751        768        767        751        752        769        768        752        753        770        769        753        754        771        770        754        755        772        771        755        756        773        772        756        757        774        773        757        758        775        774        758        759        776        775        759        760        777        776        760        761        778        777        761        762        779        778        762        763        780        779        763        764        781        780        765        766        783        782        766        767        784        783        767        768        785        784        768        769        786        785        769        770        787        786        770        771        788        787        771        772        789        788        772        773        790        789        773        774        791        790        774        775        792        791        775        776        793        792        776        777        794        793        777        778        795        794        778        779        796        795        779        780        797        796        780        781        798        797        782        783        800        799        783        784        801        800        784        785        802        801        785        786        803        802        786        787        804        803        787        788        805        804        788        789        806        805        789        790        807        806        790        791        808        807        791        792        809        808        792        793        810        809        793        794        811        810        794        795        812        811        795        796        813        812        796        797        814        813        797        798        815        814        799        800        817        816        800        801        818        817        801        802        819        818        802        803        820        819        803        804        821        820        804        805        822        821        805        806        823        822        806        807        824        823        807        808        825        824        808        809        826        825        809        810        827        826        810        811        828        827        811        812        829        828        812        813        830        829        813        814        831        830        814        815        832        831        816        817        834        833        817        818        835        834        818        819        836        835        819        820        837        836        820        821        838        837        821        822        839        838        822        823        840        839        823        824        841        840        824        825        842        841        825        826        843        842        826        827        844        843        827        828        845        844        828        829        846        845        829        830        847        846        830        831        848        847        831        832        849        848        833        834        562        561        834        835        563        562        835        836        564        563        836        837        565        564        837        838        566        565        838        839        567        566        839        840        568        567        840        841        569        568        841        842        570        569        842        843        571        570        843        844        572        571        844        845        573        572        845        846        574        573        846        847        575        574        847        848        576        575        848        849        577        576        884        885        579        578        885        886        580        579        886        887        581        580        887        888        582        581        888        889        583        582        889        890        584        583        890        891        585        584        891        892        586        585        892        893        587        586        893        894        588        587        894        895        589        588        895        896        590        589        896        897        591        590        897        898        592        591        898        899        593        592        899        900        594        593        901        902        885        884        902        903        886        885        903        904        887        886        904        905        888        887        905        906        889        888        906        907        890        889        907        908        891        890        908        909        892        891        909        910        893        892        910        911        894        893        911        912        895        894        912        913        896        895        913        914        897        896        914        915        898        897        915        916        899        898        916        917        900        899        918        919        902        901        919        920        903        902        920        921        904        903        921        922        905        904        922        923        906        905        923        924        907        906        924        925        908        907        925        926        909        908        926        927        910        909        927        928        911        910        928        929        912        911        929        930        913        912        930        931        914        913        931        932        915        914        932        933        916        915        933        934        917        916        935        936        919        918        936        937        920        919        937        938        921        920        938        939        922        921        939        940        923        922        940        941        924        923        941        942        925        924        942        943        926        925        943        944        927        926        944        945        928        927        945        946        929        928        946        947        930        929        947        948        931        930        948        949        932        931        949        950        933        932        950        951        934        933        952        953        936        935        953        954        937        936        954        955        938        937        955        956        939        938        956        957        940        939        957        958        941        940        958        959        942        941        959        960        943        942        960        961        944        943        961        962        945        944        962        963        946        945        963        964        947        946        964        965        948        947        965        966        949        948        966        967        950        949        967        968        951        950        969        970        953        952        970        971        954        953        971        972        955        954        972        973        956        955        973        974        957        956        974        975        958        957        975        976        959        958        976        977        960        959        977        978        961        960        978        979        962        961        979        980        963        962        980        981        964        963        981        982        965        964        982        983        966        965        983        984        967        966        984        985        968        967        986        987        970        969        987        988        971        970        988        989        972        971        989        990        973        972        990        991        974        973        991        992        975        974        992        993        976        975        993        994        977        976        994        995        978        977        995        996        979        978        996        997        980        979        997        998        981        980        998        999        982        981        999       1000        983        982       1000       1001        984        983       1001       1002        985        984       1003       1004        987        986       1004       1005        988        987       1005       1006        989        988       1006       1007        990        989       1007       1008        991        990       1008       1009        992        991       1009       1010        993        992       1010       1011        994        993       1011       1012        995        994       1012       1013        996        995       1013       1014        997        996       1014       1015        998        997       1015       1016        999        998       1016       1017       1000        999       1017       1018       1001       1000       1018       1019       1002       1001       1020       1021       1004       1003       1021       1022       1005       1004       1022       1023       1006       1005       1023       1024       1007       1006       1024       1025       1008       1007       1025       1026       1009       1008       1026       1027       1010       1009       1027       1028       1011       1010       1028       1029       1012       1011       1029       1030       1013       1012       1030       1031       1014       1013       1031       1032       1015       1014       1032       1033       1016       1015       1033       1034       1017       1016       1034       1035       1018       1017       1035       1036       1019       1018       1037       1038       1021       1020       1038       1039       1022       1021       1039       1040       1023       1022       1040       1041       1024       1023       1041       1042       1025       1024       1042       1043       1026       1025       1043       1044       1027       1026       1044       1045       1028       1027       1045       1046       1029       1028       1046       1047       1030       1029       1047       1048       1031       1030       1048       1049       1032       1031       1049       1050       1033       1032       1050       1051       1034       1033       1051       1052       1035       1034       1052       1053       1036       1035       1054       1055       1038       1037       1055       1056       1039       1038       1056       1057       1040       1039       1057       1058       1041       1040       1058       1059       1042       1041       1059       1060       1043       1042       1060       1061       1044       1043       1061       1062       1045       1044       1062       1063       1046       1045       1063       1064       1047       1046       1064       1065       1048       1047       1065       1066       1049       1048       1066       1067       1050       1049       1067       1068       1051       1050       1068       1069       1052       1051       1069       1070       1053       1052       1071       1072       1055       1054       1072       1073       1056       1055       1073       1074       1057       1056       1074       1075       1058       1057       1075       1076       1059       1058       1076       1077       1060       1059       1077       1078       1061       1060       1078       1079       1062       1061       1079       1080       1063       1062       1080       1081       1064       1063       1081       1082       1065       1064       1082       1083       1066       1065       1083       1084       1067       1066       1084       1085       1068       1067       1085       1086       1069       1068       1086       1087       1070       1069       1088       1089       1072       1071       1089       1090       1073       1072       1090       1091       1074       1073       1091       1092       1075       1074       1092       1093       1076       1075       1093       1094       1077       1076       1094       1095       1078       1077       1095       1096       1079       1078       1096       1097       1080       1079       1097       1098       1081       1080       1098       1099       1082       1081       1099       1100       1083       1082       1100       1101       1084       1083       1101       1102       1085       1084       1102       1103       1086       1085       1103       1104       1087       1086       1105       1106       1089       1088       1106       1107       1090       1089       1107       1108       1091       1090       1108       1109       1092       1091       1109       1110       1093       1092       1110       1111       1094       1093       1111       1112       1095       1094       1112       1113       1096       1095       1113       1114       1097       1096       1114       1115       1098       1097       1115       1116       1099       1098       1116       1117       1100       1099       1117       1118       1101       1100       1118       1119       1102       1101       1119       1120       1103       1102       1120       1121       1104       1103       1122       1123       1106       1105       1123       1124       1107       1106       1124       1125       1108       1107       1125       1126       1109       1108       1126       1127       1110       1109       1127       1128       1111       1110       1128       1129       1112       1111       1129       1130       1113       1112       1130       1131       1114       1113       1131       1132       1115       1114       1132       1133       1116       1115       1133       1134       1117       1116       1134       1135       1118       1117       1135       1136       1119       1118       1136       1137       1120       1119       1137       1138       1121       1120        272        273       1123       1122        273        274       1124       1123        274        275       1125       1124        275        276       1126       1125        276        277       1127       1126        277        278       1128       1127        278        279       1129       1128        279        280       1130       1129        280        281       1131       1130        281        282       1132       1131        282        283       1133       1132        283        284       1134       1133        284        285       1135       1134        285        286       1136       1135        286        287       1137       1136        287        288       1138       1137 </DataArray>
<DataArray type="Int32"                                    Name="offsets"                                                      NumberOfComponents=" 1" format="ascii">
         4          8         12         16         20         24         28         32         36         40         44         48         52         56         60         64         68         72         76         80         84         88         92         96        100        104        108        112        116        120        124        128        132        136        140        144        148        152        156        160        164        168        172        176        180        184        188        192        196        200        204        208        212        216        220        224        228        232        236        240        244        248        252        256        260        264        268        272        276        280        284        288        292        296        300        304        308        312        316        320        324        328        332        336        340        344        348        352        356        360        364        368        372        376        380        384        388        392        396        400        404        408        412        416        420        424        428        432        436        440        444        448        452        456        460        464        468        472        476        480        484        488        492        496        500        504        508        512        516        520        524        528        532        536        540        544        548        552        556        560        564        568        572        576        580        584        588        592        596        600        604        608        612        616        620        624        628        632        636        640        644        648        652        656        660        664        668        672        676        680        684        688        692        696        700        704        708        712        716        720        724        728        732        736        740        744        748        752        756        760        764        768        772        776        780        784        788        792        796        800        804        808        812        816        820        824        828        832        836        840        844        848        852        856        860        864        868        872        876        880        884        888        892        896        900        904        908        912        916        920        924        928        932        936        940        944        948        952        956        960        964        968        972        976        980        984        988        992        996       1000       1004       1008       1012       1016       1020       1024       1028       1032       1036       1040       1044       1048       1052       1056       1060       1064       1068       1072       1076       1080       1084       1088       1092       1096       1100       1104       1108       1112       1116       1120       1124       1128       1132       1136       1140       1144       1148       1152       1156       1160       1164       1168       1172       1176       1180       1184       1188       1192       1196       1200       1204       1208       1212       1216       1220       1224       1228       1232       1236       1240       1244       1248       1252       1256       1260       1264       1268       1272       1276       1280       1284       1288       1292       1296       1300       1304       1308       1312       1316       1320       1324       1328       1332       1336       1340       1344       1348       1352       1356       1360       1364       1368       1372       1376       1380       1384       1388       1392       1396       1400       1404       1408       1412       1416       1420       1424       1428       1432       1436       1440       1444       1448       1452       1456       1460       1464       1468       1472       1476       1480       1484       1488       1492       1496       1500       1504       1508       1512       1516       1520       1524       1528       1532       1536       1540       1544       1548       1552       1556       1560       1564       1568       1572       1576       1580       1584       1588       1592       1596       1600       1604       1608       1612       1616       1620       1624       1628       1632       1636       1640       1644       1648       1652       1656       1660       1664       1668       1672       1676       1680       1684       1688       1692       1696       1700       1704       1708       1712       1716       1720       1724       1728       1732       1736       1740       1744       1748       1752       1756       1760       1764       1768       1772       1776       1780       1784       1788       1792       1796       1800       1804       1808       1812       1816       1820       1824       1828       1832       1836       1840       1844       1848       1852       1856       1860       1864       1868       1872       1876       1880       1884       1888       1892       1896       1900       1904       1908       1912       1916       1920       1924       1928       1932       1936       1940       1944       1948       1952       1956       1960       1964       1968       1972       1976       1980       1984       1988       1992       1996       2000       2004       2008       2012       2016       2020       2024       2028       2032       2036       2040       2044       2048       2052       2056       2060       2064       2068       2072       2076       2080       2084       2088       2092       2096       2100       2104       2108       2112       2116       2120       2124       2128       2132       2136       2140       2144       2148       2152       2156       2160       2164       2168       2172       2176       2180       2184       2188       2192       2196       2200       2204       2208       2212       2216       2220       2224       2228       2232       2236       2240       2244       2248       2252       2256       2260       2264       2268       2272       2276       2280       2284       2288       2292       2296       2300       2304       2308       2312       2316       2320       2324       2328       2332       2336       2340       2344       2348       2352       2356       2360       2364       2368       2372       2376       2380       2384       2388       2392       2396       2400       2404       2408       2412       2416       2420       2424       2428       2432       2436       2440       2444       2448       2452       2456       2460       2464       2468       2472       2476       2480       2484       2488       2492       2496       2500       2504       2508       2512       2516       2520       2524       2528       2532       2536       2540       2544       2548       2552       2556       2560       2564       2568       2572       2576       2580       2584       2588       2592       2596       2600       2604       2608       2612       2616       2620       2624       2628       2632       2636       2640       2644       2648       2652       2656       2660       2664       2668       2672       2676       2680       2684       2688       2692       2696       2700       2704       2708       2712       2716       2720       2724       2728       2732       2736       2740       2744       2748       2752       2756       2760       2764       2768       2772       2776       2780       2784       2788       2792       2796       2800       2804       2808       2812       2816       2820       2824       2828       2832       2836       2840       2844       2848       2852       2856       2860       2864       2868       2872       2876       2880       2884       2888       2892       2896       2900       2904       2908       2912       2916       2920       2924       2928       2932       2936       2940       2944       2948       2952       2956       2960       2964       2968       2972       2976       2980       2984       2988       2992       2996       3000       3004       3008       3012       3016       3020       3024       3028       3032       3036       3040       3044       3048       3052       3056       3060       3064       3068       3072       3076       3080       3084       3088       3092       3096       3100       3104       3108       3112       3116       3120       3124       3128       3132       3136       3140       3144       3148       3152       3156       3160       3164       3168       3172       3176       3180       3184       3188       3192       3196       3200       3204       3208       3212       3216       3220       3224       3228       3232       3236       3240       3244       3248       3252       3256       3260       3264       3268       3272       3276       3280       3284       3288       3292       3296       3300       3304       3308       3312       3316       3320       3324       3328       3332       3336       3340       3344       3348       3352       3356       3360       3364       3368       3372       3376       3380       3384       3388       3392       3396       3400       3404       3408       3412       3416       3420       3424       3428       3432       3436       3440       3444       3448       3452       3456       3460       3464       3468       3472       3476       3480       3484       3488       3492       3496       3500       3504       3508       3512       3516       3520       3524       3528       3532       3536       3540       3544       3548       3552       3556       3560       3564       3568       3572       3576       3580       3584       3588       3592       3596       3600       3604       3608       3612       3616       3620       3624       3628       3632       3636       3640       3644       3648       3652       3656       3660       3664       3668       3672       3676       3680       3684       3688       3692       3696       3700       3704       3708       3712       3716       3720       3724       3728       3732       3736       3740       3744       3748       3752       3756       3760       3764       3768       3772       3776       3780       3784       3788       3792       3796       3800       3804       3808       3812       3816       3820       3824       3828       3832       3836       3840       3844       3848       3852       3856       3860       3864       3868       3872       3876       3880       3884       3888       3892       3896       3900       3904       3908       3912       3916       3920       3924       3928       3932       3936       3940       3944       3948       3952       3956       3960       3964       3968       3972       3976       3980       3984       3988       3992       3996       4000       4004       4008       4012       4016       4020       4024       4028       4032       4036       4040       4044       4048       4052       4056       4060       4064       4068       4072       4076       4080       4084       4088       4092       4096 </DataArray>
<DataArray type="UInt8"                                    Name="types"                                                      NumberOfComponents=" 1" format="ascii">
         9          9          9          9          9          9          9          9          9          9          9          9          9          9          9          9          9          9          9          9          9          9          9          9          9          9          9          9          9          9          9          9          9          9          9          9          9          9          9          9          9          9          9          9          9          9          9          9          9          9          9          9          9          9          9          9          9          9          9          9          9          9          9          9          9          9          9          9          9          9          9          9          9          9          9          9          9          9          9          9          9          9          9          9          9          9          9          9          9          9          9          9          9          9          9          9          9          9          9          9          9          9          9          9          9          9          9          9          9          9          9          9          9          9          9          9          9          9          9          9          9          9          9          9          9          9          9          9          9          9          9          9          9          9          9          9          9          9          9          9          9          9          9          9          9          9          9          9          9          9          9          9          9          9          9          9          9          9          9          9          9          9          9          9          9          9          9          9          9          9          9          9          9          9          9          9          9          9          9          9          9          9          9          9          9          9          9          9          9          9          9          9          9          9          9          9          9          9          9          9          9          9          9          9          9          9          9          9          9          9          9          9          9          9          9          9          9          9          9          9          9          9          9          9          9          9          9          9          9          9          9          9          9          9          9          9          9          9          9          9          9          9          9          9          9          9          9          9          9          9          9          9          9          9          9          9          9          9          9          9          9          9          9          9          9          9          9          9          9          9          9          9          9          9          9          9          9          9          9          9          9          9          9          9          9          9          9          9          9          9          9          9          9          9          9          9          9          9          9          9          9          9          9          9          9          9          9          9          9          9          9          9          9          9          9          9          9          9          9          9          9          9          9          9          9          9          9          9          9          9          9          9          9          9          9          9          9          9          9          9          9          9          9          9          9          9          9          9          9          9          9          9          9          9          9          9          9          9          9          9          9          9          9          9          9          9          9          9          9          9          9          9          9          9          9          9          9          9          9          9          9          9          9          9          9          9          9          9          9          9          9          9          9          9          9          9          9          9          9          9          9          9          9          9          9          9          9          9          9          9          9          9          9          9          9          9          9          9          9          9          9          9          9          9          9          9          9          9          9          9          9          9          9          9          9          9          9          9          9          9          9          9          9          9          9          9          9          9          9          9          9          9          9          9          9          9          9          9          9          9          9          9          9          9          9          9          9          9          9          9          9          9          9          9          9          9          9          9          9          9          9          9          9          9          9          9          9          9          9          9          9          9          9          9          9          9          9          9          9          9          9          9          9          9          9          9          9          9          9          9          9          9          9          9          9          9          9          9          9          9          9          9          9          9          9          9          9          9          9          9          9          9          9          9          9          9          9          9          9          9          9          9          9          9          9          9          9          9          9          9          9          9          9          9          9          9          9          9          9          9          9          9          9          9          9          9          9          9          9          9          9          9          9          9          9          9          9          9          9          9          9          9          9          9          9          9          9          9          9          9          9          9          9          9          9          9          9          9          9          9          9          9          9          9          9          9          9          9          9          9          9          9          9          9          9          9          9          9          9          9          9          9          9          9          9          9          9          9          9          9          9          9          9          9          9          9          9          9          9          9          9          9          9          9          9          9          9          9          9          9          9          9          9          9          9          9          9          9          9          9          9          9          9          9          9          9          9          9          9          9          9          9          9          9          9          9          9          9          9          9          9          9          9          9          9          9          9          9          9          9          9          9          9          9          9          9          9          9          9          9          9          9          9          9          9          9          9          9          9          9          9          9          9          9          9          9          9          9          9          9          9          9          9          9          9          9          9          9          9          9          9          9          9          9          9          9          9          9          9          9          9          9          9          9          9          9          9          9          9          9          9          9          9          9          9          9          9          9          9          9          9          9          9          9          9          9          9          9          9          9          9          9          9          9          9          9          9          9          9          9          9          9          9          9          9          9          9          9          9          9          9          9          9          9          9          9          9          9          9          9          9          9          9          9          9          9          9          9          9          9          9          9          9          9          9          9          9          9          9          9          9          9          9          9          9          9          9          9          9          9          9          9          9          9          9          9          9          9          9          9          9          9          9          9          9          9          9          9          9          9          9          9          9          9          9          9          9          9          9          9          9          9          9          9          9          9          9          9          9          9          9          9          9          9          9          9          9          9          9          9          9          9          9          9          9          9          9          9          9          9          9          9          9          9          9          9          9          9          9          9          9          9          9          9          9          9          9          9          9          9          9          9          9          9          9          9          9          9          9          9          9          9          9          9          9          9          9          9          9          9          9          9          9          9          9          9          9          9          9          9          9          9          9          9          9          9          9          9          9          9          9          9          9          9          9          9          9          9          9          9          9          9          9          9          9          9          9          9          9          9          9          9          9          9          9          9          9          9          9          9          9          9          9          9          9          9          9          9          9          9          9          9          9          9          9          9          9          9          9          9          9          9          9          9          9          9          9          9          9          9          9          9          9          9          9          9          9          9          9          9          9          9          9          9 </DataArray>
</Cells>
<CellData>
<DataArray type="Int32"                                    Name="material"                                                      NumberOfComponents=" 1" format="ascii">
         1          1          1          1          1          1          1          1          1          1          1          1          1          1          1          1          1          1          1          1          1          1          1          1          1          1          1          1          1          1          1          1          1          1          1          1          1          1          1          1          1          1          1          1          1          1          1          1          1          1          1          1          1          1          1          1          1          1          1          1          1          1          1          1          1          1          1          1          1          1          1          1          1          1          1          1          1          1          1          1          1          1          1          1          1          1          1          1          1          1          1          1          1          1          1          1          1          1          1          1          1          1          1          1          1          1          1          1          1          1          1          1          1          1          1          1          1          1          1          1          1          1          1          1          1          1          1          1          1          1          1          1          1          1          1          1          1          1          1          1          1          1          1          1          1          1          1          1          1          1          1          1          1          1          1          1          1          1          1          1          1          1          1          1          1          1          1          1          1          1          1          1          1          1          1          1          1          1          1          1          1          1          1          1          1          1          1          1          1          1          1          1          1          1          1          1          1          1          1          1          1          1          1          1          1          1          1          1          1          1          1          1          1          1          1          1          1          1          1          1          1          1          1          1          1          1          1          1          1          1          1          1          1          1          1          1          1          1          1          1          1          1          1          1          1          1          1          1          1          1          1          1          1          1          1          1          1          1          1          1          1          1          1          1          1          1          1          1          1          1          1          1          1          1          1          1          1          1          1          1          1          1          1          1          1          1          1          1          1          1          1          1          1          1          1          1          1          1          1          1          1          1          1          1          1          1          1          1          1          1          1          1          1          1          1          1          1          1          1          1          1          1          1          1          1          1          1          1          1          1          1          1          1          1          1          1          1          1          1          1          1          1          1          1          1          1          1          1          1          1          1          1          1          1          1          1          1          1          1          1          1          1          1          1          1          1          1          1          1          1          1          1          1          1          1          1          1          1          1          1          1          1          1          1          1          1          1          1          1          1          1          1          1          1          1          1          1          1          1          1          1          1          1          1          1          1          1          1          1          1          1          1          1          1          1          1          1          1          1          1          1          1          1          1          1          1          1          1          1          1          1          1          1          1          1          1          1          1          1          1          1          1          1          1          1          1          1          1          1          1          1          1          1          1          1          1          1          1          1          1          1          1          1          1          1          1          1          1          1          1          1          1          1          1          1          1          1          1          1          1          1          1          1          1          1          1          1          1          1          1          1          1          1          1          1          1          1          1          1          1          1          1          1          1          1          1          1          1          1          1          1          1          1          1          1          1          1          1          1          1          1          1          1          1          1          1          1          1          1          1          1          1          1          1          1          1          1          1          1          1          1          1          1          1          1          1          1          1          1          1          1          1          1          1          1          1          1          1          1          1          1          1          1          1          1          1          1          1          1          1          1          1          1          1          1          1          1          1          1          1          1          1          1          1          1          1          1          1          1          1          1          1          1          1          1          1          1          1          1          1          1          1          1          1          1          1          1          1          1          1          1          1          1          1          1          1          1          1          1          1          1          1          1          1          1          1          1          1          1          1          1          1          1          1          1          1          1          1          1          1          1          1          1          1          1          1          1          1          1          1          1          1          1          1          1          1          1          1          1          1          1          1          1          1          1          1          1          1          1          1          1          1          1          1          1          1          1          1          1          1          1          1          1          1          1          1          1          1          1          1          1          1          1          1          1          1          1          1          1          1          1          1          1          1          1          1          1          1          1          1          1          1          1          1          1          1          1          1          1          1          1          1          1          1          1          1          1          1          1          1          1          1          1          1          1          1          1          1          1          1          1          1          1          1          1          1          1          1          1          1          1          1          1          1          1          1          1          1          1          1          1          1          1          1          1          1          1          1          1          1          1          1          1          1          1          1          1          1          1          1          1          1          1          1          1          1          1          1          1          1          1          1          1          1          1          1          1          1          1          1          1          1          1          1          1          1          1          1          1          1          1          1          1          1          1          1          1          1          1          1          1          1          1          1          1          1          1          1          1          1          1          1          1          1          1          1          1          1          1          1          1          1          1          1          1          1          1          1          1          1          1          1          1          1          1          1          1          1          1          1          1          1          1          1          1          1          1          1          1          1          1          1          1          1          1          1          1          1          1          1          1          1          1          1          1          1          1          1          1          1          1          1          1          1          1          1          1          1          1          1          1          1          1          1          1          1          1          1          1          1          1          1          1          1          1          1          1          1          1          1          1          1          1          1          1          1          1          1          1          1          1          1          1          1          1          1          1          1          1          1          1          1          1          1          1          1          1          1          1          1          1          1          1          1          1          1          1          1          1          1          1          1          1          1          1          1          1          1          1          1          1          1          1          1          1          1          1          1          1          1          1          1          1          1          1          1          1          1          1          1          1          1          1          1          1          1          1          1          1          1          1          1          1          1          1          1          1          1          1          1          1          1          1          1          1          1          1          1          1          1          1          1          1          1 </DataArray>
</CellData>
<PointData>
<DataArray type="Float64"                                    Name="u"                                                      NumberOfComponents=" 3" format="ascii">
             -0.000010132               0.000000000               0.999999997              -0.000024036               0.000000000               0.999999997              -0.000031005              -0.000000000               0.999999997              -0.000035356              -0.000000000               0.999999997              -0.000038885               0.000000000               0.999999997              -0.000042325               0.000000000               0.999999997              -0.000046058               0.000000000               0.999999997              -0.000050250               0.000000000               0.999999997              -0.000054879              -0.000000000               0.999999997              -0.000060010               0.000000000               0.999999997              -0.000065665               0.000000000               0.999999997              -0.000071811              -0.000000000               0.999999997              -0.000078466              -0.000000000               0.999999997              -0.000085702               0.000000000               0.999999997              -0.000093523               0.000000000               0.999999997              -0.000101906               0.000000000               0.999999997              -0.000110840               0.000000000               0.999999997              -0.000010063               0.000034214               0.999999997              -0.000023417               0.000030555               0.999999997              -0.000030102               0.000029739               0.999999997              -0.000034383               0.000030523               0.999999997              -0.000037879               0.000032194               0.999999997              -0.000041316               0.000034543               0.999999997              -0.000045087               0.000037314               0.999999997              -0.000049329               0.000040386               0.999999997              -0.000054060               0.000043721               0.999999997              -0.000059343               0.000047288               0.999999997              -0.000065123               0.000050995               0.999999997              -0.000071363               0.000054835               0.999999997              -0.000078142               0.000058889               0.999999997              -0.000085474               0.000062997               0.999999997              -0.000093384               0.000067157               0.999999997              -0.000101865               0.000071228               0.999999997              -0.000110883               0.000075236               0.999999997              -0.000009906               0.000068075               0.999999997              -0.000021730               0.000060770               0.999999997              -0.000027582               0.000059321               0.999999997              -0.000031462               0.000060969               0.999999997              -0.000034858               0.000064477               0.999999997              -0.000038405               0.000069210               0.999999997              -0.000042405               0.000074819               0.999999997              -0.000046982               0.000081053               0.999999997              -0.000052109               0.000087769               0.999999997              -0.000057751               0.000094952               0.999999997              -0.000063924               0.000102307               0.999999997              -0.000070591               0.000110036               0.999999997              -0.000077778               0.000118115               0.999999997              -0.000085509               0.000126430               0.999999997              -0.000093786               0.000134807               0.999999997              -0.000102615               0.000143206               0.999999997              -0.000111997               0.000151585               0.999999997              -0.000009708               0.000101199               0.999999997              -0.000019021               0.000090308               0.999999997              -0.000023623               0.000088453               0.999999997              -0.000027074               0.000091188               0.999999997              -0.000030468               0.000096686               0.999999997              -0.000034291               0.000103935               0.999999997              -0.000038779               0.000112488               0.999999997              -0.000043881               0.000121912               0.999999997              -0.000049601               0.000132006               0.999999997              -0.000055959               0.000142762               0.999999997              -0.000062888               0.000153913               0.999999997              -0.000070356               0.000165420               0.999999997              -0.000078340               0.000177486               0.999999997              -0.000086798               0.000189961               0.999999997              -0.000095765               0.000202715               0.999999997              -0.000105260               0.000215637               0.999999997              -0.000115295               0.000228815               0.999999997              -0.000009435               0.000133202               0.999999997              -0.000015450               0.000118898               0.999999997              -0.000018705               0.000116909               0.999999997              -0.000021782               0.000121027               0.999999997              -0.000025455               0.000128600               0.999999997              -0.000029855               0.000138514               0.999999997              -0.000035003               0.000150028               0.999999997              -0.000040926               0.000162675               0.999999997              -0.000047558               0.000176212               0.999999997              -0.000054893               0.000190515               0.999999997              -0.000062912               0.000205422               0.999999997              -0.000071552               0.000220734               0.999999997              -0.000080676               0.000236673               0.999999997              -0.000090267               0.000253205               0.999999997              -0.000100310               0.000270243               0.999999997              -0.000110837               0.000287875               0.999999997              -0.000121913               0.000306078               0.999999997              -0.000009051               0.000163761               0.999999997              -0.000011229               0.000146385               0.999999997              -0.000013295               0.000144564               0.999999997              -0.000016329               0.000150203               0.999999997              -0.000020487               0.000160015               0.999999997              -0.000025671               0.000172634               0.999999997              -0.000031824               0.000187172               0.999999997              -0.000038876               0.000203081               0.999999997              -0.000046804               0.000220009               0.999999997              -0.000055495               0.000237807               0.999999997              -0.000064846               0.000256449               0.999999997              -0.000074774               0.000275622               0.999999997              -0.000085197               0.000295400               0.999999997              -0.000096067               0.000316065               0.999999997              -0.000107445               0.000337580               0.999999997              -0.000119342               0.000360006               0.999999997              -0.000131704               0.000383150               0.999999997              -0.000008612               0.000192554               0.999999997              -0.000006661               0.000172602               0.999999997              -0.000007876               0.000171244               0.999999997              -0.000011259               0.000178544               0.999999997              -0.000016192               0.000190674               0.999999997              -0.000022497               0.000206037               0.999999997              -0.000029920               0.000223513               0.999999997              -0.000038375               0.000242694               0.999999997              -0.000047728               0.000263099               0.999999997              -0.000057784               0.000284490               0.999999997              -0.000068532               0.000306964               0.999999997              -0.000079837               0.000330080               0.999999997              -0.000091692               0.000353925               0.999999997              -0.000104059               0.000378838               0.999999997              -0.000116968               0.000404878               0.999999997              -0.000130309               0.000431785               0.999999997              -0.000143837               0.000459232               0.999999997              -0.000008087               0.000219301               0.999999997              -0.000002097               0.000197458               0.999999997              -0.000002898               0.000196777               0.999999997              -0.000006930               0.000205847               0.999999997              -0.000012992               0.000220256               0.999999997              -0.000020636               0.000238295               0.999999997              -0.000029517               0.000258793               0.999999997              -0.000039482               0.000281375               0.999999997              -0.000050272               0.000305347               0.999999997              -0.000061839               0.000330456               0.999999997              -0.000074062               0.000356708               0.999999997              -0.000086794               0.000383915               0.999999997              -0.000100034               0.000412022               0.999999997              -0.000113805               0.000441346               0.999999997              -0.000127946               0.000471677               0.999999997              -0.000142168               0.000502578               0.999999997              -0.000156209               0.000533417               0.999999997              -0.000007643               0.000243534               0.999999997               0.000002268               0.000221018               0.999999997               0.000001352               0.000221110               0.999999997              -0.000003671               0.000231776               0.999999997              -0.000011012               0.000248506               0.999999997              -0.000020044               0.000269310               0.999999997              -0.000030464               0.000293015               0.999999997              -0.000041939               0.000318998               0.999999997              -0.000054305               0.000346625               0.999999997              -0.000067336               0.000375634               0.999999997              -0.000080785               0.000405933               0.999999997              -0.000094635               0.000437390               0.999999997              -0.000108945               0.000469963               0.999999997              -0.000123604               0.000503561               0.999999997              -0.000138346               0.000537826               0.999999997              -0.000152972               0.000572241               0.999999997              -0.000167435               0.000606502               0.999999997              -0.000007581               0.000266070               0.999999997               0.000005177               0.000245465               0.999999997               0.000005702               0.000243214               0.999999997               0.000001618               0.000251069               0.999999997              -0.000004789               0.000265073               0.999999997              -0.000012770               0.000283204               0.999999997              -0.000022000               0.000304354               0.999999997              -0.000032292               0.000327839               0.999999997              -0.000043447               0.000353180               0.999999997              -0.000055120               0.000380020               0.999999997              -0.000067042               0.000408091               0.999999997              -0.000079078               0.000437269               0.999999997              -0.000091283               0.000467434               0.999999997              -0.000103816               0.000498456               0.999999997              -0.000116588               0.000530315               0.999999997              -0.000129473               0.000562633               0.999999997              -0.000142555               0.000595240               0.999999997              -0.000007216               0.000286388               0.999999997               0.000007014               0.000268763               0.999999997               0.000008937               0.000265489               0.999999997               0.000006019               0.000271122               0.999999997               0.000000664               0.000282739               0.999999997              -0.000006101               0.000298425               0.999999997              -0.000014077               0.000317152               0.999999997              -0.000023180               0.000338260               0.999999997              -0.000033095               0.000361343               0.999999997              -0.000043334               0.000386036               0.999999997              -0.000053710               0.000412028               0.999999997              -0.000064080               0.000439010               0.999999997              -0.000074436               0.000466867               0.999999997              -0.000084857               0.000495568               0.999999997              -0.000095350               0.000525016               0.999999997              -0.000106014               0.000555096               0.999999997              -0.000116825               0.000585708               0.999999997              -0.000006605               0.000304126               0.999999997               0.000007798               0.000290330               0.999999997               0.000010820               0.000287110               0.999999997               0.000009108               0.000291323               0.999999997               0.000004957               0.000301044               0.999999997              -0.000000557               0.000314660               0.999999997              -0.000007222               0.000331257               0.999999997              -0.000014872               0.000350310               0.999999997              -0.000023356               0.000371352               0.999999997              -0.000032123               0.000394073               0.999999997              -0.000040934               0.000418169               0.999999997              -0.000049626               0.000443317               0.999999997              -0.000058191               0.000469244               0.999999997              -0.000066676               0.000495790               0.999999997              -0.000074920               0.000522997               0.999999997              -0.000082994               0.000550887               0.999999997              -0.000090990               0.000579454               0.999999997              -0.000005715               0.000319039               0.999999997               0.000007579               0.000309447               0.999999997               0.000011170               0.000307084               0.999999997               0.000010531               0.000310690               0.999999997               0.000007601               0.000319118               0.999999997               0.000003386               0.000331212               0.999999997              -0.000001773               0.000346126               0.999999997              -0.000007908               0.000363398               0.999999997              -0.000014789               0.000382745               0.999999997              -0.000022027               0.000403887               0.999999997              -0.000029140               0.000426451               0.999999997              -0.000036128               0.000450100               0.999999997              -0.000042982               0.000474531               0.999999997              -0.000049475               0.000499567               0.999999997              -0.000055529               0.000525116               0.999999997              -0.000061103               0.000551162               0.999999997              -0.000065984               0.000577868               0.999999997              -0.000004552               0.000330904               0.999999997               0.000006511               0.000325350               0.999999997               0.000010022               0.000324344               0.999999997               0.000010120               0.000327949               0.999999997               0.000008311               0.000335674               0.999999997               0.000005341               0.000346694               0.999999997               0.000001610               0.000360372               0.999999997              -0.000002962               0.000376336               0.999999997              -0.000008123               0.000394344               0.999999997              -0.000013616               0.000414229               0.999999997              -0.000019134               0.000435543               0.999999997              -0.000024476               0.000458037               0.999999997              -0.000029491               0.000481467               0.999999997              -0.000034217               0.000505617               0.999999997              -0.000038399               0.000530243               0.999999997              -0.000041694               0.000555263               0.999999997              -0.000043720               0.000580765               0.999999997              -0.000003162               0.000339558               0.999999997               0.000004755               0.000337295               0.999999997               0.000007537               0.000337684               0.999999997               0.000007924               0.000341616               0.999999997               0.000007030               0.000349000               0.999999997               0.000005198               0.000359406               0.999999997               0.000002759               0.000372310               0.999999997              -0.000000205               0.000387409               0.999999997              -0.000003588               0.000404506               0.999999997              -0.000007411               0.000423348               0.999999997              -0.000011340               0.000443724               0.999999997              -0.000014833               0.000465430               0.999999997              -0.000018025               0.000488257               0.999999997              -0.000021116               0.000511934               0.999999997              -0.000023751               0.000536232               0.999999997              -0.000025372               0.000561048               0.999999997              -0.000025597               0.000586140               0.999999997              -0.000001617               0.000344803               0.999999997               0.000002500               0.000344735               0.999999997               0.000004054               0.000346167               0.999999997               0.000004359               0.000350485               0.999999997               0.000004034               0.000357760               0.999999997               0.000003177               0.000367798               0.999999997               0.000001935               0.000380364               0.999999997               0.000000508               0.000395000               0.999999997              -0.000001113               0.000411463               0.999999997              -0.000003140               0.000429653               0.999999997              -0.000005156               0.000449551               0.999999997              -0.000006846               0.000470926               0.999999997              -0.000008459               0.000493524               0.999999997              -0.000009925               0.000517048               0.999999997              -0.000011075               0.000541285               0.999999997              -0.000011707               0.000566046               0.999999997              -0.000011542               0.000591007               0.999999997               0.000000000               0.000346514               0.999999997              -0.000000000               0.000347246               0.999999997               0.000000000               0.000349087               0.999999997               0.000000000               0.000353488               0.999999997              -0.000000000               0.000360746               0.999999997               0.000000000               0.000370759               0.999999997              -0.000000000               0.000383228               0.999999997              -0.000000000               0.000397679               0.999999997               0.000000000               0.000413927               0.999999997              -0.000000000               0.000431898               0.999999997              -0.000000000               0.000451666               0.999999997              -0.000000000               0.000472980               0.999999997               0.000000000               0.000495488               0.999999997               0.000000000               0.000519047               0.999999997               0.000000000               0.000543271               0.999999997               0.000000000               0.000567911               0.999999997               0.000000000               0.000592839               0.999999997              -0.000010132               0.000000000               0.999999997              -0.000024036               0.000000000               0.999999997              -0.000031005              -0.000000000               0.999999997              -0.000035356              -0.000000000               0.999999997              -0.000038885               0.000000000               0.999999997              -0.000042325               0.000000000               0.999999997              -0.000046058               0.000000000               0.999999997              -0.000050250               0.000000000               0.999999997              -0.000054879              -0.000000000               0.999999997              -0.000060010               0.000000000               0.999999997              -0.000065665               0.000000000               0.999999997              -0.000071811              -0.000000000               0.999999997              -0.000078466              -0.000000000               0.999999997              -0.000085702               0.000000000               0.999999997              -0.000093523               0.000000000               0.999999997              -0.000101906               0.000000000               0.999999997              -0.000110840               0.000000000               0.999999997              -0.000010063              -0.000034214               0.999999997              -0.000023417              -0.000030555               0.999999997              -0.000030102              -0.000029739               0.999999997              -0.000034383              -0.000030523               0.999999997              -0.000037879              -0.000032194               0.999999997              -0.000041316              -0.000034543               0.999999997              -0.000045087              -0.000037314               0.999999997              -0.000049329              -0.000040386               0.999999997              -0.000054060              -0.000043721               0.999999997              -0.000059343              -0.000047288               0.999999997              -0.000065123              -0.000050995               0.999999997              -0.000071363              -0.000054835               0.999999997              -0.000078142              -0.000058889               0.999999997              -0.000085474              -0.000062997               0.999999997              -0.000093384              -0.000067157               0.999999997              -0.000101865              -0.000071228               0.999999997              -0.000110883              -0.000075236               0.999999997              -0.000009906              -0.000068075               0.999999997              -0.000021730              -0.000060770               0.999999997              -0.000027582              -0.000059321               0.999999997              -0.000031462              -0.000060969               0.999999997              -0.000034858              -0.000064477               0.999999997              -0.000038405              -0.000069210               0.999999997              -0.000042405              -0.000074819               0.999999997              -0.000046982              -0.000081053               0.999999997              -0.000052109              -0.000087769               0.999999997              -0.000057751              -0.000094952               0.999999997              -0.000063924              -0.000102307               0.999999997              -0.000070591              -0.000110036               0.999999997              -0.000077778              -0.000118115               0.999999997              -0.000085509              -0.000126430               0.999999997              -0.000093786              -0.000134807               0.999999997              -0.000102615              -0.000143206               0.999999997              -0.000111997              -0.000151585               0.999999997              -0.000009708              -0.000101199               0.999999997              -0.000019021              -0.000090308               0.999999997              -0.000023623              -0.000088453               0.999999997              -0.000027074              -0.000091188               0.999999997              -0.000030468              -0.000096686               0.999999997              -0.000034291              -0.000103935               0.999999997              -0.000038779              -0.000112488               0.999999997              -0.000043881              -0.000121912               0.999999997              -0.000049601              -0.000132006               0.999999997              -0.000055959              -0.000142762               0.999999997              -0.000062888              -0.000153913               0.999999997              -0.000070356              -0.000165420               0.999999997              -0.000078340              -0.000177486               0.999999997              -0.000086798              -0.000189961               0.999999997              -0.000095765              -0.000202715               0.999999997              -0.000105260              -0.000215637               0.999999997              -0.000115295              -0.000228815               0.999999997              -0.000009435              -0.000133202               0.999999997              -0.000015450              -0.000118898               0.999999997              -0.000018705              -0.000116909               0.999999997              -0.000021782              -0.000121027               0.999999997              -0.000025455              -0.000128600               0.999999997              -0.000029855              -0.000138514               0.999999997              -0.000035003              -0.000150028               0.999999997              -0.000040926              -0.000162675               0.999999997              -0.000047558              -0.000176212               0.999999997              -0.000054893              -0.000190515               0.999999997              -0.000062912              -0.000205422               0.999999997              -0.000071552              -0.000220734               0.999999997              -0.000080676              -0.000236673               0.999999997              -0.000090267              -0.000253205               0.999999997              -0.000100310              -0.000270243               0.999999997              -0.000110837              -0.000287875               0.999999997              -0.000121913              -0.000306078               0.999999997              -0.000009051              -0.000163761               0.999999997              -0.000011229              -0.000146385               0.999999997              -0.000013295              -0.000144564               0.999999997              -0.000016329              -0.000150203               0.999999997              -0.000020487              -0.000160015               0.999999997              -0.000025671              -0.000172634               0.999999997              -0.000031824              -0.000187172               0.999999997              -0.000038876              -0.000203081               0.999999997              -0.000046804              -0.000220009               0.999999997              -0.000055495              -0.000237807               0.999999997              -0.000064846              -0.000256449               0.999999997              -0.000074774              -0.000275622               0.999999997              -0.000085197              -0.000295400               0.999999997              -0.000096067              -0.000316065               0.999999997              -0.000107445              -0.000337580               0.999999997              -0.000119342              -0.000360006               0.999999997              -0.000131704              -0.000383150               0.999999997              -0.000008612              -0.000192554               0.999999997              -0.000006661              -0.000172602               0.999999997              -0.000007876              -0.000171244               0.999999997              -0.000011259              -0.000178544               0.999999997              -0.000016192              -0.000190674               0.999999997              -0.000022497              -0.000206037               0.999999997              -0.000029920              -0.000223513               0.999999997              -0.000038375              -0.000242694               0.999999997              -0.000047728              -0.000263099               0.999999997              -0.000057784              -0.000284490               0.999999997              -0.000068532              -0.000306964               0.999999997              -0.000079837              -0.000330080               0.999999997              -0.000091692              -0.000353925               0.999999997              -0.000104059              -0.000378838               0.999999997              -0.000116968              -0.000404878               0.999999997              -0.000130309              -0.000431785               0.999999997              -0.000143837              -0.000459232               0.999999997              -0.000008087              -0.000219301               0.999999997              -0.000002097              -0.000197458               0.999999997              -0.000002898              -0.000196777               0.999999997              -0.000006930              -0.000205847               0.999999997              -0.000012992              -0.000220256               0.999999997              -0.000020636              -0.000238295               0.999999997              -0.000029517              -0.000258793               0.999999997              -0.000039482              -0.000281375               0.999999997              -0.000050272              -0.000305347               0.999999997              -0.000061839              -0.000330456               0.999999997              -0.000074062              -0.000356708               0.999999997              -0.000086794              -0.000383915               0.999999997              -0.000100034              -0.000412022               0.999999997              -0.000113805              -0.000441346               0.999999997              -0.000127946              -0.000471677               0.999999997              -0.000142168              -0.000502578               0.999999997              -0.000156209              -0.000533417               0.999999997              -0.000007643              -0.000243534               0.999999997               0.000002268              -0.000221018               0.999999997               0.000001352              -0.000221110               0.999999997              -0.000003671              -0.000231776               0.999999997              -0.000011012              -0.000248506               0.999999997              -0.000020044              -0.000269310               0.999999997              -0.000030464              -0.000293015               0.999999997              -0.000041939              -0.000318998               0.999999997              -0.000054305              -0.000346625               0.999999997              -0.000067336              -0.000375634               0.999999997              -0.000080785              -0.000405933               0.999999997              -0.000094635              -0.000437390               0.999999997              -0.000108945              -0.000469963               0.999999997              -0.000123604              -0.000503561               0.999999997              -0.000138346              -0.000537826               0.999999997              -0.000152972              -0.000572241               0.999999997              -0.000167435              -0.000606502               0.999999997              -0.000007581              -0.000266070               0.999999997               0.000005177              -0.000245465               0.999999997               0.000005702              -0.000243214               0.999999997               0.000001618              -0.000251069               0.999999997              -0.000004789              -0.000265073               0.999999997              -0.000012770              -0.000283204               0.999999997              -0.000022000              -0.000304354               0.999999997              -0.000032292              -0.000327839               0.999999997              -0.000043447              -0.000353180               0.999999997              -0.000055120              -0.000380020               0.999999997              -0.000067042              -0.000408091               0.999999997              -0.000079078              -0.000437269               0.999999997              -0.000091283              -0.000467434               0.999999997              -0.000103816              -0.000498456               0.999999997              -0.000116588              -0.000530315               0.999999997              -0.000129473              -0.000562633               0.999999997              -0.000142555              -0.000595240               0.999999997              -0.000007216              -0.000286388               0.999999997               0.000007014              -0.000268763               0.999999997               0.000008937              -0.000265489               0.999999997               0.000006019              -0.000271122               0.999999997               0.000000664              -0.000282739               0.999999997              -0.000006101              -0.000298425               0.999999997              -0.000014077              -0.000317152               0.999999997              -0.000023180              -0.000338260               0.999999997              -0.000033095              -0.000361343               0.999999997              -0.000043334              -0.000386036               0.999999997              -0.000053710              -0.000412028               0.999999997              -0.000064080              -0.000439010               0.999999997              -0.000074436              -0.000466867               0.999999997              -0.000084857              -0.000495568               0.999999997              -0.000095350              -0.000525016               0.999999997              -0.000106014              -0.000555096               0.999999997              -0.000116825              -0.000585708               0.999999997              -0.000006605              -0.000304126               0.999999997               0.000007798              -0.000290330               0.999999997               0.000010820              -0.000287110               0.999999997               0.000009108              -0.000291323               0.999999997               0.000004957              -0.000301044               0.999999997              -0.000000557              -0.000314660               0.999999997              -0.000007222              -0.000331257               0.999999997              -0.000014872              -0.000350310               0.999999997              -0.000023356              -0.000371352               0.999999997              -0.000032123              -0.000394073               0.999999997              -0.000040934              -0.000418169               0.999999997              -0.000049626              -0.000443317               0.999999997              -0.000058191              -0.000469244               0.999999997              -0.000066676              -0.000495790               0.999999997              -0.000074920              -0.000522997               0.999999997              -0.000082994              -0.000550887               0.999999997              -0.000090990              -0.000579454               0.999999997              -0.000005715              -0.000319039               0.999999997               0.000007579              -0.000309447               0.999999997               0.000011170              -0.000307084               0.999999997               0.000010531              -0.000310690               0.999999997               0.000007601              -0.000319118               0.999999997               0.000003386              -0.000331212               0.999999997              -0.000001773              -0.000346126               0.999999997              -0.000007908              -0.000363398               0.999999997              -0.000014789              -0.000382745               0.999999997              -0.000022027              -0.000403887               0.999999997              -0.000029140              -0.000426451               0.999999997              -0.000036128              -0.000450100               0.999999997              -0.000042982              -0.000474531               0.999999997              -0.000049475              -0.000499567               0.999999997              -0.000055529              -0.000525116               0.999999997              -0.000061103              -0.000551162               0.999999997              -0.000065984              -0.000577868               0.999999997              -0.000004552              -0.000330904               0.999999997               0.000006511              -0.000325350               0.999999997               0.000010022              -0.000324344               0.999999997               0.000010120              -0.000327949               0.999999997               0.000008311              -0.000335674               0.999999997               0.000005341              -0.000346694               0.999999997               0.000001610              -0.000360372               0.999999997              -0.000002962              -0.000376336               0.999999997              -0.000008123              -0.000394344               0.999999997              -0.000013616              -0.000414229               0.999999997              -0.000019134              -0.000435543               0.999999997              -0.000024476              -0.000458037               0.999999997              -0.000029491              -0.000481467               0.999999997              -0.000034217              -0.000505617               0.999999997              -0.000038399              -0.000530243               0.999999997              -0.000041694              -0.000555263               0.999999997              -0.000043720              -0.000580765               0.999999997              -0.000003162              -0.000339558               0.999999997               0.000004755              -0.000337295               0.999999997               0.000007537              -0.000337684               0.999999997               0.000007924              -0.000341616               0.999999997               0.000007030              -0.000349000               0.999999997               0.000005198              -0.000359406               0.999999997               0.000002759              -0.000372310               0.999999997              -0.000000205              -0.000387409               0.999999997              -0.000003588              -0.000404506               0.999999997              -0.000007411              -0.000423348               0.999999997              -0.000011340              -0.000443724               0.999999997              -0.000014833              -0.000465430               0.999999997              -0.000018025              -0.000488257               0.999999997              -0.000021116              -0.000511934               0.999999997              -0.000023751              -0.000536232               0.999999997              -0.000025372              -0.000561048               0.999999997              -0.000025597              -0.000586140               0.999999997              -0.000001617              -0.000344803               0.999999997               0.000002500              -0.000344735               0.999999997               0.000004054              -0.000346167               0.999999997               0.000004359              -0.000350485               0.999999997               0.000004034              -0.000357760               0.999999997               0.000003177              -0.000367798               0.999999997               0.000001935              -0.000380364               0.999999997               0.000000508              -0.000395000               0.999999997              -0.000001113              -0.000411463               0.999999997              -0.000003140              -0.000429653               0.999999997              -0.000005156              -0.000449551               0.999999997              -0.000006846              -0.000470926               0.999999997              -0.000008459              -0.000493524               0.999999997              -0.000009925              -0.000517048               0.999999997              -0.000011075              -0.000541285               0.999999997              -0.000011707              -0.000566046               0.999999997              -0.000011542              -0.000591007               0.999999997               0.000000000              -0.000346514               0.999999997              -0.000000000              -0.000347246               0.999999997              -0.000000000              -0.000349087               0.999999997              -0.000000000              -0.000353488               0.999999997              -0.000000000              -0.000360746               0.999999997               0.000000000              -0.000370759               0.999999997              -0.000000000              -0.000383228               0.999999997              -0.000000000              -0.000397679               0.999999997               0.000000000              -0.000413927               0.999999997               0.000000000              -0.000431898               0.999999997               0.000000000              -0.000451666               0.999999997               0.000000000              -0.000472980               0.999999997              -0.000000000              -0.000495488               0.999999997              -0.000000000              -0.000519047               0.999999997               0.000000000              -0.000543271               0.999999997               0.000000000              -0.000567911               0.999999997               0.000000000              -0.000592839               0.999999997               0.000010132              -0.000000000               0.999999997               0.000024036              -0.000000000               0.999999997               0.000031005               0.000000000               0.999999997               0.000035356              -0.000000000               0.999999997               0.000038885              -0.000000000               0.999999997               0.000042325              -0.000000000               0.999999997               0.000046058              -0.000000000               0.999999997               0.000050250              -0.000000000               0.999999997               0.000054879               0.000000000               0.999999997               0.000060010               0.000000000               0.999999997               0.000065665               0.000000000               0.999999997               0.000071811               0.000000000               0.999999997               0.000078466               0.000000000               0.999999997               0.000085702               0.000000000               0.999999997               0.000093523               0.000000000               0.999999997               0.000101906               0.000000000               0.999999997               0.000110840               0.000000000               0.999999997               0.000010063              -0.000034214               0.999999997               0.000023417              -0.000030555               0.999999997               0.000030102              -0.000029739               0.999999997               0.000034383              -0.000030523               0.999999997               0.000037879              -0.000032194               0.999999997               0.000041316              -0.000034543               0.999999997               0.000045087              -0.000037314               0.999999997               0.000049329              -0.000040386               0.999999997               0.000054060              -0.000043721               0.999999997               0.000059343              -0.000047288               0.999999997               0.000065123              -0.000050995               0.999999997               0.000071363              -0.000054835               0.999999997               0.000078142              -0.000058889               0.999999997               0.000085474              -0.000062997               0.999999997               0.000093384              -0.000067157               0.999999997               0.000101865              -0.000071228               0.999999997               0.000110883              -0.000075236               0.999999997               0.000009906              -0.000068075               0.999999997               0.000021730              -0.000060770               0.999999997               0.000027582              -0.000059321               0.999999997               0.000031462              -0.000060969               0.999999997               0.000034858              -0.000064477               0.999999997               0.000038405              -0.000069210               0.999999997               0.000042405              -0.000074819               0.999999997               0.000046982              -0.000081053               0.999999997               0.000052109              -0.000087769               0.999999997               0.000057751              -0.000094952               0.999999997               0.000063924              -0.000102307               0.999999997               0.000070591              -0.000110036               0.999999997               0.000077778              -0.000118115               0.999999997               0.000085509              -0.000126430               0.999999997               0.000093786              -0.000134807               0.999999997               0.000102615              -0.000143206               0.999999997               0.000111997              -0.000151585               0.999999997               0.000009708              -0.000101199               0.999999997               0.000019021              -0.000090308               0.999999997               0.000023623              -0.000088453               0.999999997               0.000027074              -0.000091188               0.999999997               0.000030468              -0.000096686               0.999999997               0.000034291              -0.000103935               0.999999997               0.000038779              -0.000112488               0.999999997               0.000043881              -0.000121912               0.999999997               0.000049601              -0.000132006               0.999999997               0.000055959              -0.000142762               0.999999997               0.000062888              -0.000153913               0.999999997               0.000070356              -0.000165420               0.999999997               0.000078340              -0.000177486               0.999999997               0.000086798              -0.000189961               0.999999997               0.000095765              -0.000202715               0.999999997               0.000105260              -0.000215637               0.999999997               0.000115295              -0.000228815               0.999999997               0.000009435              -0.000133202               0.999999997               0.000015450              -0.000118898               0.999999997               0.000018705              -0.000116909               0.999999997               0.000021782              -0.000121027               0.999999997               0.000025455              -0.000128600               0.999999997               0.000029855              -0.000138514               0.999999997               0.000035003              -0.000150028               0.999999997               0.000040926              -0.000162675               0.999999997               0.000047558              -0.000176212               0.999999997               0.000054893              -0.000190515               0.999999997               0.000062912              -0.000205422               0.999999997               0.000071552              -0.000220734               0.999999997               0.000080676              -0.000236673               0.999999997               0.000090267              -0.000253205               0.999999997               0.000100310              -0.000270243               0.999999997               0.000110837              -0.000287875               0.999999997               0.000121913              -0.000306078               0.999999997               0.000009051              -0.000163761               0.999999997               0.000011229              -0.000146385               0.999999997               0.000013295              -0.000144564               0.999999997               0.000016329              -0.000150203               0.999999997               0.000020487              -0.000160015               0.999999997               0.000025671              -0.000172634               0.999999997               0.000031824              -0.000187172               0.999999997               0.000038876              -0.000203081               0.999999997               0.000046804              -0.000220009               0.999999997               0.000055495              -0.000237807               0.999999997               0.000064846              -0.000256449               0.999999997               0.000074774              -0.000275622               0.999999997               0.000085197              -0.000295400               0.999999997               0.000096067              -0.000316065               0.999999997               0.000107445              -0.000337580               0.999999997               0.000119342              -0.000360006               0.999999997               0.000131704              -0.000383150               0.999999997               0.000008612              -0.000192554               0.999999997               0.000006661              -0.000172602               0.999999997               0.000007876              -0.000171244               0.999999997               0.000011259              -0.000178544               0.999999997               0.000016192              -0.000190674               0.999999997               0.000022497              -0.000206037               0.999999997               0.000029920              -0.000223513               0.999999997               0.000038375              -0.000242694               0.999999997               0.000047728              -0.000263099               0.999999997               0.000057784              -0.000284490               0.999999997               0.000068532              -0.000306964               0.999999997               0.000079837              -0.000330080               0.999999997               0.000091692              -0.000353925               0.999999997               0.000104059              -0.000378838               0.999999997               0.000116968              -0.000404878               0.999999997               0.000130309              -0.000431785               0.999999997               0.000143837              -0.000459232               0.999999997               0.000008087              -0.000219301               0.999999997               0.000002097              -0.000197458               0.999999997               0.000002898              -0.000196777               0.999999997               0.000006930              -0.000205847               0.999999997               0.000012992              -0.000220256               0.999999997               0.000020636              -0.000238295               0.999999997               0.000029517              -0.000258793               0.999999997               0.000039482              -0.000281375               0.999999997               0.000050272              -0.000305347               0.999999997               0.000061839              -0.000330456               0.999999997               0.000074062              -0.000356708               0.999999997               0.000086794              -0.000383915               0.999999997               0.000100034              -0.000412022               0.999999997               0.000113805              -0.000441346               0.999999997               0.000127946              -0.000471677               0.999999997               0.000142168              -0.000502578               0.999999997               0.000156209              -0.000533417               0.999999997               0.000007643              -0.000243534               0.999999997              -0.000002268              -0.000221018               0.999999997              -0.000001352              -0.000221110               0.999999997               0.000003671              -0.000231776               0.999999997               0.000011012              -0.000248506               0.999999997               0.000020044              -0.000269310               0.999999997               0.000030464              -0.000293015               0.999999997               0.000041939              -0.000318998               0.999999997               0.000054305              -0.000346625               0.999999997               0.000067336              -0.000375634               0.999999997               0.000080785              -0.000405933               0.999999997               0.000094635              -0.000437390               0.999999997               0.000108945              -0.000469963               0.999999997               0.000123604              -0.000503561               0.999999997               0.000138346              -0.000537826               0.999999997               0.000152972              -0.000572241               0.999999997               0.000167435              -0.000606502               0.999999997               0.000007581              -0.000266070               0.999999997              -0.000005177              -0.000245465               0.999999997              -0.000005702              -0.000243214               0.999999997              -0.000001618              -0.000251069               0.999999997               0.000004789              -0.000265073               0.999999997               0.000012770              -0.000283204               0.999999997               0.000022000              -0.000304354               0.999999997               0.000032292              -0.000327839               0.999999997               0.000043447              -0.000353180               0.999999997               0.000055120              -0.000380020               0.999999997               0.000067042              -0.000408091               0.999999997               0.000079078              -0.000437269               0.999999997               0.000091283              -0.000467434               0.999999997               0.000103816              -0.000498456               0.999999997               0.000116588              -0.000530315               0.999999997               0.000129473              -0.000562633               0.999999997               0.000142555              -0.000595240               0.999999997               0.000007216              -0.000286388               0.999999997              -0.000007014              -0.000268763               0.999999997              -0.000008937              -0.000265489               0.999999997              -0.000006019              -0.000271122               0.999999997              -0.000000664              -0.000282739               0.999999997               0.000006101              -0.000298425               0.999999997               0.000014077              -0.000317152               0.999999997               0.000023180              -0.000338260               0.999999997               0.000033095              -0.000361343               0.999999997               0.000043334              -0.000386036               0.999999997               0.000053710              -0.000412028               0.999999997               0.000064080              -0.000439010               0.999999997               0.000074436              -0.000466867               0.999999997               0.000084857              -0.000495568               0.999999997               0.000095350              -0.000525016               0.999999997               0.000106014              -0.000555096               0.999999997               0.000116825              -0.000585708               0.999999997               0.000006605              -0.000304126               0.999999997              -0.000007798              -0.000290330               0.999999997              -0.000010820              -0.000287110               0.999999997              -0.000009108              -0.000291323               0.999999997              -0.000004957              -0.000301044               0.999999997               0.000000557              -0.000314660               0.999999997               0.000007222              -0.000331257               0.999999997               0.000014872              -0.000350310               0.999999997               0.000023356              -0.000371352               0.999999997               0.000032123              -0.000394073               0.999999997               0.000040934              -0.000418169               0.999999997               0.000049626              -0.000443317               0.999999997               0.000058191              -0.000469244               0.999999997               0.000066676              -0.000495790               0.999999997               0.000074920              -0.000522997               0.999999997               0.000082994              -0.000550887               0.999999997               0.000090990              -0.000579454               0.999999997               0.000005715              -0.000319039               0.999999997              -0.000007579              -0.000309447               0.999999997              -0.000011170              -0.000307084               0.999999997              -0.000010531              -0.000310690               0.999999997              -0.000007601              -0.000319118               0.999999997              -0.000003386              -0.000331212               0.999999997               0.000001773              -0.000346126               0.999999997               0.000007908              -0.000363398               0.999999997               0.000014789              -0.000382745               0.999999997               0.000022027              -0.000403887               0.999999997               0.000029140              -0.000426451               0.999999997               0.000036128              -0.000450100               0.999999997               0.000042982              -0.000474531               0.999999997               0.000049475              -0.000499567               0.999999997               0.000055529              -0.000525116               0.999999997               0.000061103              -0.000551162               0.999999997               0.000065984              -0.000577868               0.999999997               0.000004552              -0.000330904               0.999999997              -0.000006511              -0.000325350               0.999999997              -0.000010022              -0.000324344               0.999999997              -0.000010120              -0.000327949               0.999999997              -0.000008311              -0.000335674               0.999999997              -0.000005341              -0.000346694               0.999999997              -0.000001610              -0.000360372               0.999999997               0.000002962              -0.000376336               0.999999997               0.000008123              -0.000394344               0.999999997               0.000013616              -0.000414229               0.999999997               0.000019134              -0.000435543               0.999999997               0.000024476              -0.000458037               0.999999997               0.000029491              -0.000481467               0.999999997               0.000034217              -0.000505617               0.999999997               0.000038399              -0.000530243               0.999999997               0.000041694              -0.000555263               0.999999997               0.000043720              -0.000580765               0.999999997               0.000003162              -0.000339558               0.999999997              -0.000004755              -0.000337295               0.999999997              -0.000007537              -0.000337684               0.999999997              -0.000007924              -0.000341616               0.999999997              -0.000007030              -0.000349000               0.999999997              -0.000005198              -0.000359406               0.999999997              -0.000002759              -0.000372310               0.999999997               0.000000205              -0.000387409               0.999999997               0.000003588              -0.000404506               0.999999997               0.000007411              -0.000423348               0.999999997               0.000011340              -0.000443724               0.999999997               0.000014833              -0.000465430               0.999999997               0.000018025              -0.000488257               0.999999997               0.000021116              -0.000511934               0.999999997               0.000023751              -0.000536232               0.999999997               0.000025372              -0.000561048               0.999999997               0.000025597              -0.000586140               0.999999997               0.000001617              -0.000344803               0.999999997              -0.000002500              -0.000344735               0.999999997              -0.000004054              -0.000346167               0.999999997              -0.000004359              -0.000350485               0.999999997              -0.000004034              -0.000357760               0.999999997              -0.000003177              -0.000367798               0.999999997              -0.000001935              -0.000380364               0.999999997              -0.000000508              -0.000395000               0.999999997               0.000001113              -0.000411463               0.999999997               0.000003140              -0.000429653               0.999999997               0.000005156              -0.000449551               0.999999997               0.000006846              -0.000470926               0.999999997               0.000008459              -0.000493524               0.999999997               0.000009925              -0.000517048               0.999999997               0.000011075              -0.000541285               0.999999997               0.000011707              -0.000566046               0.999999997               0.000011542              -0.000591007               0.999999997               0.000000000              -0.000346514               0.999999997              -0.000000000              -0.000347246               0.999999997              -0.000000000              -0.000349087               0.999999997              -0.000000000              -0.000353488               0.999999997              -0.000000000              -0.000360746               0.999999997               0.000000000              -0.000370759               0.999999997              -0.000000000              -0.000383228               0.999999997              -0.000000000              -0.000397679               0.999999997               0.000000000              -0.000413927               0.999999997               0.000000000              -0.000431898               0.999999997               0.000000000              -0.000451666               0.999999997               0.000000000              -0.000472980               0.999999997              -0.000000000              -0.000495488               0.999999997              -0.000000000              -0.000519047               0.999999997               0.000000000              -0.000543271               0.999999997               0.000000000              -0.000567911               0.999999997               0.000000000              -0.000592839               0.999999997               0.000010132              -0.000000000               0.999999997               0.000024036              -0.000000000               0.999999997               0.000031005               0.000000000               0.999999997               0.000035356              -0.000000000               0.999999997               0.000038885              -0.000000000               0.999999997               0.000042325              -0.000000000               0.999999997               0.000046058              -0.000000000               0.999999997               0.000050250              -0.000000000               0.999999997               0.000054879               0.000000000               0.999999997               0.000060010               0.000000000               0.999999997               0.000065665               0.000000000               0.999999997               0.000071811               0.000000000               0.999999997               0.000078466               0.000000000               0.999999997               0.000085702               0.000000000               0.999999997               0.000093523               0.000000000               0.999999997               0.000101906               0.000000000               0.999999997               0.000110840               0.000000000               0.999999997               0.000010063               0.000034214               0.999999997               0.000023417               0.000030555               0.999999997               0.000030102               0.000029739               0.999999997               0.000034383               0.000030523               0.999999997               0.000037879               0.000032194               0.999999997               0.000041316               0.000034543               0.999999997               0.000045087               0.000037314               0.999999997               0.000049329               0.000040386               0.999999997               0.000054060               0.000043721               0.999999997               0.000059343               0.000047288               0.999999997               0.000065123               0.000050995               0.999999997               0.000071363               0.000054835               0.999999997               0.000078142               0.000058889               0.999999997               0.000085474               0.000062997               0.999999997               0.000093384               0.000067157               0.999999997               0.000101865               0.000071228               0.999999997               0.000110883               0.000075236               0.999999997               0.000009906               0.000068075               0.999999997               0.000021730               0.000060770               0.999999997               0.000027582               0.000059321               0.999999997               0.000031462               0.000060969               0.999999997               0.000034858               0.000064477               0.999999997               0.000038405               0.000069210               0.999999997               0.000042405               0.000074819               0.999999997               0.000046982               0.000081053               0.999999997               0.000052109               0.000087769               0.999999997               0.000057751               0.000094952               0.999999997               0.000063924               0.000102307               0.999999997               0.000070591               0.000110036               0.999999997               0.000077778               0.000118115               0.999999997               0.000085509               0.000126430               0.999999997               0.000093786               0.000134807               0.999999997               0.000102615               0.000143206               0.999999997               0.000111997               0.000151585               0.999999997               0.000009708               0.000101199               0.999999997               0.000019021               0.000090308               0.999999997               0.000023623               0.000088453               0.999999997               0.000027074               0.000091188               0.999999997               0.000030468               0.000096686               0.999999997               0.000034291               0.000103935               0.999999997               0.000038779               0.000112488               0.999999997               0.000043881               0.000121912               0.999999997               0.000049601               0.000132006               0.999999997               0.000055959               0.000142762               0.999999997               0.000062888               0.000153913               0.999999997               0.000070356               0.000165420               0.999999997               0.000078340               0.000177486               0.999999997               0.000086798               0.000189961               0.999999997               0.000095765               0.000202715               0.999999997               0.000105260               0.000215637               0.999999997               0.000115295               0.000228815               0.999999997               0.000009435               0.000133202               0.999999997               0.000015450               0.000118898               0.999999997               0.000018705               0.000116909               0.999999997               0.000021782               0.000121027               0.999999997               0.000025455               0.000128600               0.999999997               0.000029855               0.000138514               0.999999997               0.000035003               0.000150028               0.999999997               0.000040926               0.000162675               0.999999997               0.000047558               0.000176212               0.999999997               0.000054893               0.000190515               0.999999997               0.000062912               0.000205422               0.999999997               0.000071552               0.000220734               0.999999997               0.000080676               0.000236673               0.999999997               0.000090267               0.000253205               0.999999997               0.000100310               0.000270243               0.999999997               0.000110837               0.000287875               0.999999997               0.000121913               0.000306078               0.999999997               0.000009051               0.000163761               0.999999997               0.000011229               0.000146385               0.999999997               0.000013295               0.000144564               0.999999997               0.000016329               0.000150203               0.999999997               0.000020487               0.000160015               0.999999997               0.000025671               0.000172634               0.999999997               0.000031824               0.000187172               0.999999997               0.000038876               0.000203081               0.999999997               0.000046804               0.000220009               0.999999997               0.000055495               0.000237807               0.999999997               0.000064846               0.000256449               0.999999997               0.000074774               0.000275622               0.999999997               0.000085197               0.000295400               0.999999997               0.000096067               0.000316065               0.999999997               0.000107445               0.000337580               0.999999997               0.000119342               0.000360006               0.999999997               0.000131704               0.000383150               0.999999997               0.000008612               0.000192554               0.999999997               0.000006661               0.000172602               0.999999997               0.000007876               0.000171244               0.999999997               0.000011259               0.000178544               0.999999997               0.000016192               0.000190674               0.999999997               0.000022497               0.000206037               0.999999997               0.000029920               0.000223513               0.999999997               0.000038375               0.000242694               0.999999997               0.000047728               0.000263099               0.999999997               0.000057784               0.000284490               0.999999997               0.000068532               0.000306964               0.999999997               0.000079837               0.000330080               0.999999997               0.000091692               0.000353925               0.999999997               0.000104059               0.000378838               0.999999997               0.000116968               0.000404878               0.999999997               0.000130309               0.000431785               0.999999997               0.000143837               0.000459232               0.999999997               0.000008087               0.000219301               0.999999997               0.000002097               0.000197458               0.999999997               0.000002898               0.000196777               0.999999997               0.000006930               0.000205847               0.999999997               0.000012992               0.000220256               0.999999997               0.000020636               0.000238295               0.999999997               0.000029517               0.000258793               0.999999997               0.000039482               0.000281375               0.999999997               0.000050272               0.000305347               0.999999997               0.000061839               0.000330456               0.999999997               0.000074062               0.000356708               0.999999997               0.000086794               0.000383915               0.999999997               0.000100034               0.000412022               0.999999997               0.000113805               0.000441346               0.999999997               0.000127946               0.000471677               0.999999997               0.000142168               0.000502578               0.999999997               0.000156209               0.000533417               0.999999997               0.000007643               0.000243534               0.999999997              -0.000002268               0.000221018               0.999999997              -0.000001352               0.000221110               0.999999997               0.000003671               0.000231776               0.999999997               0.000011012               0.000248506               0.999999997               0.000020044               0.000269310               0.999999997               0.000030464               0.000293015               0.999999997               0.000041939               0.000318998               0.999999997               0.000054305               0.000346625               0.999999997               0.000067336               0.000375634               0.999999997               0.000080785               0.000405933               0.999999997               0.000094635               0.000437390               0.999999997               0.000108945               0.000469963               0.999999997               0.000123604               0.000503561               0.999999997               0.000138346               0.000537826               0.999999997               0.000152972               0.000572241               0.999999997               0.000167435               0.000606502               0.999999997               0.000007581               0.000266070               0.999999997              -0.000005177               0.000245465               0.999999997              -0.000005702               0.000243214               0.999999997              -0.000001618               0.000251069               0.999999997               0.000004789               0.000265073               0.999999997               0.000012770               0.000283204               0.999999997               0.000022000               0.000304354               0.999999997               0.000032292               0.000327839               0.999999997               0.000043447               0.000353180               0.999999997               0.000055120               0.000380020               0.999999997               0.000067042               0.000408091               0.999999997               0.000079078               0.000437269               0.999999997               0.000091283               0.000467434               0.999999997               0.000103816               0.000498456               0.999999997               0.000116588               0.000530315               0.999999997               0.000129473               0.000562633               0.999999997               0.000142555               0.000595240               0.999999997               0.000007216               0.000286388               0.999999997              -0.000007014               0.000268763               0.999999997              -0.000008937               0.000265489               0.999999997              -0.000006019               0.000271122               0.999999997              -0.000000664               0.000282739               0.999999997               0.000006101               0.000298425               0.999999997               0.000014077               0.000317152               0.999999997               0.000023180               0.000338260               0.999999997               0.000033095               0.000361343               0.999999997               0.000043334               0.000386036               0.999999997               0.000053710               0.000412028               0.999999997               0.000064080               0.000439010               0.999999997               0.000074436               0.000466867               0.999999997               0.000084857               0.000495568               0.999999997               0.000095350               0.000525016               0.999999997               0.000106014               0.000555096               0.999999997               0.000116825               0.000585708               0.999999997               0.000006605               0.000304126               0.999999997              -0.000007798               0.000290330               0.999999997              -0.000010820               0.000287110               0.999999997              -0.000009108               0.000291323               0.999999997              -0.000004957               0.000301044               0.999999997               0.000000557               0.000314660               0.999999997               0.000007222               0.000331257               0.999999997               0.000014872               0.000350310               0.999999997               0.000023356               0.000371352               0.999999997               0.000032123               0.000394073               0.999999997               0.000040934               0.000418169               0.999999997               0.000049626               0.000443317               0.999999997               0.000058191               0.000469244               0.999999997               0.000066676               0.000495790               0.999999997               0.000074920               0.000522997               0.999999997               0.000082994               0.000550887               0.999999997               0.000090990               0.000579454               0.999999997               0.000005715               0.000319039               0.999999997              -0.000007579               0.000309447               0.999999997              -0.000011170               0.000307084               0.999999997              -0.000010531               0.000310690               0.999999997              -0.000007601               0.000319118               0.999999997              -0.000003386               0.000331212               0.999999997               0.000001773               0.000346126               0.999999997               0.000007908               0.000363398               0.999999997               0.000014789               0.000382745               0.999999997               0.000022027               0.000403887               0.999999997               0.000029140               0.000426451               0.999999997               0.000036128               0.000450100               0.999999997               0.000042982               0.000474531               0.999999997               0.000049475               0.000499567               0.999999997               0.000055529               0.000525116               0.999999997               0.000061103               0.000551162               0.999999997               0.000065984               0.000577868               0.999999997               0.000004552               0.000330904               0.999999997              -0.000006511               0.000325350               0.999999997              -0.000010022               0.000324344               0.999999997              -0.000010120               0.000327949               0.999999997              -0.000008311               0.000335674               0.999999997              -0.000005341               0.000346694               0.999999997              -0.000001610               0.000360372               0.999999997               0.000002962               0.000376336               0.999999997               0.000008123               0.000394344               0.999999997               0.000013616               0.000414229               0.999999997               0.000019134               0.000435543               0.999999997               0.000024476               0.000458037               0.999999997               0.000029491               0.000481467               0.999999997               0.000034217               0.000505617               0.999999997               0.000038399               0.000530243               0.999999997               0.000041694               0.000555263               0.999999997               0.000043720               0.000580765               0.999999997               0.000003162               0.000339558               0.999999997              -0.000004755               0.000337295               0.999999997              -0.000007537               0.000337684               0.999999997              -0.000007924               0.000341616               0.999999997              -0.000007030               0.000349000               0.999999997              -0.000005198               0.000359406               0.999999997              -0.000002759               0.000372310               0.999999997               0.000000205               0.000387409               0.999999997               0.000003588               0.000404506               0.999999997               0.000007411               0.000423348               0.999999997               0.000011340               0.000443724               0.999999997               0.000014833               0.000465430               0.999999997               0.000018025               0.000488257               0.999999997               0.000021116               0.000511934               0.999999997               0.000023751               0.000536232               0.999999997               0.000025372               0.000561048               0.999999997               0.000025597               0.000586140               0.999999997               0.000001617               0.000344803               0.999999997              -0.000002500               0.000344735               0.999999997              -0.000004054               0.000346167               0.999999997              -0.000004359               0.000350485               0.999999997              -0.000004034               0.000357760               0.999999997              -0.000003177               0.000367798               0.999999997              -0.000001935               0.000380364               0.999999997              -0.000000508               0.000395000               0.999999997               0.000001113               0.000411463               0.999999997               0.000003140               0.000429653               0.999999997               0.000005156               0.000449551               0.999999997               0.000006846               0.000470926               0.999999997               0.000008459               0.000493524               0.999999997               0.000009925               0.000517048               0.999999997               0.000011075               0.000541285               0.999999997               0.000011707               0.000566046               0.999999997               0.000011542               0.000591007               0.999999997               0.000000000               0.000346514               0.999999997              -0.000000000               0.000347246               0.999999997               0.000000000               0.000349087               0.999999997               0.000000000               0.000353488               0.999999997              -0.000000000               0.000360746               0.999999997               0.000000000               0.000370759               0.999999997              -0.000000000               0.000383228               0.999999997              -0.000000000               0.000397679               0.999999997               0.000000000               0.000413927               0.999999997              -0.000000000               0.000431898               0.999999997              -0.000000000               0.000451666               0.999999997              -0.000000000               0.000472980               0.999999997               0.000000000               0.000495488               0.999999997               0.000000000               0.000519047               0.999999997               0.000000000               0.000543271               0.999999997               0.000000000               0.000567911               0.999999997               0.000000000               0.000592839               0.999999997 </DataArray>
<DataArray type="Float64"                                    Name="defo"                                                      NumberOfComponents=" 3" format="ascii">
             -0.000010132               0.000000000               0.999999997              -0.000024036               0.000000000               0.999999997              -0.000031005              -0.000000000               0.999999997              -0.000035356              -0.000000000               0.999999997              -0.000038885               0.000000000               0.999999997              -0.000042325               0.000000000               0.999999997              -0.000046058               0.000000000               0.999999997              -0.000050250               0.000000000               0.999999997              -0.000054879              -0.000000000               0.999999997              -0.000060010               0.000000000               0.999999997              -0.000065665               0.000000000               0.999999997              -0.000071811              -0.000000000               0.999999997              -0.000078466              -0.000000000               0.999999997              -0.000085702               0.000000000               0.999999997              -0.000093523               0.000000000               0.999999997              -0.000101906               0.000000000               0.999999997              -0.000110840               0.000000000               0.999999997              -0.000010063               0.000034214               0.999999997              -0.000023417               0.000030555               0.999999997              -0.000030102               0.000029739               0.999999997              -0.000034383               0.000030523               0.999999997              -0.000037879               0.000032194               0.999999997              -0.000041316               0.000034543               0.999999997              -0.000045087               0.000037314               0.999999997              -0.000049329               0.000040386               0.999999997              -0.000054060               0.000043721               0.999999997              -0.000059343               0.000047288               0.999999997              -0.000065123               0.000050995               0.999999997              -0.000071363               0.000054835               0.999999997              -0.000078142               0.000058889               0.999999997              -0.000085474               0.000062997               0.999999997              -0.000093384               0.000067157               0.999999997              -0.000101865               0.000071228               0.999999997              -0.000110883               0.000075236               0.999999997              -0.000009906               0.000068075               0.999999997              -0.000021730               0.000060770               0.999999997              -0.000027582               0.000059321               0.999999997              -0.000031462               0.000060969               0.999999997              -0.000034858               0.000064477               0.999999997              -0.000038405               0.000069210               0.999999997              -0.000042405               0.000074819               0.999999997              -0.000046982               0.000081053               0.999999997              -0.000052109               0.000087769               0.999999997              -0.000057751               0.000094952               0.999999997              -0.000063924               0.000102307               0.999999997              -0.000070591               0.000110036               0.999999997              -0.000077778               0.000118115               0.999999997              -0.000085509               0.000126430               0.999999997              -0.000093786               0.000134807               0.999999997              -0.000102615               0.000143206               0.999999997              -0.000111997               0.000151585               0.999999997              -0.000009708               0.000101199               0.999999997              -0.000019021               0.000090308               0.999999997              -0.000023623               0.000088453               0.999999997              -0.000027074               0.000091188               0.999999997              -0.000030468               0.000096686               0.999999997              -0.000034291               0.000103935               0.999999997              -0.000038779               0.000112488               0.999999997              -0.000043881               0.000121912               0.999999997              -0.000049601               0.000132006               0.999999997              -0.000055959               0.000142762               0.999999997              -0.000062888               0.000153913               0.999999997              -0.000070356               0.000165420               0.999999997              -0.000078340               0.000177486               0.999999997              -0.000086798               0.000189961               0.999999997              -0.000095765               0.000202715               0.999999997              -0.000105260               0.000215637               0.999999997              -0.000115295               0.000228815               0.999999997              -0.000009435               0.000133202               0.999999997              -0.000015450               0.000118898               0.999999997              -0.000018705               0.000116909               0.999999997              -0.000021782               0.000121027               0.999999997              -0.000025455               0.000128600               0.999999997              -0.000029855               0.000138514               0.999999997              -0.000035003               0.000150028               0.999999997              -0.000040926               0.000162675               0.999999997              -0.000047558               0.000176212               0.999999997              -0.000054893               0.000190515               0.999999997              -0.000062912               0.000205422               0.999999997              -0.000071552               0.000220734               0.999999997              -0.000080676               0.000236673               0.999999997              -0.000090267               0.000253205               0.999999997              -0.000100310               0.000270243               0.999999997              -0.000110837               0.000287875               0.999999997              -0.000121913               0.000306078               0.999999997              -0.000009051               0.000163761               0.999999997              -0.000011229               0.000146385               0.999999997              -0.000013295               0.000144564               0.999999997              -0.000016329               0.000150203               0.999999997              -0.000020487               0.000160015               0.999999997              -0.000025671               0.000172634               0.999999997              -0.000031824               0.000187172               0.999999997              -0.000038876               0.000203081               0.999999997              -0.000046804               0.000220009               0.999999997              -0.000055495               0.000237807               0.999999997              -0.000064846               0.000256449               0.999999997              -0.000074774               0.000275622               0.999999997              -0.000085197               0.000295400               0.999999997              -0.000096067               0.000316065               0.999999997              -0.000107445               0.000337580               0.999999997              -0.000119342               0.000360006               0.999999997              -0.000131704               0.000383150               0.999999997              -0.000008612               0.000192554               0.999999997              -0.000006661               0.000172602               0.999999997              -0.000007876               0.000171244               0.999999997              -0.000011259               0.000178544               0.999999997              -0.000016192               0.000190674               0.999999997              -0.000022497               0.000206037               0.999999997              -0.000029920               0.000223513               0.999999997              -0.000038375               0.000242694               0.999999997              -0.000047728               0.000263099               0.999999997              -0.000057784               0.000284490               0.999999997              -0.000068532               0.000306964               0.999999997              -0.000079837               0.000330080               0.999999997              -0.000091692               0.000353925               0.999999997              -0.000104059               0.000378838               0.999999997              -0.000116968               0.000404878               0.999999997              -0.000130309               0.000431785               0.999999997              -0.000143837               0.000459232               0.999999997              -0.000008087               0.000219301               0.999999997              -0.000002097               0.000197458               0.999999997              -0.000002898               0.000196777               0.999999997              -0.000006930               0.000205847               0.999999997              -0.000012992               0.000220256               0.999999997              -0.000020636               0.000238295               0.999999997              -0.000029517               0.000258793               0.999999997              -0.000039482               0.000281375               0.999999997              -0.000050272               0.000305347               0.999999997              -0.000061839               0.000330456               0.999999997              -0.000074062               0.000356708               0.999999997              -0.000086794               0.000383915               0.999999997              -0.000100034               0.000412022               0.999999997              -0.000113805               0.000441346               0.999999997              -0.000127946               0.000471677               0.999999997              -0.000142168               0.000502578               0.999999997              -0.000156209               0.000533417               0.999999997              -0.000007643               0.000243534               0.999999997               0.000002268               0.000221018               0.999999997               0.000001352               0.000221110               0.999999997              -0.000003671               0.000231776               0.999999997              -0.000011012               0.000248506               0.999999997              -0.000020044               0.000269310               0.999999997              -0.000030464               0.000293015               0.999999997              -0.000041939               0.000318998               0.999999997              -0.000054305               0.000346625               0.999999997              -0.000067336               0.000375634               0.999999997              -0.000080785               0.000405933               0.999999997              -0.000094635               0.000437390               0.999999997              -0.000108945               0.000469963               0.999999997              -0.000123604               0.000503561               0.999999997              -0.000138346               0.000537826               0.999999997              -0.000152972               0.000572241               0.999999997              -0.000167435               0.000606502               0.999999997              -0.000007581               0.000266070               0.999999997               0.000005177               0.000245465               0.999999997               0.000005702               0.000243214               0.999999997               0.000001618               0.000251069               0.999999997              -0.000004789               0.000265073               0.999999997              -0.000012770               0.000283204               0.999999997              -0.000022000               0.000304354               0.999999997              -0.000032292               0.000327839               0.999999997              -0.000043447               0.000353180               0.999999997              -0.000055120               0.000380020               0.999999997              -0.000067042               0.000408091               0.999999997              -0.000079078               0.000437269               0.999999997              -0.000091283               0.000467434               0.999999997              -0.000103816               0.000498456               0.999999997              -0.000116588               0.000530315               0.999999997              -0.000129473               0.000562633               0.999999997              -0.000142555               0.000595240               0.999999997              -0.000007216               0.000286388               0.999999997               0.000007014               0.000268763               0.999999997               0.000008937               0.000265489               0.999999997               0.000006019               0.000271122               0.999999997               0.000000664               0.000282739               0.999999997              -0.000006101               0.000298425               0.999999997              -0.000014077               0.000317152               0.999999997              -0.000023180               0.000338260               0.999999997              -0.000033095               0.000361343               0.999999997              -0.000043334               0.000386036               0.999999997              -0.000053710               0.000412028               0.999999997              -0.000064080               0.000439010               0.999999997              -0.000074436               0.000466867               0.999999997              -0.000084857               0.000495568               0.999999997              -0.000095350               0.000525016               0.999999997              -0.000106014               0.000555096               0.999999997              -0.000116825               0.000585708               0.999999997              -0.000006605               0.000304126               0.999999997               0.000007798               0.000290330               0.999999997               0.000010820               0.000287110               0.999999997               0.000009108               0.000291323               0.999999997               0.000004957               0.000301044               0.999999997              -0.000000557               0.000314660               0.999999997              -0.000007222               0.000331257               0.999999997              -0.000014872               0.000350310               0.999999997              -0.000023356               0.000371352               0.999999997              -0.000032123               0.000394073               0.999999997              -0.000040934               0.000418169               0.999999997              -0.000049626               0.000443317               0.999999997              -0.000058191               0.000469244               0.999999997              -0.000066676               0.000495790               0.999999997              -0.000074920               0.000522997               0.999999997              -0.000082994               0.000550887               0.999999997              -0.000090990               0.000579454               0.999999997              -0.000005715               0.000319039               0.999999997               0.000007579               0.000309447               0.999999997               0.000011170               0.000307084               0.999999997               0.000010531               0.000310690               0.999999997               0.000007601               0.000319118               0.999999997               0.000003386               0.000331212               0.999999997              -0.000001773               0.000346126               0.999999997              -0.000007908               0.000363398               0.999999997              -0.000014789               0.000382745               0.999999997              -0.000022027               0.000403887               0.999999997              -0.000029140               0.000426451               0.999999997              -0.000036128               0.000450100               0.999999997              -0.000042982               0.000474531               0.999999997              -0.000049475               0.000499567               0.999999997              -0.000055529               0.000525116               0.999999997              -0.000061103               0.000551162               0.999999997              -0.000065984               0.000577868               0.999999997              -0.000004552               0.000330904               0.999999997               0.000006511               0.000325350               0.999999997               0.000010022               0.000324344               0.999999997               0.000010120               0.000327949               0.999999997               0.000008311               0.000335674               0.999999997               0.000005341               0.000346694               0.999999997               0.000001610               0.000360372               0.999999997              -0.000002962               0.000376336               0.999999997              -0.000008123               0.000394344               0.999999997              -0.000013616               0.000414229               0.999999997              -0.000019134               0.000435543               0.999999997              -0.000024476               0.000458037               0.999999997              -0.000029491               0.000481467               0.999999997              -0.000034217               0.000505617               0.999999997              -0.000038399               0.000530243               0.999999997              -0.000041694               0.000555263               0.999999997              -0.000043720               0.000580765               0.999999997              -0.000003162               0.000339558               0.999999997               0.000004755               0.000337295               0.999999997               0.000007537               0.000337684               0.999999997               0.000007924               0.000341616               0.999999997               0.000007030               0.000349000               0.999999997               0.000005198               0.000359406               0.999999997               0.000002759               0.000372310               0.999999997              -0.000000205               0.000387409               0.999999997              -0.000003588               0.000404506               0.999999997              -0.000007411               0.000423348               0.999999997              -0.000011340               0.000443724               0.999999997              -0.000014833               0.000465430               0.999999997              -0.000018025               0.000488257               0.999999997              -0.000021116               0.000511934               0.999999997              -0.000023751               0.000536232               0.999999997              -0.000025372               0.000561048               0.999999997              -0.000025597               0.000586140               0.999999997              -0.000001617               0.000344803               0.999999997               0.000002500               0.000344735               0.999999997               0.000004054               0.000346167               0.999999997               0.000004359               0.000350485               0.999999997               0.000004034               0.000357760               0.999999997               0.000003177               0.000367798               0.999999997               0.000001935               0.000380364               0.999999997               0.000000508               0.000395000               0.999999997              -0.000001113               0.000411463               0.999999997              -0.000003140               0.000429653               0.999999997              -0.000005156               0.000449551               0.999999997              -0.000006846               0.000470926               0.999999997              -0.000008459               0.000493524               0.999999997              -0.000009925               0.000517048               0.999999997              -0.000011075               0.000541285               0.999999997              -0.000011707               0.000566046               0.999999997              -0.000011542               0.000591007               0.999999997               0.000000000               0.000346514               0.999999997              -0.000000000               0.000347246               0.999999997               0.000000000               0.000349087               0.999999997               0.000000000               0.000353488               0.999999997              -0.000000000               0.000360746               0.999999997               0.000000000               0.000370759               0.999999997              -0.000000000               0.000383228               0.999999997              -0.000000000               0.000397679               0.999999997               0.000000000               0.000413927               0.999999997              -0.000000000               0.000431898               0.999999997              -0.000000000               0.000451666               0.999999997              -0.000000000               0.000472980               0.999999997               0.000000000               0.000495488               0.999999997               0.000000000               0.000519047               0.999999997               0.000000000               0.000543271               0.999999997               0.000000000               0.000567911               0.999999997               0.000000000               0.000592839               0.999999997              -0.000010132               0.000000000               0.999999997              -0.000024036               0.000000000               0.999999997              -0.000031005              -0.000000000               0.999999997              -0.000035356              -0.000000000               0.999999997              -0.000038885               0.000000000               0.999999997              -0.000042325               0.000000000               0.999999997              -0.000046058               0.000000000               0.999999997              -0.000050250               0.000000000               0.999999997              -0.000054879              -0.000000000               0.999999997              -0.000060010               0.000000000               0.999999997              -0.000065665               0.000000000               0.999999997              -0.000071811              -0.000000000               0.999999997              -0.000078466              -0.000000000               0.999999997              -0.000085702               0.000000000               0.999999997              -0.000093523               0.000000000               0.999999997              -0.000101906               0.000000000               0.999999997              -0.000110840               0.000000000               0.999999997              -0.000010063              -0.000034214               0.999999997              -0.000023417              -0.000030555               0.999999997              -0.000030102              -0.000029739               0.999999997              -0.000034383              -0.000030523               0.999999997              -0.000037879              -0.000032194               0.999999997              -0.000041316              -0.000034543               0.999999997              -0.000045087              -0.000037314               0.999999997              -0.000049329              -0.000040386               0.999999997              -0.000054060              -0.000043721               0.999999997              -0.000059343              -0.000047288               0.999999997              -0.000065123              -0.000050995               0.999999997              -0.000071363              -0.000054835               0.999999997              -0.000078142              -0.000058889               0.999999997              -0.000085474              -0.000062997               0.999999997              -0.000093384              -0.000067157               0.999999997              -0.000101865              -0.000071228               0.999999997              -0.000110883              -0.000075236               0.999999997              -0.000009906              -0.000068075               0.999999997              -0.000021730              -0.000060770               0.999999997              -0.000027582              -0.000059321               0.999999997              -0.000031462              -0.000060969               0.999999997              -0.000034858              -0.000064477               0.999999997              -0.000038405              -0.000069210               0.999999997              -0.000042405              -0.000074819               0.999999997              -0.000046982              -0.000081053               0.999999997              -0.000052109              -0.000087769               0.999999997              -0.000057751              -0.000094952               0.999999997              -0.000063924              -0.000102307               0.999999997              -0.000070591              -0.000110036               0.999999997              -0.000077778              -0.000118115               0.999999997              -0.000085509              -0.000126430               0.999999997              -0.000093786              -0.000134807               0.999999997              -0.000102615              -0.000143206               0.999999997              -0.000111997              -0.000151585               0.999999997              -0.000009708              -0.000101199               0.999999997              -0.000019021              -0.000090308               0.999999997              -0.000023623              -0.000088453               0.999999997              -0.000027074              -0.000091188               0.999999997              -0.000030468              -0.000096686               0.999999997              -0.000034291              -0.000103935               0.999999997              -0.000038779              -0.000112488               0.999999997              -0.000043881              -0.000121912               0.999999997              -0.000049601              -0.000132006               0.999999997              -0.000055959              -0.000142762               0.999999997              -0.000062888              -0.000153913               0.999999997              -0.000070356              -0.000165420               0.999999997              -0.000078340              -0.000177486               0.999999997              -0.000086798              -0.000189961               0.999999997              -0.000095765              -0.000202715               0.999999997              -0.000105260              -0.000215637               0.999999997              -0.000115295              -0.000228815               0.999999997              -0.000009435              -0.000133202               0.999999997              -0.000015450              -0.000118898               0.999999997              -0.000018705              -0.000116909               0.999999997              -0.000021782              -0.000121027               0.999999997              -0.000025455              -0.000128600               0.999999997              -0.000029855              -0.000138514               0.999999997              -0.000035003              -0.000150028               0.999999997              -0.000040926              -0.000162675               0.999999997              -0.000047558              -0.000176212               0.999999997              -0.000054893              -0.000190515               0.999999997              -0.000062912              -0.000205422               0.999999997              -0.000071552              -0.000220734               0.999999997              -0.000080676              -0.000236673               0.999999997              -0.000090267              -0.000253205               0.999999997              -0.000100310              -0.000270243               0.999999997              -0.000110837              -0.000287875               0.999999997              -0.000121913              -0.000306078               0.999999997              -0.000009051              -0.000163761               0.999999997              -0.000011229              -0.000146385               0.999999997              -0.000013295              -0.000144564               0.999999997              -0.000016329              -0.000150203               0.999999997              -0.000020487              -0.000160015               0.999999997              -0.000025671              -0.000172634               0.999999997              -0.000031824              -0.000187172               0.999999997              -0.000038876              -0.000203081               0.999999997              -0.000046804              -0.000220009               0.999999997              -0.000055495              -0.000237807               0.999999997              -0.000064846              -0.000256449               0.999999997              -0.000074774              -0.000275622               0.999999997              -0.000085197              -0.000295400               0.999999997              -0.000096067              -0.000316065               0.999999997              -0.000107445              -0.000337580               0.999999997              -0.000119342              -0.000360006               0.999999997              -0.000131704              -0.000383150               0.999999997              -0.000008612              -0.000192554               0.999999997              -0.000006661              -0.000172602               0.999999997              -0.000007876              -0.000171244               0.999999997              -0.000011259              -0.000178544               0.999999997              -0.000016192              -0.000190674               0.999999997              -0.000022497              -0.000206037               0.999999997              -0.000029920              -0.000223513               0.999999997              -0.000038375              -0.000242694               0.999999997              -0.000047728              -0.000263099               0.999999997              -0.000057784              -0.000284490               0.999999997              -0.000068532              -0.000306964               0.999999997              -0.000079837              -0.000330080               0.999999997              -0.000091692              -0.000353925               0.999999997              -0.000104059              -0.000378838               0.999999997              -0.000116968              -0.000404878               0.999999997              -0.000130309              -0.000431785               0.999999997              -0.000143837              -0.000459232               0.999999997              -0.000008087              -0.000219301               0.999999997              -0.000002097              -0.000197458               0.999999997              -0.000002898              -0.000196777               0.999999997              -0.000006930              -0.000205847               0.999999997              -0.000012992              -0.000220256               0.999999997              -0.000020636              -0.000238295               0.999999997              -0.000029517              -0.000258793               0.999999997              -0.000039482              -0.000281375               0.999999997              -0.000050272              -0.000305347               0.999999997              -0.000061839              -0.000330456               0.999999997              -0.000074062              -0.000356708               0.999999997              -0.000086794              -0.000383915               0.999999997              -0.000100034              -0.000412022               0.999999997              -0.000113805              -0.000441346               0.999999997              -0.000127946              -0.000471677               0.999999997              -0.000142168              -0.000502578               0.999999997              -0.000156209              -0.000533417               0.999999997              -0.000007643              -0.000243534               0.999999997               0.000002268              -0.000221018               0.999999997               0.000001352              -0.000221110               0.999999997              -0.000003671              -0.000231776               0.999999997              -0.000011012              -0.000248506               0.999999997              -0.000020044              -0.000269310               0.999999997              -0.000030464              -0.000293015               0.999999997              -0.000041939              -0.000318998               0.999999997              -0.000054305              -0.000346625               0.999999997              -0.000067336              -0.000375634               0.999999997              -0.000080785              -0.000405933               0.999999997              -0.000094635              -0.000437390               0.999999997              -0.000108945              -0.000469963               0.999999997              -0.000123604              -0.000503561               0.999999997              -0.000138346              -0.000537826               0.999999997              -0.000152972              -0.000572241               0.999999997              -0.000167435              -0.000606502               0.999999997              -0.000007581              -0.000266070               0.999999997               0.000005177              -0.000245465               0.999999997               0.000005702              -0.000243214               0.999999997               0.000001618              -0.000251069               0.999999997              -0.000004789              -0.000265073               0.999999997              -0.000012770              -0.000283204               0.999999997              -0.000022000              -0.000304354               0.999999997              -0.000032292              -0.000327839               0.999999997              -0.000043447              -0.000353180               0.999999997              -0.000055120              -0.000380020               0.999999997              -0.000067042              -0.000408091               0.999999997              -0.000079078              -0.000437269               0.999999997              -0.000091283              -0.000467434               0.999999997              -0.000103816              -0.000498456               0.999999997              -0.000116588              -0.000530315               0.999999997              -0.000129473              -0.000562633               0.999999997              -0.000142555              -0.000595240               0.999999997              -0.000007216              -0.000286388               0.999999997               0.000007014              -0.000268763               0.999999997               0.000008937              -0.000265489               0.999999997               0.000006019              -0.000271122               0.999999997               0.000000664              -0.000282739               0.999999997              -0.000006101              -0.000298425               0.999999997              -0.000014077              -0.000317152               0.999999997              -0.000023180              -0.000338260               0.999999997              -0.000033095              -0.000361343               0.999999997              -0.000043334              -0.000386036               0.999999997              -0.000053710              -0.000412028               0.999999997              -0.000064080              -0.000439010               0.999999997              -0.000074436              -0.000466867               0.999999997              -0.000084857              -0.000495568               0.999999997              -0.000095350              -0.000525016               0.999999997              -0.000106014              -0.000555096               0.999999997              -0.000116825              -0.000585708               0.999999997              -0.000006605              -0.000304126               0.999999997               0.000007798              -0.000290330               0.999999997               0.000010820              -0.000287110               0.999999997               0.000009108              -0.000291323               0.999999997               0.000004957              -0.000301044               0.999999997              -0.000000557              -0.000314660               0.999999997              -0.000007222              -0.000331257               0.999999997              -0.000014872              -0.000350310               0.999999997              -0.000023356              -0.000371352               0.999999997              -0.000032123              -0.000394073               0.999999997              -0.000040934              -0.000418169               0.999999997              -0.000049626              -0.000443317               0.999999997              -0.000058191              -0.000469244               0.999999997              -0.000066676              -0.000495790               0.999999997              -0.000074920              -0.000522997               0.999999997              -0.000082994              -0.000550887               0.999999997              -0.000090990              -0.000579454               0.999999997              -0.000005715              -0.000319039               0.999999997               0.000007579              -0.000309447               0.999999997               0.000011170              -0.000307084               0.999999997               0.000010531              -0.000310690               0.999999997               0.000007601              -0.000319118               0.999999997               0.000003386              -0.000331212               0.999999997              -0.000001773              -0.000346126               0.999999997              -0.000007908              -0.000363398               0.999999997              -0.000014789              -0.000382745               0.999999997              -0.000022027              -0.000403887               0.999999997              -0.000029140              -0.000426451               0.999999997              -0.000036128              -0.000450100               0.999999997              -0.000042982              -0.000474531               0.999999997              -0.000049475              -0.000499567               0.999999997              -0.000055529              -0.000525116               0.999999997              -0.000061103              -0.000551162               0.999999997              -0.000065984              -0.000577868               0.999999997              -0.000004552              -0.000330904               0.999999997               0.000006511              -0.000325350               0.999999997               0.000010022              -0.000324344               0.999999997               0.000010120              -0.000327949               0.999999997               0.000008311              -0.000335674               0.999999997               0.000005341              -0.000346694               0.999999997               0.000001610              -0.000360372               0.999999997              -0.000002962              -0.000376336               0.999999997              -0.000008123              -0.000394344               0.999999997              -0.000013616              -0.000414229               0.999999997              -0.000019134              -0.000435543               0.999999997              -0.000024476              -0.000458037               0.999999997              -0.000029491              -0.000481467               0.999999997              -0.000034217              -0.000505617               0.999999997              -0.000038399              -0.000530243               0.999999997              -0.000041694              -0.000555263               0.999999997              -0.000043720              -0.000580765               0.999999997              -0.000003162              -0.000339558               0.999999997               0.000004755              -0.000337295               0.999999997               0.000007537              -0.000337684               0.999999997               0.000007924              -0.000341616               0.999999997               0.000007030              -0.000349000               0.999999997               0.000005198              -0.000359406               0.999999997               0.000002759              -0.000372310               0.999999997              -0.000000205              -0.000387409               0.999999997              -0.000003588              -0.000404506               0.999999997              -0.000007411              -0.000423348               0.999999997              -0.000011340              -0.000443724               0.999999997              -0.000014833              -0.000465430               0.999999997              -0.000018025              -0.000488257               0.999999997              -0.000021116              -0.000511934               0.999999997              -0.000023751              -0.000536232               0.999999997              -0.000025372              -0.000561048               0.999999997              -0.000025597              -0.000586140               0.999999997              -0.000001617              -0.000344803               0.999999997               0.000002500              -0.000344735               0.999999997               0.000004054              -0.000346167               0.999999997               0.000004359              -0.000350485               0.999999997               0.000004034              -0.000357760               0.999999997               0.000003177              -0.000367798               0.999999997               0.000001935              -0.000380364               0.999999997               0.000000508              -0.000395000               0.999999997              -0.000001113              -0.000411463               0.999999997              -0.000003140              -0.000429653               0.999999997              -0.000005156              -0.000449551               0.999999997              -0.000006846              -0.000470926               0.999999997              -0.000008459              -0.000493524               0.999999997              -0.000009925              -0.000517048               0.999999997              -0.000011075              -0.000541285               0.999999997              -0.000011707              -0.000566046               0.999999997              -0.000011542              -0.000591007               0.999999997               0.000000000              -0.000346514               0.999999997              -0.000000000              -0.000347246               0.999999997              -0.000000000              -0.000349087               0.999999997              -0.000000000              -0.000353488               0.999999997              -0.000000000              -0.000360746               0.999999997               0.000000000              -0.000370759               0.999999997              -0.000000000              -0.000383228               0.999999997              -0.000000000              -0.000397679               0.999999997               0.000000000              -0.000413927               0.999999997               0.000000000              -0.000431898               0.999999997               0.000000000              -0.000451666               0.999999997               0.000000000              -0.000472980               0.999999997              -0.000000000              -0.000495488               0.999999997              -0.000000000              -0.000519047               0.999999997               0.000000000              -0.000543271               0.999999997               0.000000000              -0.000567911               0.999999997               0.000000000              -0.000592839               0.999999997               0.000010132              -0.000000000               0.999999997               0.000024036              -0.000000000               0.999999997               0.000031005               0.000000000               0.999999997               0.000035356              -0.000000000               0.999999997               0.000038885              -0.000000000               0.999999997               0.000042325              -0.000000000               0.999999997               0.000046058              -0.000000000               0.999999997               0.000050250              -0.000000000               0.999999997               0.000054879               0.000000000               0.999999997               0.000060010               0.000000000               0.999999997               0.000065665               0.000000000               0.999999997               0.000071811               0.000000000               0.999999997               0.000078466               0.000000000               0.999999997               0.000085702               0.000000000               0.999999997               0.000093523               0.000000000               0.999999997               0.000101906               0.000000000               0.999999997               0.000110840               0.000000000               0.999999997               0.000010063              -0.000034214               0.999999997               0.000023417              -0.000030555               0.999999997               0.000030102              -0.000029739               0.999999997               0.000034383              -0.000030523               0.999999997               0.000037879              -0.000032194               0.999999997               0.000041316              -0.000034543               0.999999997               0.000045087              -0.000037314               0.999999997               0.000049329              -0.000040386               0.999999997               0.000054060              -0.000043721               0.999999997               0.000059343              -0.000047288               0.999999997               0.000065123              -0.000050995               0.999999997               0.000071363              -0.000054835               0.999999997               0.000078142              -0.000058889               0.999999997               0.000085474              -0.000062997               0.999999997               0.000093384              -0.000067157               0.999999997               0.000101865              -0.000071228               0.999999997               0.000110883              -0.000075236               0.999999997               0.000009906              -0.000068075               0.999999997               0.000021730              -0.000060770               0.999999997               0.000027582              -0.000059321               0.999999997               0.000031462              -0.000060969               0.999999997               0.000034858              -0.000064477               0.999999997               0.000038405              -0.000069210               0.999999997               0.000042405              -0.000074819               0.999999997               0.000046982              -0.000081053               0.999999997               0.000052109              -0.000087769               0.999999997               0.000057751              -0.000094952               0.999999997               0.000063924              -0.000102307               0.999999997               0.000070591              -0.000110036               0.999999997               0.000077778              -0.000118115               0.999999997               0.000085509              -0.000126430               0.999999997               0.000093786              -0.000134807               0.999999997               0.000102615              -0.000143206               0.999999997               0.000111997              -0.000151585               0.999999997               0.000009708              -0.000101199               0.999999997               0.000019021              -0.000090308               0.999999997               0.000023623              -0.000088453               0.999999997               0.000027074              -0.000091188               0.999999997               0.000030468              -0.000096686               0.999999997               0.000034291              -0.000103935               0.999999997               0.000038779              -0.000112488               0.999999997               0.000043881              -0.000121912               0.999999997               0.000049601              -0.000132006               0.999999997               0.000055959              -0.000142762               0.999999997               0.000062888              -0.000153913               0.999999997               0.000070356              -0.000165420               0.999999997               0.000078340              -0.000177486               0.999999997               0.000086798              -0.000189961               0.999999997               0.000095765              -0.000202715               0.999999997               0.000105260              -0.000215637               0.999999997               0.000115295              -0.000228815               0.999999997               0.000009435              -0.000133202               0.999999997               0.000015450              -0.000118898               0.999999997               0.000018705              -0.000116909               0.999999997               0.000021782              -0.000121027               0.999999997               0.000025455              -0.000128600               0.999999997               0.000029855              -0.000138514               0.999999997               0.000035003              -0.000150028               0.999999997               0.000040926              -0.000162675               0.999999997               0.000047558              -0.000176212               0.999999997               0.000054893              -0.000190515               0.999999997               0.000062912              -0.000205422               0.999999997               0.000071552              -0.000220734               0.999999997               0.000080676              -0.000236673               0.999999997               0.000090267              -0.000253205               0.999999997               0.000100310              -0.000270243               0.999999997               0.000110837              -0.000287875               0.999999997               0.000121913              -0.000306078               0.999999997               0.000009051              -0.000163761               0.999999997               0.000011229              -0.000146385               0.999999997               0.000013295              -0.000144564               0.999999997               0.000016329              -0.000150203               0.999999997               0.000020487              -0.000160015               0.999999997               0.000025671              -0.000172634               0.999999997               0.000031824              -0.000187172               0.999999997               0.000038876              -0.000203081               0.999999997               0.000046804              -0.000220009               0.999999997               0.000055495              -0.000237807               0.999999997               0.000064846              -0.000256449               0.999999997               0.000074774              -0.000275622               0.999999997               0.000085197              -0.000295400               0.999999997               0.000096067              -0.000316065               0.999999997               0.000107445              -0.000337580               0.999999997               0.000119342              -0.000360006               0.999999997               0.000131704              -0.000383150               0.999999997               0.000008612              -0.000192554               0.999999997               0.000006661              -0.000172602               0.999999997               0.000007876              -0.000171244               0.999999997               0.000011259              -0.000178544               0.999999997               0.000016192              -0.000190674               0.999999997               0.000022497              -0.000206037               0.999999997               0.000029920              -0.000223513               0.999999997               0.000038375              -0.000242694               0.999999997               0.000047728              -0.000263099               0.999999997               0.000057784              -0.000284490               0.999999997               0.000068532              -0.000306964               0.999999997               0.000079837              -0.000330080               0.999999997               0.000091692              -0.000353925               0.999999997               0.000104059              -0.000378838               0.999999997               0.000116968              -0.000404878               0.999999997               0.000130309              -0.000431785               0.999999997               0.000143837              -0.000459232               0.999999997               0.000008087              -0.000219301               0.999999997               0.000002097              -0.000197458               0.999999997               0.000002898              -0.000196777               0.999999997               0.000006930              -0.000205847               0.999999997               0.000012992              -0.000220256               0.999999997               0.000020636              -0.000238295               0.999999997               0.000029517              -0.000258793               0.999999997               0.000039482              -0.000281375               0.999999997               0.000050272              -0.000305347               0.999999997               0.000061839              -0.000330456               0.999999997               0.000074062              -0.000356708               0.999999997               0.000086794              -0.000383915               0.999999997               0.000100034              -0.000412022               0.999999997               0.000113805              -0.000441346               0.999999997               0.000127946              -0.000471677               0.999999997               0.000142168              -0.000502578               0.999999997               0.000156209              -0.000533417               0.999999997               0.000007643              -0.000243534               0.999999997              -0.000002268              -0.000221018               0.999999997              -0.000001352              -0.000221110               0.999999997               0.000003671              -0.000231776               0.999999997               0.000011012              -0.000248506               0.999999997               0.000020044              -0.000269310               0.999999997               0.000030464              -0.000293015               0.999999997               0.000041939              -0.000318998               0.999999997               0.000054305              -0.000346625               0.999999997               0.000067336              -0.000375634               0.999999997               0.000080785              -0.000405933               0.999999997               0.000094635              -0.000437390               0.999999997               0.000108945              -0.000469963               0.999999997               0.000123604              -0.000503561               0.999999997               0.000138346              -0.000537826               0.999999997               0.000152972              -0.000572241               0.999999997               0.000167435              -0.000606502               0.999999997               0.000007581              -0.000266070               0.999999997              -0.000005177              -0.000245465               0.999999997              -0.000005702              -0.000243214               0.999999997              -0.000001618              -0.000251069               0.999999997               0.000004789              -0.000265073               0.999999997               0.000012770              -0.000283204               0.999999997               0.000022000              -0.000304354               0.999999997               0.000032292              -0.000327839               0.999999997               0.000043447              -0.000353180               0.999999997               0.000055120              -0.000380020               0.999999997               0.000067042              -0.000408091               0.999999997               0.000079078              -0.000437269               0.999999997               0.000091283              -0.000467434               0.999999997               0.000103816              -0.000498456               0.999999997               0.000116588              -0.000530315               0.999999997               0.000129473              -0.000562633               0.999999997               0.000142555              -0.000595240               0.999999997               0.000007216              -0.000286388               0.999999997              -0.000007014              -0.000268763               0.999999997              -0.000008937              -0.000265489               0.999999997              -0.000006019              -0.000271122               0.999999997              -0.000000664              -0.000282739               0.999999997               0.000006101              -0.000298425               0.999999997               0.000014077              -0.000317152               0.999999997               0.000023180              -0.000338260               0.999999997               0.000033095              -0.000361343               0.999999997               0.000043334              -0.000386036               0.999999997               0.000053710              -0.000412028               0.999999997               0.000064080              -0.000439010               0.999999997               0.000074436              -0.000466867               0.999999997               0.000084857              -0.000495568               0.999999997               0.000095350              -0.000525016               0.999999997               0.000106014              -0.000555096               0.999999997               0.000116825              -0.000585708               0.999999997               0.000006605              -0.000304126               0.999999997              -0.000007798              -0.000290330               0.999999997              -0.000010820              -0.000287110               0.999999997              -0.000009108              -0.000291323               0.999999997              -0.000004957              -0.000301044               0.999999997               0.000000557              -0.000314660               0.999999997               0.000007222              -0.000331257               0.999999997               0.000014872              -0.000350310               0.999999997               0.000023356              -0.000371352               0.999999997               0.000032123              -0.000394073               0.999999997               0.000040934              -0.000418169               0.999999997               0.000049626              -0.000443317               0.999999997               0.000058191              -0.000469244               0.999999997               0.000066676              -0.000495790               0.999999997               0.000074920              -0.000522997               0.999999997               0.000082994              -0.000550887               0.999999997               0.000090990              -0.000579454               0.999999997               0.000005715              -0.000319039               0.999999997              -0.000007579              -0.000309447               0.999999997              -0.000011170              -0.000307084               0.999999997              -0.000010531              -0.000310690               0.999999997              -0.000007601              -0.000319118               0.999999997              -0.000003386              -0.000331212               0.999999997               0.000001773              -0.000346126               0.999999997               0.000007908              -0.000363398               0.999999997               0.000014789              -0.000382745               0.999999997               0.000022027              -0.000403887               0.999999997               0.000029140              -0.000426451               0.999999997               0.000036128              -0.000450100               0.999999997               0.000042982              -0.000474531               0.999999997               0.000049475              -0.000499567               0.999999997               0.000055529              -0.000525116               0.999999997               0.000061103              -0.000551162               0.999999997               0.000065984              -0.000577868               0.999999997               0.000004552              -0.000330904               0.999999997              -0.000006511              -0.000325350               0.999999997              -0.000010022              -0.000324344               0.999999997              -0.000010120              -0.000327949               0.999999997              -0.000008311              -0.000335674               0.999999997              -0.000005341              -0.000346694               0.999999997              -0.000001610              -0.000360372               0.999999997               0.000002962              -0.000376336               0.999999997               0.000008123              -0.000394344               0.999999997               0.000013616              -0.000414229               0.999999997               0.000019134              -0.000435543               0.999999997               0.000024476              -0.000458037               0.999999997               0.000029491              -0.000481467               0.999999997               0.000034217              -0.000505617               0.999999997               0.000038399              -0.000530243               0.999999997               0.000041694              -0.000555263               0.999999997               0.000043720              -0.000580765               0.999999997               0.000003162              -0.000339558               0.999999997              -0.000004755              -0.000337295               0.999999997              -0.000007537              -0.000337684               0.999999997              -0.000007924              -0.000341616               0.999999997              -0.000007030              -0.000349000               0.999999997              -0.000005198              -0.000359406               0.999999997              -0.000002759              -0.000372310               0.999999997               0.000000205              -0.000387409               0.999999997               0.000003588              -0.000404506               0.999999997               0.000007411              -0.000423348               0.999999997               0.000011340              -0.000443724               0.999999997               0.000014833              -0.000465430               0.999999997               0.000018025              -0.000488257               0.999999997               0.000021116              -0.000511934               0.999999997               0.000023751              -0.000536232               0.999999997               0.000025372              -0.000561048               0.999999997               0.000025597              -0.000586140               0.999999997               0.000001617              -0.000344803               0.999999997              -0.000002500              -0.000344735               0.999999997              -0.000004054              -0.000346167               0.999999997              -0.000004359              -0.000350485               0.999999997              -0.000004034              -0.000357760               0.999999997              -0.000003177              -0.000367798               0.999999997              -0.000001935              -0.000380364               0.999999997              -0.000000508              -0.000395000               0.999999997               0.000001113              -0.000411463               0.999999997               0.000003140              -0.000429653               0.999999997               0.000005156              -0.000449551               0.999999997               0.000006846              -0.000470926               0.999999997               0.000008459              -0.000493524               0.999999997               0.000009925              -0.000517048               0.999999997               0.000011075              -0.000541285               0.999999997               0.000011707              -0.000566046               0.999999997               0.000011542              -0.000591007               0.999999997               0.000000000              -0.000346514               0.999999997              -0.000000000              -0.000347246               0.999999997              -0.000000000              -0.000349087               0.999999997              -0.000000000              -0.000353488               0.999999997              -0.000000000              -0.000360746               0.999999997               0.000000000              -0.000370759               0.999999997              -0.000000000              -0.000383228               0.999999997              -0.000000000              -0.000397679               0.999999997               0.000000000              -0.000413927               0.999999997               0.000000000              -0.000431898               0.999999997               0.000000000              -0.000451666               0.999999997               0.000000000              -0.000472980               0.999999997              -0.000000000              -0.000495488               0.999999997              -0.000000000              -0.000519047               0.999999997               0.000000000              -0.000543271               0.999999997               0.000000000              -0.000567911               0.999999997               0.000000000              -0.000592839               0.999999997               0.000010132              -0.000000000               0.999999997               0.000024036              -0.000000000               0.999999997               0.000031005               0.000000000               0.999999997               0.000035356              -0.000000000               0.999999997               0.000038885              -0.000000000               0.999999997               0.000042325              -0.000000000               0.999999997               0.000046058              -0.000000000               0.999999997               0.000050250              -0.000000000               0.999999997               0.000054879               0.000000000               0.999999997               0.000060010               0.000000000               0.999999997               0.000065665               0.000000000               0.999999997               0.000071811               0.000000000               0.999999997               0.000078466               0.000000000               0.999999997               0.000085702               0.000000000               0.999999997               0.000093523               0.000000000               0.999999997               0.000101906               0.000000000               0.999999997               0.000110840               0.000000000               0.999999997               0.000010063               0.000034214               0.999999997               0.000023417               0.000030555               0.999999997               0.000030102               0.000029739               0.999999997               0.000034383               0.000030523               0.999999997               0.000037879               0.000032194               0.999999997               0.000041316               0.000034543               0.999999997               0.000045087               0.000037314               0.999999997               0.000049329               0.000040386               0.999999997               0.000054060               0.000043721               0.999999997               0.000059343               0.000047288               0.999999997               0.000065123               0.000050995               0.999999997               0.000071363               0.000054835               0.999999997               0.000078142               0.000058889               0.999999997               0.000085474               0.000062997               0.999999997               0.000093384               0.000067157               0.999999997               0.000101865               0.000071228               0.999999997               0.000110883               0.000075236               0.999999997               0.000009906               0.000068075               0.999999997               0.000021730               0.000060770               0.999999997               0.000027582               0.000059321               0.999999997               0.000031462               0.000060969               0.999999997               0.000034858               0.000064477               0.999999997               0.000038405               0.000069210               0.999999997               0.000042405               0.000074819               0.999999997               0.000046982               0.000081053               0.999999997               0.000052109               0.000087769               0.999999997               0.000057751               0.000094952               0.999999997               0.000063924               0.000102307               0.999999997               0.000070591               0.000110036               0.999999997               0.000077778               0.000118115               0.999999997               0.000085509               0.000126430               0.999999997               0.000093786               0.000134807               0.999999997               0.000102615               0.000143206               0.999999997               0.000111997               0.000151585               0.999999997               0.000009708               0.000101199               0.999999997               0.000019021               0.000090308               0.999999997               0.000023623               0.000088453               0.999999997               0.000027074               0.000091188               0.999999997               0.000030468               0.000096686               0.999999997               0.000034291               0.000103935               0.999999997               0.000038779               0.000112488               0.999999997               0.000043881               0.000121912               0.999999997               0.000049601               0.000132006               0.999999997               0.000055959               0.000142762               0.999999997               0.000062888               0.000153913               0.999999997               0.000070356               0.000165420               0.999999997               0.000078340               0.000177486               0.999999997               0.000086798               0.000189961               0.999999997               0.000095765               0.000202715               0.999999997               0.000105260               0.000215637               0.999999997               0.000115295               0.000228815               0.999999997               0.000009435               0.000133202               0.999999997               0.000015450               0.000118898               0.999999997               0.000018705               0.000116909               0.999999997               0.000021782               0.000121027               0.999999997               0.000025455               0.000128600               0.999999997               0.000029855               0.000138514               0.999999997               0.000035003               0.000150028               0.999999997               0.000040926               0.000162675               0.999999997               0.000047558               0.000176212               0.999999997               0.000054893               0.000190515               0.999999997               0.000062912               0.000205422               0.999999997               0.000071552               0.000220734               0.999999997               0.000080676               0.000236673               0.999999997               0.000090267               0.000253205               0.999999997               0.000100310               0.000270243               0.999999997               0.000110837               0.000287875               0.999999997               0.000121913               0.000306078               0.999999997               0.000009051               0.000163761               0.999999997               0.000011229               0.000146385               0.999999997               0.000013295               0.000144564               0.999999997               0.000016329               0.000150203               0.999999997               0.000020487               0.000160015               0.999999997               0.000025671               0.000172634               0.999999997               0.000031824               0.000187172               0.999999997               0.000038876               0.000203081               0.999999997               0.000046804               0.000220009               0.999999997               0.000055495               0.000237807               0.999999997               0.000064846               0.000256449               0.999999997               0.000074774               0.000275622               0.999999997               0.000085197               0.000295400               0.999999997               0.000096067               0.000316065               0.999999997               0.000107445               0.000337580               0.999999997               0.000119342               0.000360006               0.999999997               0.000131704               0.000383150               0.999999997               0.000008612               0.000192554               0.999999997               0.000006661               0.000172602               0.999999997               0.000007876               0.000171244               0.999999997               0.000011259               0.000178544               0.999999997               0.000016192               0.000190674               0.999999997               0.000022497               0.000206037               0.999999997               0.000029920               0.000223513               0.999999997               0.000038375               0.000242694               0.999999997               0.000047728               0.000263099               0.999999997               0.000057784               0.000284490               0.999999997               0.000068532               0.000306964               0.999999997               0.000079837               0.000330080               0.999999997               0.000091692               0.000353925               0.999999997               0.000104059               0.000378838               0.999999997               0.000116968               0.000404878               0.999999997               0.000130309               0.000431785               0.999999997               0.000143837               0.000459232               0.999999997               0.000008087               0.000219301               0.999999997               0.000002097               0.000197458               0.999999997               0.000002898               0.000196777               0.999999997               0.000006930               0.000205847               0.999999997               0.000012992               0.000220256               0.999999997               0.000020636               0.000238295               0.999999997               0.000029517               0.000258793               0.999999997               0.000039482               0.000281375               0.999999997               0.000050272               0.000305347               0.999999997               0.000061839               0.000330456               0.999999997               0.000074062               0.000356708               0.999999997               0.000086794               0.000383915               0.999999997               0.000100034               0.000412022               0.999999997               0.000113805               0.000441346               0.999999997               0.000127946               0.000471677               0.999999997               0.000142168               0.000502578               0.999999997               0.000156209               0.000533417               0.999999997               0.000007643               0.000243534               0.999999997              -0.000002268               0.000221018               0.999999997              -0.000001352               0.000221110               0.999999997               0.000003671               0.000231776               0.999999997               0.000011012               0.000248506               0.999999997               0.000020044               0.000269310               0.999999997               0.000030464               0.000293015               0.999999997               0.000041939               0.000318998               0.999999997               0.000054305               0.000346625               0.999999997               0.000067336               0.000375634               0.999999997               0.000080785               0.000405933               0.999999997               0.000094635               0.000437390               0.999999997               0.000108945               0.000469963               0.999999997               0.000123604               0.000503561               0.999999997               0.000138346               0.000537826               0.999999997               0.000152972               0.000572241               0.999999997               0.000167435               0.000606502               0.999999997               0.000007581               0.000266070               0.999999997              -0.000005177               0.000245465               0.999999997              -0.000005702               0.000243214               0.999999997              -0.000001618               0.000251069               0.999999997               0.000004789               0.000265073               0.999999997               0.000012770               0.000283204               0.999999997               0.000022000               0.000304354               0.999999997               0.000032292               0.000327839               0.999999997               0.000043447               0.000353180               0.999999997               0.000055120               0.000380020               0.999999997               0.000067042               0.000408091               0.999999997               0.000079078               0.000437269               0.999999997               0.000091283               0.000467434               0.999999997               0.000103816               0.000498456               0.999999997               0.000116588               0.000530315               0.999999997               0.000129473               0.000562633               0.999999997               0.000142555               0.000595240               0.999999997               0.000007216               0.000286388               0.999999997              -0.000007014               0.000268763               0.999999997              -0.000008937               0.000265489               0.999999997              -0.000006019               0.000271122               0.999999997              -0.000000664               0.000282739               0.999999997               0.000006101               0.000298425               0.999999997               0.000014077               0.000317152               0.999999997               0.000023180               0.000338260               0.999999997               0.000033095               0.000361343               0.999999997               0.000043334               0.000386036               0.999999997               0.000053710               0.000412028               0.999999997               0.000064080               0.000439010               0.999999997               0.000074436               0.000466867               0.999999997               0.000084857               0.000495568               0.999999997               0.000095350               0.000525016               0.999999997               0.000106014               0.000555096               0.999999997               0.000116825               0.000585708               0.999999997               0.000006605               0.000304126               0.999999997              -0.000007798               0.000290330               0.999999997              -0.000010820               0.000287110               0.999999997              -0.000009108               0.000291323               0.999999997              -0.000004957               0.000301044               0.999999997               0.000000557               0.000314660               0.999999997               0.000007222               0.000331257               0.999999997               0.000014872               0.000350310               0.999999997               0.000023356               0.000371352               0.999999997               0.000032123               0.000394073               0.999999997               0.000040934               0.000418169               0.999999997               0.000049626               0.000443317               0.999999997               0.000058191               0.000469244               0.999999997               0.000066676               0.000495790               0.999999997               0.000074920               0.000522997               0.999999997               0.000082994               0.000550887               0.999999997               0.000090990               0.000579454               0.999999997               0.000005715               0.000319039               0.999999997              -0.000007579               0.000309447               0.999999997              -0.000011170               0.000307084               0.999999997              -0.000010531               0.000310690               0.999999997              -0.000007601               0.000319118               0.999999997              -0.000003386               0.000331212               0.999999997               0.000001773               0.000346126               0.999999997               0.000007908               0.000363398               0.999999997               0.000014789               0.000382745               0.999999997               0.000022027               0.000403887               0.999999997               0.000029140               0.000426451               0.999999997               0.000036128               0.000450100               0.999999997               0.000042982               0.000474531               0.999999997               0.000049475               0.000499567               0.999999997               0.000055529               0.000525116               0.999999997               0.000061103               0.000551162               0.999999997               0.000065984               0.000577868               0.999999997               0.000004552               0.000330904               0.999999997              -0.000006511               0.000325350               0.999999997              -0.000010022               0.000324344               0.999999997              -0.000010120               0.000327949               0.999999997              -0.000008311               0.000335674               0.999999997              -0.000005341               0.000346694               0.999999997              -0.000001610               0.000360372               0.999999997               0.000002962               0.000376336               0.999999997               0.000008123               0.000394344               0.999999997               0.000013616               0.000414229               0.999999997               0.000019134               0.000435543               0.999999997               0.000024476               0.000458037               0.999999997               0.000029491               0.000481467               0.999999997               0.000034217               0.000505617               0.999999997               0.000038399               0.000530243               0.999999997               0.000041694               0.000555263               0.999999997               0.000043720               0.000580765               0.999999997               0.000003162               0.000339558               0.999999997              -0.000004755               0.000337295               0.999999997              -0.000007537               0.000337684               0.999999997              -0.000007924               0.000341616               0.999999997              -0.000007030               0.000349000               0.999999997              -0.000005198               0.000359406               0.999999997              -0.000002759               0.000372310               0.999999997               0.000000205               0.000387409               0.999999997               0.000003588               0.000404506               0.999999997               0.000007411               0.000423348               0.999999997               0.000011340               0.000443724               0.999999997               0.000014833               0.000465430               0.999999997               0.000018025               0.000488257               0.999999997               0.000021116               0.000511934               0.999999997               0.000023751               0.000536232               0.999999997               0.000025372               0.000561048               0.999999997               0.000025597               0.000586140               0.999999997               0.000001617               0.000344803               0.999999997              -0.000002500               0.000344735               0.999999997              -0.000004054               0.000346167               0.999999997              -0.000004359               0.000350485               0.999999997              -0.000004034               0.000357760               0.999999997              -0.000003177               0.000367798               0.999999997              -0.000001935               0.000380364               0.999999997              -0.000000508               0.000395000               0.999999997               0.000001113               0.000411463               0.999999997               0.000003140               0.000429653               0.999999997               0.000005156               0.000449551               0.999999997               0.000006846               0.000470926               0.999999997               0.000008459               0.000493524               0.999999997               0.000009925               0.000517048               0.999999997               0.000011075               0.000541285               0.999999997               0.000011707               0.000566046               0.999999997               0.000011542               0.000591007               0.999999997               0.000000000               0.000346514               0.999999997              -0.000000000               0.000347246               0.999999997               0.000000000               0.000349087               0.999999997               0.000000000               0.000353488               0.999999997              -0.000000000               0.000360746               0.999999997               0.000000000               0.000370759               0.999999997              -0.000000000               0.000383228               0.999999997              -0.000000000               0.000397679               0.999999997               0.000000000               0.000413927               0.999999997              -0.000000000               0.000431898               0.999999997              -0.000000000               0.000451666               0.999999997              -0.000000000               0.000472980               0.999999997               0.000000000               0.000495488               0.999999997               0.000000000               0.000519047               0.999999997               0.000000000               0.000543271               0.999999997               0.000000000               0.000567911               0.999999997               0.000000000               0.000592839               0.999999997 </DataArray>
<DataArray type="Float64"                                    Name="stress"                                                      NumberOfComponents="10" format="ascii">
              0.000546246               0.006418099               0.000000000              -0.000597419               0.002338484               0.001741066               0.000000000               0.000000000               0.000000000               0.000000000               0.000599515               0.005318565              -0.000000000              -0.000440001               0.001919504               0.001479503               0.000000000               0.000000000               0.000000000               0.000000000               0.000830850               0.004434776              -0.000000000              -0.000242778               0.001559170               0.001316392               0.000000000               0.000000000               0.000000000               0.000000000               0.000858065               0.003949219              -0.000000000              -0.000171878               0.001373686               0.001201808               0.000000000               0.000000000               0.000000000               0.000000000               0.000811887               0.003660790              -0.000000000              -0.000153141               0.001271298               0.001118157               0.000000000               0.000000000               0.000000000               0.000000000               0.000739820               0.003485330              -0.000000000              -0.000158233               0.001214510               0.001056276               0.000000000               0.000000000               0.000000000               0.000000000               0.000658159               0.003373648              -0.000000000              -0.000174896               0.001182837               0.001007941               0.000000000               0.000000000               0.000000000               0.000000000               0.000581902               0.003302938              -0.000000000              -0.000194654               0.001165853               0.000971199               0.000000000               0.000000000               0.000000000               0.000000000               0.000511650               0.003260234               0.000000000              -0.000215660               0.001158620               0.000942961               0.000000000               0.000000000               0.000000000               0.000000000               0.000444094               0.003235791               0.000000000              -0.000237938               0.001157899               0.000919961               0.000000000               0.000000000               0.000000000               0.000000000               0.000382529               0.003222965               0.000000000              -0.000259422               0.001160785               0.000901363               0.000000000               0.000000000               0.000000000               0.000000000               0.000323163               0.003218209              -0.000000000              -0.000281089               0.001166422               0.000885333               0.000000000               0.000000000               0.000000000               0.000000000               0.000260638               0.003219792               0.000000000              -0.000304734               0.001174831               0.000870097               0.000000000               0.000000000               0.000000000               0.000000000               0.000194471               0.003221563               0.000000000              -0.000329768               0.001183766               0.000853998               0.000000000               0.000000000               0.000000000               0.000000000               0.000128169               0.003222038               0.000000000              -0.000354690               0.001192232               0.000837542               0.000000000               0.000000000               0.000000000               0.000000000               0.000062353               0.003217558               0.000000000              -0.000378812               0.001198779               0.000819968               0.000000000               0.000000000               0.000000000               0.000000000               0.000030883               0.003216240               0.000000000              -0.000390448               0.001202219               0.000811771               0.000000000               0.000000000               0.000000000               0.000000000               0.000582032               0.006313168              -0.000484462              -0.000570883               0.002294663               0.001723780               0.000000000               0.000000000               0.000000000               0.000000000               0.000611274               0.005245560              -0.000311953              -0.000426466               0.001890658               0.001464192               0.000000000               0.000000000               0.000000000               0.000000000               0.000815609               0.004397172              -0.000133558              -0.000243792               0.001546974               0.001303181               0.000000000               0.000000000               0.000000000               0.000000000               0.000831914               0.003928997              -0.000051102              -0.000179156               0.001369371               0.001190215               0.000000000               0.000000000               0.000000000               0.000000000               0.000784958               0.003653274              -0.000009931              -0.000162300               0.001271846               0.001109546               0.000000000               0.000000000               0.000000000               0.000000000               0.000712962               0.003483045               0.000011449              -0.000168019               0.001217010               0.001048990               0.000000000               0.000000000               0.000000000               0.000000000               0.000632964               0.003375238               0.000020977              -0.000184543               0.001186582               0.001002040               0.000000000               0.000000000               0.000000000               0.000000000               0.000558281               0.003307794               0.000024958              -0.000204118               0.001170626               0.000966508               0.000000000               0.000000000               0.000000000               0.000000000               0.000489034               0.003266585               0.000026636              -0.000224935               0.001163829               0.000938894               0.000000000               0.000000000               0.000000000               0.000000000               0.000424243               0.003243020               0.000025804              -0.000246286               0.001163091               0.000916805               0.000000000               0.000000000               0.000000000               0.000000000               0.000366221               0.003229572               0.000024112              -0.000266363               0.001165301               0.000898938               0.000000000               0.000000000               0.000000000               0.000000000               0.000309369               0.003225247               0.000024665              -0.000287142               0.001170785               0.000883644               0.000000000               0.000000000               0.000000000               0.000000000               0.000249217               0.003226828               0.000023981              -0.000309896               0.001178897               0.000869001               0.000000000               0.000000000               0.000000000               0.000000000               0.000186947               0.003230759               0.000020744              -0.000333739               0.001188155               0.000854416               0.000000000               0.000000000               0.000000000               0.000000000               0.000123350               0.003233487               0.000015521              -0.000357929               0.001197128               0.000839199               0.000000000               0.000000000               0.000000000               0.000000000               0.000060858               0.003234580               0.000008996              -0.000381500               0.001205349               0.000823849               0.000000000               0.000000000               0.000000000               0.000000000               0.000032026               0.003238265               0.000005400              -0.000392772               0.001210335               0.000817563               0.000000000               0.000000000               0.000000000               0.000000000               0.000676986               0.006006551              -0.000921758              -0.000496948               0.002167813               0.001670865               0.000000000               0.000000000               0.000000000               0.000000000               0.000641045               0.005032045              -0.000594645              -0.000388613               0.001806869               0.001418256               0.000000000               0.000000000               0.000000000               0.000000000               0.000775676               0.004283858              -0.000258262              -0.000244603               0.001509473               0.001264870               0.000000000               0.000000000               0.000000000               0.000000000               0.000763419               0.003867138              -0.000104007              -0.000197110               0.001354736               0.001157627               0.000000000               0.000000000               0.000000000               0.000000000               0.000707198               0.003621669              -0.000028752              -0.000187509               0.001269714               0.001082205               0.000000000               0.000000000               0.000000000               0.000000000               0.000633881               0.003467486               0.000008861              -0.000195730               0.001221060               0.001025330               0.000000000               0.000000000               0.000000000               0.000000000               0.000557948               0.003370329               0.000026153              -0.000212060               0.001194118               0.000982058               0.000000000               0.000000000               0.000000000               0.000000000               0.000488053               0.003308691               0.000033188              -0.000230566               0.001179741               0.000949176               0.000000000               0.000000000               0.000000000               0.000000000               0.000425878               0.003270323               0.000036821              -0.000249086               0.001173125               0.000924040               0.000000000               0.000000000               0.000000000               0.000000000               0.000369058               0.003248417               0.000034789              -0.000267654               0.001172013               0.000904358               0.000000000               0.000000000               0.000000000               0.000000000               0.000317019               0.003236445               0.000030910              -0.000285673               0.001174029               0.000888356               0.000000000               0.000000000               0.000000000               0.000000000               0.000266658               0.003231302               0.000031274              -0.000303915               0.001178395               0.000874480               0.000000000               0.000000000               0.000000000               0.000000000               0.000214783               0.003232558               0.000030735              -0.000323525               0.001185350               0.000861825               0.000000000               0.000000000               0.000000000               0.000000000               0.000161842               0.003239297               0.000025931              -0.000344221               0.001194495               0.000850275               0.000000000               0.000000000               0.000000000               0.000000000               0.000107547               0.003248746               0.000018049              -0.000365762               0.001204825               0.000839063               0.000000000               0.000000000               0.000000000               0.000000000               0.000053101               0.003261139               0.000009455              -0.000387729               0.001216278               0.000828550               0.000000000               0.000000000               0.000000000               0.000000000               0.000029585               0.003275279               0.000003721              -0.000398314               0.001224520               0.000826206               0.000000000               0.000000000               0.000000000               0.000000000               0.000810465               0.005531043              -0.001267171              -0.000387456               0.001972814               0.001585358               0.000000000               0.000000000               0.000000000               0.000000000               0.000679578               0.004702197              -0.000821483              -0.000332932               0.001678361               0.001345428               0.000000000               0.000000000               0.000000000               0.000000000               0.000711304               0.004104001              -0.000367094              -0.000246261               0.001450073               0.001203813               0.000000000               0.000000000               0.000000000               0.000000000               0.000660496               0.003765328              -0.000164204              -0.000222979               0.001329423               0.001106444               0.000000000               0.000000000               0.000000000               0.000000000               0.000594688               0.003559770              -0.000066658              -0.000221963               0.001260566               0.001038603               0.000000000               0.000000000               0.000000000               0.000000000               0.000523845               0.003430569              -0.000017558              -0.000232379               0.001220971               0.000988593               0.000000000               0.000000000               0.000000000               0.000000000               0.000455911               0.003346998               0.000006929              -0.000247407               0.001198124               0.000950717               0.000000000               0.000000000               0.000000000               0.000000000               0.000396118               0.003292737               0.000017325              -0.000263047               0.001185251               0.000922203               0.000000000               0.000000000               0.000000000               0.000000000               0.000340315               0.003257622               0.000022821              -0.000279584               0.001179058               0.000899474               0.000000000               0.000000000               0.000000000               0.000000000               0.000289132               0.003235945               0.000022304              -0.000296068               0.001177327               0.000881259               0.000000000               0.000000000               0.000000000               0.000000000               0.000244795               0.003226296               0.000016254              -0.000311488               0.001179250               0.000867762               0.000000000               0.000000000               0.000000000               0.000000000               0.000203864               0.003220777               0.000014838              -0.000326147               0.001182297               0.000856150               0.000000000               0.000000000               0.000000000               0.000000000               0.000165373               0.003221282               0.000016251              -0.000340645               0.001187298               0.000846654               0.000000000               0.000000000               0.000000000               0.000000000               0.000126346               0.003228347               0.000013997              -0.000356163               0.001194826               0.000838663               0.000000000               0.000000000               0.000000000               0.000000000               0.000084853               0.003242654               0.000008747              -0.000373511               0.001205378               0.000831867               0.000000000               0.000000000               0.000000000               0.000000000               0.000042098               0.003265852               0.000003582              -0.000392444               0.001219421               0.000826977               0.000000000               0.000000000               0.000000000               0.000000000               0.000025743               0.003289573              -0.000001092              -0.000401542               0.001230361               0.000828819               0.000000000               0.000000000               0.000000000               0.000000000               0.000948493               0.004939940              -0.001496502              -0.000261808               0.001733899               0.001472091               0.000000000               0.000000000               0.000000000               0.000000000               0.000711642               0.004297421              -0.000982739              -0.000270312               0.001522563               0.001252251               0.000000000               0.000000000               0.000000000               0.000000000               0.000632379               0.003884855              -0.000460776              -0.000248464               0.001377760               0.001129296               0.000000000               0.000000000               0.000000000               0.000000000               0.000544229               0.003633816              -0.000232879              -0.000250140               0.001294640               0.001044500               0.000000000               0.000000000               0.000000000               0.000000000               0.000469576               0.003473509              -0.000122020              -0.000258097               0.001243857               0.000985760               0.000000000               0.000000000               0.000000000               0.000000000               0.000408438               0.003372570              -0.000063934              -0.000268406               0.001213648               0.000945241               0.000000000               0.000000000               0.000000000               0.000000000               0.000352488               0.003304684              -0.000034430              -0.000280902               0.001195184               0.000914282               0.000000000               0.000000000               0.000000000               0.000000000               0.000302621               0.003259521              -0.000021259              -0.000293956               0.001184482               0.000890525               0.000000000               0.000000000               0.000000000               0.000000000               0.000257379               0.003229211              -0.000015376              -0.000307134               0.001178771               0.000871637               0.000000000               0.000000000               0.000000000               0.000000000               0.000213783               0.003208162              -0.000013453              -0.000320851               0.001176327               0.000855476               0.000000000               0.000000000               0.000000000               0.000000000               0.000174898               0.003198493              -0.000017537              -0.000334224               0.001177562               0.000843337               0.000000000               0.000000000               0.000000000               0.000000000               0.000143178               0.003195574              -0.000019010              -0.000345754               0.001180432               0.000834678               0.000000000               0.000000000               0.000000000               0.000000000               0.000115956               0.003196528              -0.000013867              -0.000356082               0.001184193               0.000828111               0.000000000               0.000000000               0.000000000               0.000000000               0.000089140               0.003206104              -0.000009757              -0.000367335               0.001191135               0.000823801               0.000000000               0.000000000               0.000000000               0.000000000               0.000061347               0.003226415              -0.000006575              -0.000380296               0.001202226               0.000821930               0.000000000               0.000000000               0.000000000               0.000000000               0.000031078               0.003257244              -0.000003459              -0.000395500               0.001217571               0.000822070               0.000000000               0.000000000               0.000000000               0.000000000               0.000020738               0.003284210              -0.000005420              -0.000402749               0.001228975               0.000826227               0.000000000               0.000000000               0.000000000               0.000000000               0.001062669               0.004288982              -0.001608074              -0.000137624               0.001475521               0.001337897               0.000000000               0.000000000               0.000000000               0.000000000               0.000727227               0.003856243              -0.001079234              -0.000209321               0.001355175               0.001145854               0.000000000               0.000000000               0.000000000               0.000000000               0.000544928               0.003645601              -0.000541801              -0.000251352               0.001298972               0.001047620               0.000000000               0.000000000               0.000000000               0.000000000               0.000437665               0.003486380              -0.000308404              -0.000271673               0.001252673               0.000981000               0.000000000               0.000000000               0.000000000               0.000000000               0.000364506               0.003375327              -0.000190525              -0.000285226               0.001220173               0.000934947               0.000000000               0.000000000               0.000000000               0.000000000               0.000311493               0.003300190              -0.000126378              -0.000295713               0.001198624               0.000902910               0.000000000               0.000000000               0.000000000               0.000000000               0.000266214               0.003246009              -0.000092113              -0.000305920               0.001183966               0.000878045               0.000000000               0.000000000               0.000000000               0.000000000               0.000225015               0.003210291              -0.000075536              -0.000316905               0.001175721               0.000858816               0.000000000               0.000000000               0.000000000               0.000000000               0.000188257               0.003186513              -0.000067455              -0.000327717               0.001171399               0.000843682               0.000000000               0.000000000               0.000000000               0.000000000               0.000155292               0.003171924              -0.000059889              -0.000338255               0.001170049               0.000831794               0.000000000               0.000000000               0.000000000               0.000000000               0.000127289               0.003168642              -0.000057432              -0.000348346               0.001172319               0.000823973               0.000000000               0.000000000               0.000000000               0.000000000               0.000103871               0.003171449              -0.000056477              -0.000357479               0.001176299               0.000818820               0.000000000               0.000000000               0.000000000               0.000000000               0.000084476               0.003178857              -0.000046798              -0.000365678               0.001181501               0.000815823               0.000000000               0.000000000               0.000000000               0.000000000               0.000064664               0.003194570              -0.000033152              -0.000375071               0.001189870               0.000814798               0.000000000               0.000000000               0.000000000               0.000000000               0.000043030               0.003218703              -0.000020534              -0.000386201               0.001201624               0.000815423               0.000000000               0.000000000               0.000000000               0.000000000               0.000021715               0.003244830              -0.000009555              -0.000397460               0.001214086               0.000816626               0.000000000               0.000000000               0.000000000               0.000000000               0.000014964               0.003262770              -0.000007137              -0.000402234               0.001221657               0.000819424               0.000000000               0.000000000               0.000000000               0.000000000               0.001132696               0.003626976              -0.001614069              -0.000028613               0.001218517               0.001189904               0.000000000               0.000000000               0.000000000               0.000000000               0.000726503               0.003411894              -0.001120418              -0.000154049               0.001188636               0.001034587               0.000000000               0.000000000               0.000000000               0.000000000               0.000463086               0.003401911              -0.000611737              -0.000251581               0.001217820               0.000966238               0.000000000               0.000000000               0.000000000               0.000000000               0.000352211               0.003333415              -0.000385224              -0.000284597               0.001205993               0.000921396               0.000000000               0.000000000               0.000000000               0.000000000               0.000288816               0.003266697              -0.000265350              -0.000300030               0.001188898               0.000888868               0.000000000               0.000000000               0.000000000               0.000000000               0.000244583               0.003214164              -0.000197179              -0.000310051               0.001174728               0.000864677               0.000000000               0.000000000               0.000000000               0.000000000               0.000209011               0.003176080              -0.000156254              -0.000318630               0.001164893               0.000846263               0.000000000               0.000000000               0.000000000               0.000000000               0.000178302               0.003155762              -0.000132323              -0.000327606               0.001161112               0.000833506               0.000000000               0.000000000               0.000000000               0.000000000               0.000152018               0.003144863              -0.000118202              -0.000336100               0.001160311               0.000824210               0.000000000               0.000000000               0.000000000               0.000000000               0.000128041               0.003140811              -0.000103719              -0.000344585               0.001161788               0.000817203               0.000000000               0.000000000               0.000000000               0.000000000               0.000106955               0.003143280              -0.000093213              -0.000352801               0.001165350               0.000812549               0.000000000               0.000000000               0.000000000               0.000000000               0.000088570               0.003153416              -0.000087296              -0.000360962               0.001171449               0.000810487               0.000000000               0.000000000               0.000000000               0.000000000               0.000069744               0.003169330              -0.000072648              -0.000370011               0.001179770               0.000809759               0.000000000               0.000000000               0.000000000               0.000000000               0.000049834               0.003188643              -0.000050803              -0.000379892               0.001189501               0.000809609               0.000000000               0.000000000               0.000000000               0.000000000               0.000028861               0.003205320              -0.000030001              -0.000389841               0.001198376               0.000808535               0.000000000               0.000000000               0.000000000               0.000000000               0.000012587               0.003212015              -0.000012991              -0.000396781               0.001202921               0.000806140               0.000000000               0.000000000               0.000000000               0.000000000               0.000004254               0.003208672              -0.000004389              -0.000399488               0.001202709               0.000803222               0.000000000               0.000000000               0.000000000               0.000000000               0.001150751               0.002992792              -0.001532445               0.000057430               0.000978443               0.001035874               0.000000000               0.000000000               0.000000000               0.000000000               0.000710987               0.002997999              -0.001118486              -0.000108131               0.001035366               0.000927235               0.000000000               0.000000000               0.000000000               0.000000000               0.000400635               0.003170190              -0.000673097              -0.000246035               0.001138731               0.000892696               0.000000000               0.000000000               0.000000000               0.000000000               0.000295265               0.003175390              -0.000458114              -0.000286199               0.001153852               0.000867653               0.000000000               0.000000000               0.000000000               0.000000000               0.000242168               0.003149098              -0.000336909              -0.000302824               0.001150630               0.000847807               0.000000000               0.000000000               0.000000000               0.000000000               0.000205648               0.003123653              -0.000261903              -0.000313338               0.001145653               0.000832315               0.000000000               0.000000000               0.000000000               0.000000000               0.000179970               0.003110643              -0.000212969              -0.000321341               0.001143984               0.000822643               0.000000000               0.000000000               0.000000000               0.000000000               0.000159412               0.003106961              -0.000180037              -0.000328590               0.001145173               0.000816583               0.000000000               0.000000000               0.000000000               0.000000000               0.000141982               0.003108702              -0.000159724              -0.000335344               0.001148005               0.000812661               0.000000000               0.000000000               0.000000000               0.000000000               0.000124939               0.003116594              -0.000140548              -0.000342721               0.001153095               0.000810374               0.000000000               0.000000000               0.000000000               0.000000000               0.000107468               0.003127568              -0.000120771              -0.000350645               0.001159394               0.000808749               0.000000000               0.000000000               0.000000000               0.000000000               0.000088079               0.003144989              -0.000104008              -0.000360093               0.001168350               0.000808257               0.000000000               0.000000000               0.000000000               0.000000000               0.000062788               0.003164985              -0.000081252              -0.000372077               0.001179010               0.000806933               0.000000000               0.000000000               0.000000000               0.000000000               0.000035912               0.003178470              -0.000051991              -0.000383841               0.001187427               0.000803586               0.000000000               0.000000000               0.000000000               0.000000000               0.000014280               0.003178652              -0.000025224              -0.000391975               0.001190198               0.000798223               0.000000000               0.000000000               0.000000000               0.000000000               0.000002274               0.003164527              -0.000007168              -0.000394712               0.001186403               0.000791690               0.000000000               0.000000000               0.000000000               0.000000000              -0.000005780               0.003147689               0.000001616              -0.000395627               0.001181095               0.000785467               0.000000000               0.000000000               0.000000000               0.000000000               0.001140402               0.002437859              -0.001391548               0.000122916               0.000771639               0.000894555               0.000000000               0.000000000               0.000000000               0.000000000               0.000705015               0.002633681              -0.001094453              -0.000064831               0.000899495               0.000834664               0.000000000               0.000000000               0.000000000               0.000000000               0.000374169               0.002960028              -0.000743652              -0.000229690               0.001063230               0.000833539               0.000000000               0.000000000               0.000000000               0.000000000               0.000276209               0.003036393              -0.000538831              -0.000275970               0.001104111               0.000828141               0.000000000               0.000000000               0.000000000               0.000000000               0.000231750               0.003056607              -0.000411937              -0.000295169               0.001117249               0.000822079               0.000000000               0.000000000               0.000000000               0.000000000               0.000199154               0.003061818              -0.000327733              -0.000308044               0.001123277               0.000815233               0.000000000               0.000000000               0.000000000               0.000000000               0.000175882               0.003069240              -0.000269480              -0.000317699               0.001128969               0.000811271               0.000000000               0.000000000               0.000000000               0.000000000               0.000159186               0.003076632              -0.000227897              -0.000324884               0.001133828               0.000808945               0.000000000               0.000000000               0.000000000               0.000000000               0.000148973               0.003089329              -0.000198988              -0.000330300               0.001139866               0.000809566               0.000000000               0.000000000               0.000000000               0.000000000               0.000141111               0.003110276              -0.000171444              -0.000335867               0.001148704               0.000812837               0.000000000               0.000000000               0.000000000               0.000000000               0.000127623               0.003132097              -0.000141932              -0.000343653               0.001158573               0.000814920               0.000000000               0.000000000               0.000000000               0.000000000               0.000103222               0.003153028              -0.000113217              -0.000355419               0.001169472               0.000814053               0.000000000               0.000000000               0.000000000               0.000000000               0.000070728               0.003170759              -0.000083488              -0.000369821               0.001180183               0.000810362               0.000000000               0.000000000               0.000000000               0.000000000               0.000038200               0.003175622              -0.000051441              -0.000382627               0.001186073               0.000803446               0.000000000               0.000000000               0.000000000               0.000000000               0.000010629               0.003161116              -0.000022650              -0.000391153               0.001184079               0.000792926               0.000000000               0.000000000               0.000000000               0.000000000              -0.000009576               0.003131391              -0.000002999              -0.000395014               0.001175458               0.000780444               0.000000000               0.000000000               0.000000000               0.000000000              -0.000018039               0.003112800               0.000004645              -0.000395864               0.001169544               0.000773681               0.000000000               0.000000000               0.000000000               0.000000000               0.001090580               0.001906795              -0.001220754               0.000170615               0.000578720               0.000749335               0.000000000               0.000000000               0.000000000               0.000000000               0.000712970               0.002212257              -0.001060450              -0.000009170               0.000740468               0.000731298               0.000000000               0.000000000               0.000000000               0.000000000               0.000393138               0.002649276              -0.000829507              -0.000183733               0.000944327               0.000760594               0.000000000               0.000000000               0.000000000               0.000000000               0.000296281               0.002818810              -0.000641160              -0.000241246               0.001020009               0.000778763               0.000000000               0.000000000               0.000000000               0.000000000               0.000256023               0.002901036              -0.000507979              -0.000266621               0.001055876               0.000789255               0.000000000               0.000000000               0.000000000               0.000000000               0.000224310               0.002945357              -0.000412566              -0.000284053               0.001076460               0.000792407               0.000000000               0.000000000               0.000000000               0.000000000               0.000198916               0.002977748              -0.000344442              -0.000297624               0.001091781               0.000794157               0.000000000               0.000000000               0.000000000               0.000000000               0.000184670               0.003007797              -0.000295633              -0.000306723               0.001104830               0.000798107               0.000000000               0.000000000               0.000000000               0.000000000               0.000176907               0.003039642              -0.000256019              -0.000313614               0.001117742               0.000804127               0.000000000               0.000000000               0.000000000               0.000000000               0.000166696               0.003070212              -0.000216807              -0.000321265               0.001130482               0.000809217               0.000000000               0.000000000               0.000000000               0.000000000               0.000150606               0.003096045              -0.000176662              -0.000330528               0.001142180               0.000811653               0.000000000               0.000000000               0.000000000               0.000000000               0.000124871               0.003115089              -0.000136991              -0.000342559               0.001152539               0.000809980               0.000000000               0.000000000               0.000000000               0.000000000               0.000088700               0.003125763              -0.000100526              -0.000357457               0.001161063               0.000803606               0.000000000               0.000000000               0.000000000               0.000000000               0.000048871               0.003131521              -0.000066228              -0.000373113               0.001168201               0.000795088               0.000000000               0.000000000               0.000000000               0.000000000               0.000009432               0.003124376              -0.000034153              -0.000387009               0.001170451               0.000783442               0.000000000               0.000000000               0.000000000               0.000000000              -0.000024405               0.003106366              -0.000010808              -0.000397447               0.001167927               0.000770481               0.000000000               0.000000000               0.000000000               0.000000000              -0.000042412               0.003093540              -0.000000248              -0.000402596               0.001165368               0.000762772               0.000000000               0.000000000               0.000000000               0.000000000               0.000978202               0.001413117              -0.001023640               0.000190184               0.000407639               0.000597823               0.000000000               0.000000000               0.000000000               0.000000000               0.000715964               0.001791555              -0.000998046               0.000044541               0.000582332               0.000626872               0.000000000               0.000000000               0.000000000               0.000000000               0.000446163               0.002303805              -0.000894434              -0.000120665               0.000808149               0.000687483               0.000000000               0.000000000               0.000000000               0.000000000               0.000350723               0.002561516              -0.000740276              -0.000188668               0.000916719               0.000728051               0.000000000               0.000000000               0.000000000               0.000000000               0.000307968               0.002709943              -0.000608507              -0.000223255               0.000977724               0.000754469               0.000000000               0.000000000               0.000000000               0.000000000               0.000273783               0.002799210              -0.000506314              -0.000247232               0.001015471               0.000768239               0.000000000               0.000000000               0.000000000               0.000000000               0.000244620               0.002864971              -0.000432441              -0.000266388               0.001043777               0.000777388               0.000000000               0.000000000               0.000000000               0.000000000               0.000223929               0.002923569              -0.000377076              -0.000281472               0.001068337               0.000786865               0.000000000               0.000000000               0.000000000               0.000000000               0.000211495               0.002978321              -0.000326475              -0.000292979               0.001090423               0.000797444               0.000000000               0.000000000               0.000000000               0.000000000               0.000198530               0.003024890              -0.000276057              -0.000303662               0.001109507               0.000805845               0.000000000               0.000000000               0.000000000               0.000000000               0.000180094               0.003058040              -0.000227921              -0.000314719               0.001124243               0.000809524               0.000000000               0.000000000               0.000000000               0.000000000               0.000154690               0.003077934              -0.000182035              -0.000326732               0.001134878               0.000808146               0.000000000               0.000000000               0.000000000               0.000000000               0.000122331               0.003090499              -0.000139820              -0.000340437               0.001143635               0.000803198               0.000000000               0.000000000               0.000000000               0.000000000               0.000082227               0.003097986              -0.000098956              -0.000356412               0.001151456               0.000795044               0.000000000               0.000000000               0.000000000               0.000000000               0.000033669               0.003097407              -0.000059615              -0.000374549               0.001157308               0.000782759               0.000000000               0.000000000               0.000000000               0.000000000              -0.000018429               0.003092893              -0.000025911              -0.000393521               0.001162128               0.000768606               0.000000000               0.000000000               0.000000000               0.000000000              -0.000056220               0.003081472              -0.000005564              -0.000406265               0.001162569               0.000756303               0.000000000               0.000000000               0.000000000               0.000000000               0.000807277               0.000979430              -0.000806765               0.000180298               0.000266373               0.000446671               0.000000000               0.000000000               0.000000000               0.000000000               0.000692694               0.001390036              -0.000892137               0.000086004               0.000434672               0.000520676               0.000000000               0.000000000               0.000000000               0.000000000               0.000513687               0.001926375              -0.000901360              -0.000048165               0.000658173               0.000610008               0.000000000               0.000000000               0.000000000               0.000000000               0.000433871               0.002250639              -0.000794608              -0.000118629               0.000789748               0.000671119               0.000000000               0.000000000               0.000000000               0.000000000               0.000388934               0.002462245              -0.000678373              -0.000161931               0.000874717               0.000712786               0.000000000               0.000000000               0.000000000               0.000000000               0.000351514               0.002602575              -0.000580097              -0.000193504               0.000932018               0.000738514               0.000000000               0.000000000               0.000000000               0.000000000               0.000314366               0.002709416              -0.000504004              -0.000220789               0.000976726               0.000755937               0.000000000               0.000000000               0.000000000               0.000000000               0.000282326               0.002800878              -0.000444458              -0.000244237               0.001015029               0.000770792               0.000000000               0.000000000               0.000000000               0.000000000               0.000259675               0.002883561              -0.000389672              -0.000263066               0.001048866               0.000785800               0.000000000               0.000000000               0.000000000               0.000000000               0.000243794               0.002956698              -0.000334429              -0.000278164               0.001078277               0.000800114               0.000000000               0.000000000               0.000000000               0.000000000               0.000222440               0.003009987              -0.000281184              -0.000292833               0.001100930               0.000808097               0.000000000               0.000000000               0.000000000               0.000000000               0.000195098               0.003042013              -0.000232459              -0.000307089               0.001116357               0.000809268               0.000000000               0.000000000               0.000000000               0.000000000               0.000161861               0.003057254              -0.000187645              -0.000321458               0.001126227               0.000804769               0.000000000               0.000000000               0.000000000               0.000000000               0.000120667               0.003065148              -0.000141014              -0.000337893               0.001134337               0.000796444               0.000000000               0.000000000               0.000000000               0.000000000               0.000071370               0.003072376              -0.000092654              -0.000357282               0.001143209               0.000785927               0.000000000               0.000000000               0.000000000               0.000000000               0.000012348               0.003080328              -0.000045691              -0.000380409               0.001153569               0.000773159               0.000000000               0.000000000               0.000000000               0.000000000              -0.000036574               0.003073264              -0.000016245              -0.000397872               0.001157035               0.000759163               0.000000000               0.000000000               0.000000000               0.000000000               0.000593077               0.000628233              -0.000590705               0.000143873               0.000161451               0.000305324               0.000000000               0.000000000               0.000000000               0.000000000               0.000642714               0.001026067              -0.000749395               0.000112758               0.000304433               0.000417190               0.000000000               0.000000000               0.000000000               0.000000000               0.000585184               0.001543253              -0.000841445               0.000026536               0.000505567               0.000532103               0.000000000               0.000000000               0.000000000               0.000000000               0.000537847               0.001907489              -0.000783190              -0.000036744               0.000648071               0.000611327               0.000000000               0.000000000               0.000000000               0.000000000               0.000496428               0.002171169              -0.000692792              -0.000085236               0.000752128               0.000666891               0.000000000               0.000000000               0.000000000               0.000000000               0.000455938               0.002359668              -0.000605815              -0.000123982               0.000827875               0.000703893               0.000000000               0.000000000               0.000000000               0.000000000               0.000411242               0.002505053              -0.000535069              -0.000158916               0.000887981               0.000729065               0.000000000               0.000000000               0.000000000               0.000000000               0.000371570               0.002632827              -0.000478411              -0.000189764               0.000940855               0.000751091               0.000000000               0.000000000               0.000000000               0.000000000               0.000339272               0.002751741              -0.000425381              -0.000216740               0.000989484               0.000772744               0.000000000               0.000000000               0.000000000               0.000000000               0.000315077               0.002855002              -0.000370480              -0.000238721               0.001031232               0.000792510               0.000000000               0.000000000               0.000000000               0.000000000               0.000290933               0.002932109              -0.000316534              -0.000257413               0.001063164               0.000805751               0.000000000               0.000000000               0.000000000               0.000000000               0.000262543               0.002983870              -0.000268811              -0.000274529               0.001086123               0.000811594               0.000000000               0.000000000               0.000000000               0.000000000               0.000228239               0.003015692              -0.000223600              -0.000291371               0.001102344               0.000810973               0.000000000               0.000000000               0.000000000               0.000000000               0.000189490               0.003036073              -0.000176713              -0.000308450               0.001114831               0.000806381               0.000000000               0.000000000               0.000000000               0.000000000               0.000144579               0.003049710              -0.000126201              -0.000326996               0.001125558               0.000798563               0.000000000               0.000000000               0.000000000               0.000000000               0.000088708               0.003065847              -0.000067979              -0.000349965               0.001138594               0.000788629               0.000000000               0.000000000               0.000000000               0.000000000               0.000038830               0.003064989              -0.000030256              -0.000368561               0.001144507               0.000775945               0.000000000               0.000000000               0.000000000               0.000000000               0.000366816               0.000367082              -0.000395852               0.000091669               0.000091803               0.000183472               0.000000000               0.000000000               0.000000000               0.000000000               0.000575377               0.000719140              -0.000578823               0.000125872               0.000197753               0.000323625               0.000000000               0.000000000               0.000000000               0.000000000               0.000648721               0.001184847              -0.000710556               0.000095163               0.000363224               0.000458387               0.000000000               0.000000000               0.000000000               0.000000000               0.000647105               0.001562434              -0.000690220               0.000047359               0.000505019               0.000552379               0.000000000               0.000000000               0.000000000               0.000000000               0.000614941               0.001858935              -0.000628085              -0.000001765               0.000620227               0.000618462               0.000000000               0.000000000               0.000000000               0.000000000               0.000574795               0.002086486              -0.000560475              -0.000045263               0.000710576               0.000665313               0.000000000               0.000000000               0.000000000               0.000000000               0.000530474               0.002271259              -0.000502834              -0.000084980               0.000785405               0.000700425               0.000000000               0.000000000               0.000000000               0.000000000               0.000483355               0.002434122              -0.000454671              -0.000123007               0.000852368               0.000729361               0.000000000               0.000000000               0.000000000               0.000000000               0.000440866               0.002584914              -0.000408513              -0.000157789               0.000914226               0.000756436               0.000000000               0.000000000               0.000000000               0.000000000               0.000408103               0.002714364              -0.000361307              -0.000186257               0.000966864               0.000780608               0.000000000               0.000000000               0.000000000               0.000000000               0.000381800               0.002817872              -0.000312726              -0.000209058               0.001008967               0.000799909               0.000000000               0.000000000               0.000000000               0.000000000               0.000350753               0.002899424              -0.000266003              -0.000230895               0.001043430               0.000812535               0.000000000               0.000000000               0.000000000               0.000000000               0.000316662               0.002960792              -0.000225481              -0.000251350               0.001070704               0.000819354               0.000000000               0.000000000               0.000000000               0.000000000               0.000286025               0.003003775              -0.000186463              -0.000268212               0.001090652               0.000822440               0.000000000               0.000000000               0.000000000               0.000000000               0.000254125               0.003032941              -0.000138567              -0.000283820               0.001105577               0.000821757               0.000000000               0.000000000               0.000000000               0.000000000               0.000214287               0.003058990              -0.000076070              -0.000302015               0.001120325               0.000818309               0.000000000               0.000000000               0.000000000               0.000000000               0.000178981               0.003065058              -0.000037096              -0.000316014               0.001127014               0.000811000               0.000000000               0.000000000               0.000000000               0.000000000               0.000166725               0.000190449              -0.000234753               0.000038715               0.000050577               0.000089292               0.000000000               0.000000000               0.000000000               0.000000000               0.000509364               0.000486401              -0.000392191               0.000130210               0.000118728               0.000248938               0.000000000               0.000000000               0.000000000               0.000000000               0.000697962               0.000889281              -0.000515719               0.000150574               0.000246233               0.000396807               0.000000000               0.000000000               0.000000000               0.000000000               0.000742526               0.001260237              -0.000516403               0.000120916               0.000379769               0.000500685               0.000000000               0.000000000               0.000000000               0.000000000               0.000728421               0.001575353              -0.000479339               0.000076238               0.000499700               0.000575937               0.000000000               0.000000000               0.000000000               0.000000000               0.000693060               0.001835130              -0.000435780               0.000030506               0.000601535               0.000632041               0.000000000               0.000000000               0.000000000               0.000000000               0.000649642               0.002052714              -0.000395780              -0.000012974               0.000688556               0.000675582               0.000000000               0.000000000               0.000000000               0.000000000               0.000596377               0.002241428              -0.000359471              -0.000056537               0.000765981               0.000709444               0.000000000               0.000000000               0.000000000               0.000000000               0.000543252               0.002410092              -0.000327276              -0.000097542               0.000835870               0.000738328               0.000000000               0.000000000               0.000000000               0.000000000               0.000500886               0.002561578              -0.000294962              -0.000132365               0.000897972               0.000765608               0.000000000               0.000000000               0.000000000               0.000000000               0.000465853               0.002696120              -0.000254612              -0.000162320               0.000952804               0.000790484               0.000000000               0.000000000               0.000000000               0.000000000               0.000433162               0.002811368              -0.000214959              -0.000188985               0.001000108               0.000811123               0.000000000               0.000000000               0.000000000               0.000000000               0.000405676               0.002904236              -0.000187040              -0.000210901               0.001038369               0.000827468               0.000000000               0.000000000               0.000000000               0.000000000               0.000381029               0.002972565              -0.000160173              -0.000228684               0.001067073               0.000838389               0.000000000               0.000000000               0.000000000               0.000000000               0.000362057               0.003025537              -0.000120793              -0.000242420               0.001089309               0.000846889               0.000000000               0.000000000               0.000000000               0.000000000               0.000349683               0.003063562              -0.000065958              -0.000251814               0.001105115               0.000853301               0.000000000               0.000000000               0.000000000               0.000000000               0.000342887               0.003075465              -0.000033901              -0.000255850               0.001110428               0.000854578               0.000000000               0.000000000               0.000000000               0.000000000               0.000030257               0.000093297              -0.000105709              -0.000000316               0.000031204               0.000030888               0.000000000               0.000000000               0.000000000               0.000000000               0.000462199               0.000343680              -0.000197214               0.000130363               0.000071104               0.000201468               0.000000000               0.000000000               0.000000000               0.000000000               0.000730807               0.000695505              -0.000271562               0.000187113               0.000169462               0.000356574               0.000000000               0.000000000               0.000000000               0.000000000               0.000809033               0.001052814              -0.000276210               0.000171784               0.000293673               0.000465457               0.000000000               0.000000000               0.000000000               0.000000000               0.000814828               0.001376234              -0.000259861               0.000133530               0.000414230               0.000547760               0.000000000               0.000000000               0.000000000               0.000000000               0.000786694               0.001660287              -0.000240451               0.000087473               0.000524266               0.000611739               0.000000000               0.000000000               0.000000000               0.000000000               0.000740703               0.001898584              -0.000219973               0.000040440               0.000619375               0.000659815               0.000000000               0.000000000               0.000000000               0.000000000               0.000684021               0.002096886              -0.000199041              -0.000005603               0.000700823               0.000695220               0.000000000               0.000000000               0.000000000               0.000000000               0.000625283               0.002275496              -0.000183409              -0.000049956               0.000775143               0.000725187               0.000000000               0.000000000               0.000000000               0.000000000               0.000570170               0.002447846              -0.000167382              -0.000092167               0.000846663               0.000754496               0.000000000               0.000000000               0.000000000               0.000000000               0.000525929               0.002610360              -0.000143468              -0.000129071               0.000913135               0.000784064               0.000000000               0.000000000               0.000000000               0.000000000               0.000496446               0.002750980              -0.000122536              -0.000157705               0.000969553               0.000811848               0.000000000               0.000000000               0.000000000               0.000000000               0.000474880               0.002864606              -0.000108692              -0.000179995               0.001014857               0.000834862               0.000000000               0.000000000               0.000000000               0.000000000               0.000455785               0.002950422              -0.000093624              -0.000197883               0.001049425               0.000851542               0.000000000               0.000000000               0.000000000               0.000000000               0.000446500               0.003015229              -0.000071576              -0.000209466               0.001074888               0.000865422               0.000000000               0.000000000               0.000000000               0.000000000               0.000455459               0.003059208              -0.000040305              -0.000211603               0.001090260               0.000878657               0.000000000               0.000000000               0.000000000               0.000000000               0.000471993               0.003076895              -0.000022573              -0.000207614               0.001094826               0.000887212               0.000000000               0.000000000               0.000000000               0.000000000              -0.000017460               0.000064969              -0.000000000              -0.000014669               0.000026546               0.000011877               0.000000000               0.000000000               0.000000000               0.000000000               0.000445366               0.000297068               0.000000000               0.000129877               0.000055729               0.000185607               0.000000000               0.000000000               0.000000000               0.000000000               0.000742765               0.000626347               0.000000000               0.000200241               0.000142033               0.000342275               0.000000000               0.000000000               0.000000000               0.000000000               0.000833596               0.000976939              -0.000000000               0.000190479               0.000262150               0.000452629               0.000000000               0.000000000               0.000000000               0.000000000               0.000849069               0.001306923              -0.000000000               0.000155034               0.000383959               0.000538993               0.000000000               0.000000000               0.000000000               0.000000000               0.000823755               0.001599744              -0.000000000               0.000108939               0.000496930               0.000605869               0.000000000               0.000000000               0.000000000               0.000000000               0.000773654               0.001840986              -0.000000000               0.000059997               0.000593657               0.000653654               0.000000000               0.000000000               0.000000000               0.000000000               0.000716457               0.002041594               0.000000000               0.000013472               0.000676034               0.000689506               0.000000000               0.000000000               0.000000000               0.000000000               0.000657910               0.002225500              -0.000000000              -0.000031471               0.000752316               0.000720845               0.000000000               0.000000000               0.000000000               0.000000000               0.000596966               0.002406735              -0.000000000              -0.000076979               0.000827897               0.000750917               0.000000000               0.000000000               0.000000000               0.000000000               0.000550513               0.002581138              -0.000000000              -0.000116199               0.000899104               0.000782904               0.000000000               0.000000000               0.000000000               0.000000000               0.000522166               0.002729121               0.000000000              -0.000145327               0.000958140               0.000812813               0.000000000               0.000000000               0.000000000               0.000000000               0.000501247               0.002850006               0.000000000              -0.000168283               0.001006087               0.000837804               0.000000000               0.000000000               0.000000000               0.000000000               0.000486168               0.002942562               0.000000000              -0.000185507               0.001042680               0.000857173               0.000000000               0.000000000               0.000000000               0.000000000               0.000481811               0.003006494              -0.000000000              -0.000195132               0.001067199               0.000872066               0.000000000               0.000000000               0.000000000               0.000000000               0.000498033               0.003052646              -0.000000000              -0.000194818               0.001082478               0.000887660               0.000000000               0.000000000               0.000000000               0.000000000               0.000521983               0.003075213              -0.000000000              -0.000188658               0.001087947               0.000899289               0.000000000               0.000000000               0.000000000               0.000000000               0.000000000               0.000000000               0.000000000               0.000000000               0.000000000               0.000000000               0.000000000               0.000000000               0.000000000               0.000000000               0.000000000               0.000000000               0.000000000               0.000000000               0.000000000               0.000000000               0.000000000               0.000000000               0.000000000               0.000000000               0.000000000               0.000000000               0.000000000               0.000000000               0.000000000               0.000000000               0.000000000               0.000000000               0.000000000               0.000000000               0.000000000               0.000000000               0.000000000               0.000000000               0.000000000               0.000000000               0.000000000               0.000000000               0.000000000               0.000000000               0.000000000               0.000000000               0.000000000               0.000000000               0.000000000               0.000000000               0.000000000               0.000000000               0.000000000               0.000000000               0.000000000               0.000000000               0.000000000               0.000000000               0.000000000               0.000000000               0.000000000               0.000000000               0.000000000               0.000000000               0.000000000               0.000000000               0.000000000               0.000000000               0.000000000               0.000000000               0.000000000               0.000000000               0.000000000               0.000000000               0.000000000               0.000000000               0.000000000               0.000000000               0.000000000               0.000000000               0.000000000               0.000000000               0.000000000               0.000000000               0.000000000               0.000000000               0.000000000               0.000000000               0.000000000               0.000000000               0.000000000               0.000000000               0.000000000               0.000000000               0.000000000               0.000000000               0.000000000               0.000000000               0.000000000               0.000000000               0.000000000               0.000000000               0.000000000               0.000000000               0.000000000               0.000000000               0.000000000               0.000000000               0.000000000               0.000000000               0.000000000               0.000000000               0.000000000               0.000000000               0.000000000               0.000000000               0.000000000               0.000000000               0.000000000               0.000000000               0.000000000               0.000000000               0.000000000               0.000000000               0.000000000               0.000000000               0.000000000               0.000000000               0.000000000               0.000000000               0.000000000               0.000000000               0.000000000               0.000000000               0.000000000               0.000000000               0.000000000               0.000000000               0.000000000               0.000000000               0.000000000               0.000000000               0.000000000               0.000000000               0.000000000               0.000000000               0.000000000               0.000000000               0.000000000               0.000000000               0.000000000               0.000000000               0.000000000               0.000000000               0.000000000               0.000000000               0.000000000               0.000000000               0.000000000               0.000000000               0.000000000               0.000000000               0.000000000               0.000000000               0.000000000               0.000000000               0.000000000               0.000000000               0.000000000               0.000000000               0.000000000               0.000000000               0.000000000               0.000000000               0.000582032               0.006313168               0.000484462              -0.000570883               0.002294663               0.001723780               0.000000000               0.000000000               0.000000000               0.000000000               0.000611274               0.005245560               0.000311953              -0.000426466               0.001890658               0.001464192               0.000000000               0.000000000               0.000000000               0.000000000               0.000815609               0.004397172               0.000133558              -0.000243792               0.001546974               0.001303181               0.000000000               0.000000000               0.000000000               0.000000000               0.000831914               0.003928997               0.000051102              -0.000179156               0.001369371               0.001190215               0.000000000               0.000000000               0.000000000               0.000000000               0.000784958               0.003653274               0.000009931              -0.000162300               0.001271846               0.001109546               0.000000000               0.000000000               0.000000000               0.000000000               0.000712962               0.003483045              -0.000011449              -0.000168019               0.001217010               0.001048990               0.000000000               0.000000000               0.000000000               0.000000000               0.000632964               0.003375238              -0.000020977              -0.000184543               0.001186582               0.001002040               0.000000000               0.000000000               0.000000000               0.000000000               0.000558281               0.003307794              -0.000024958              -0.000204118               0.001170626               0.000966508               0.000000000               0.000000000               0.000000000               0.000000000               0.000489034               0.003266585              -0.000026636              -0.000224935               0.001163829               0.000938894               0.000000000               0.000000000               0.000000000               0.000000000               0.000424243               0.003243020              -0.000025804              -0.000246286               0.001163091               0.000916805               0.000000000               0.000000000               0.000000000               0.000000000               0.000366221               0.003229572              -0.000024112              -0.000266363               0.001165301               0.000898938               0.000000000               0.000000000               0.000000000               0.000000000               0.000309369               0.003225247              -0.000024665              -0.000287142               0.001170785               0.000883644               0.000000000               0.000000000               0.000000000               0.000000000               0.000249217               0.003226828              -0.000023981              -0.000309896               0.001178897               0.000869001               0.000000000               0.000000000               0.000000000               0.000000000               0.000186947               0.003230759              -0.000020744              -0.000333739               0.001188155               0.000854416               0.000000000               0.000000000               0.000000000               0.000000000               0.000123350               0.003233487              -0.000015521              -0.000357929               0.001197128               0.000839199               0.000000000               0.000000000               0.000000000               0.000000000               0.000060858               0.003234580              -0.000008996              -0.000381500               0.001205349               0.000823849               0.000000000               0.000000000               0.000000000               0.000000000               0.000032026               0.003238265              -0.000005400              -0.000392772               0.001210335               0.000817563               0.000000000               0.000000000               0.000000000               0.000000000               0.000676986               0.006006551               0.000921758              -0.000496948               0.002167813               0.001670865               0.000000000               0.000000000               0.000000000               0.000000000               0.000641045               0.005032045               0.000594645              -0.000388613               0.001806869               0.001418256               0.000000000               0.000000000               0.000000000               0.000000000               0.000775676               0.004283858               0.000258262              -0.000244603               0.001509473               0.001264870               0.000000000               0.000000000               0.000000000               0.000000000               0.000763419               0.003867138               0.000104007              -0.000197110               0.001354736               0.001157627               0.000000000               0.000000000               0.000000000               0.000000000               0.000707198               0.003621669               0.000028752              -0.000187509               0.001269714               0.001082205               0.000000000               0.000000000               0.000000000               0.000000000               0.000633881               0.003467486              -0.000008861              -0.000195730               0.001221060               0.001025330               0.000000000               0.000000000               0.000000000               0.000000000               0.000557948               0.003370329              -0.000026153              -0.000212060               0.001194118               0.000982058               0.000000000               0.000000000               0.000000000               0.000000000               0.000488053               0.003308691              -0.000033188              -0.000230566               0.001179741               0.000949176               0.000000000               0.000000000               0.000000000               0.000000000               0.000425878               0.003270323              -0.000036821              -0.000249086               0.001173125               0.000924040               0.000000000               0.000000000               0.000000000               0.000000000               0.000369058               0.003248417              -0.000034789              -0.000267654               0.001172013               0.000904358               0.000000000               0.000000000               0.000000000               0.000000000               0.000317019               0.003236445              -0.000030910              -0.000285673               0.001174029               0.000888356               0.000000000               0.000000000               0.000000000               0.000000000               0.000266658               0.003231302              -0.000031274              -0.000303915               0.001178395               0.000874480               0.000000000               0.000000000               0.000000000               0.000000000               0.000214783               0.003232558              -0.000030735              -0.000323525               0.001185350               0.000861825               0.000000000               0.000000000               0.000000000               0.000000000               0.000161842               0.003239297              -0.000025931              -0.000344221               0.001194495               0.000850275               0.000000000               0.000000000               0.000000000               0.000000000               0.000107547               0.003248746              -0.000018049              -0.000365762               0.001204825               0.000839063               0.000000000               0.000000000               0.000000000               0.000000000               0.000053101               0.003261139              -0.000009455              -0.000387729               0.001216278               0.000828550               0.000000000               0.000000000               0.000000000               0.000000000               0.000029585               0.003275279              -0.000003721              -0.000398314               0.001224520               0.000826206               0.000000000               0.000000000               0.000000000               0.000000000               0.000810465               0.005531043               0.001267171              -0.000387456               0.001972814               0.001585358               0.000000000               0.000000000               0.000000000               0.000000000               0.000679578               0.004702197               0.000821483              -0.000332932               0.001678361               0.001345428               0.000000000               0.000000000               0.000000000               0.000000000               0.000711304               0.004104001               0.000367094              -0.000246261               0.001450073               0.001203813               0.000000000               0.000000000               0.000000000               0.000000000               0.000660496               0.003765328               0.000164204              -0.000222979               0.001329423               0.001106444               0.000000000               0.000000000               0.000000000               0.000000000               0.000594688               0.003559770               0.000066658              -0.000221963               0.001260566               0.001038603               0.000000000               0.000000000               0.000000000               0.000000000               0.000523845               0.003430569               0.000017558              -0.000232379               0.001220971               0.000988593               0.000000000               0.000000000               0.000000000               0.000000000               0.000455911               0.003346998              -0.000006929              -0.000247407               0.001198124               0.000950717               0.000000000               0.000000000               0.000000000               0.000000000               0.000396118               0.003292737              -0.000017325              -0.000263047               0.001185251               0.000922203               0.000000000               0.000000000               0.000000000               0.000000000               0.000340315               0.003257622              -0.000022821              -0.000279584               0.001179058               0.000899474               0.000000000               0.000000000               0.000000000               0.000000000               0.000289132               0.003235945              -0.000022304              -0.000296068               0.001177327               0.000881259               0.000000000               0.000000000               0.000000000               0.000000000               0.000244795               0.003226296              -0.000016254              -0.000311488               0.001179250               0.000867762               0.000000000               0.000000000               0.000000000               0.000000000               0.000203864               0.003220777              -0.000014838              -0.000326147               0.001182297               0.000856150               0.000000000               0.000000000               0.000000000               0.000000000               0.000165373               0.003221282              -0.000016251              -0.000340645               0.001187298               0.000846654               0.000000000               0.000000000               0.000000000               0.000000000               0.000126346               0.003228347              -0.000013997              -0.000356163               0.001194826               0.000838663               0.000000000               0.000000000               0.000000000               0.000000000               0.000084853               0.003242654              -0.000008747              -0.000373511               0.001205378               0.000831867               0.000000000               0.000000000               0.000000000               0.000000000               0.000042098               0.003265852              -0.000003582              -0.000392444               0.001219421               0.000826977               0.000000000               0.000000000               0.000000000               0.000000000               0.000025743               0.003289573               0.000001092              -0.000401542               0.001230361               0.000828819               0.000000000               0.000000000               0.000000000               0.000000000               0.000948493               0.004939940               0.001496502              -0.000261808               0.001733899               0.001472091               0.000000000               0.000000000               0.000000000               0.000000000               0.000711642               0.004297421               0.000982739              -0.000270312               0.001522563               0.001252251               0.000000000               0.000000000               0.000000000               0.000000000               0.000632379               0.003884855               0.000460776              -0.000248464               0.001377760               0.001129296               0.000000000               0.000000000               0.000000000               0.000000000               0.000544229               0.003633816               0.000232879              -0.000250140               0.001294640               0.001044500               0.000000000               0.000000000               0.000000000               0.000000000               0.000469576               0.003473509               0.000122020              -0.000258097               0.001243857               0.000985760               0.000000000               0.000000000               0.000000000               0.000000000               0.000408438               0.003372570               0.000063934              -0.000268406               0.001213648               0.000945241               0.000000000               0.000000000               0.000000000               0.000000000               0.000352488               0.003304684               0.000034430              -0.000280902               0.001195184               0.000914282               0.000000000               0.000000000               0.000000000               0.000000000               0.000302621               0.003259521               0.000021259              -0.000293956               0.001184482               0.000890525               0.000000000               0.000000000               0.000000000               0.000000000               0.000257379               0.003229211               0.000015376              -0.000307134               0.001178771               0.000871637               0.000000000               0.000000000               0.000000000               0.000000000               0.000213783               0.003208162               0.000013453              -0.000320851               0.001176327               0.000855476               0.000000000               0.000000000               0.000000000               0.000000000               0.000174898               0.003198493               0.000017537              -0.000334224               0.001177562               0.000843337               0.000000000               0.000000000               0.000000000               0.000000000               0.000143178               0.003195574               0.000019010              -0.000345754               0.001180432               0.000834678               0.000000000               0.000000000               0.000000000               0.000000000               0.000115956               0.003196528               0.000013867              -0.000356082               0.001184193               0.000828111               0.000000000               0.000000000               0.000000000               0.000000000               0.000089140               0.003206104               0.000009757              -0.000367335               0.001191135               0.000823801               0.000000000               0.000000000               0.000000000               0.000000000               0.000061347               0.003226415               0.000006575              -0.000380296               0.001202226               0.000821930               0.000000000               0.000000000               0.000000000               0.000000000               0.000031078               0.003257244               0.000003459              -0.000395500               0.001217571               0.000822070               0.000000000               0.000000000               0.000000000               0.000000000               0.000020738               0.003284210               0.000005420              -0.000402749               0.001228975               0.000826227               0.000000000               0.000000000               0.000000000               0.000000000               0.001062669               0.004288982               0.001608074              -0.000137624               0.001475521               0.001337897               0.000000000               0.000000000               0.000000000               0.000000000               0.000727227               0.003856243               0.001079234              -0.000209321               0.001355175               0.001145854               0.000000000               0.000000000               0.000000000               0.000000000               0.000544928               0.003645601               0.000541801              -0.000251352               0.001298972               0.001047620               0.000000000               0.000000000               0.000000000               0.000000000               0.000437665               0.003486380               0.000308404              -0.000271673               0.001252673               0.000981000               0.000000000               0.000000000               0.000000000               0.000000000               0.000364506               0.003375327               0.000190525              -0.000285226               0.001220173               0.000934947               0.000000000               0.000000000               0.000000000               0.000000000               0.000311493               0.003300190               0.000126378              -0.000295713               0.001198624               0.000902910               0.000000000               0.000000000               0.000000000               0.000000000               0.000266214               0.003246009               0.000092113              -0.000305920               0.001183966               0.000878045               0.000000000               0.000000000               0.000000000               0.000000000               0.000225015               0.003210291               0.000075536              -0.000316905               0.001175721               0.000858816               0.000000000               0.000000000               0.000000000               0.000000000               0.000188257               0.003186513               0.000067455              -0.000327717               0.001171399               0.000843682               0.000000000               0.000000000               0.000000000               0.000000000               0.000155292               0.003171924               0.000059889              -0.000338255               0.001170049               0.000831794               0.000000000               0.000000000               0.000000000               0.000000000               0.000127289               0.003168642               0.000057432              -0.000348346               0.001172319               0.000823973               0.000000000               0.000000000               0.000000000               0.000000000               0.000103871               0.003171449               0.000056477              -0.000357479               0.001176299               0.000818820               0.000000000               0.000000000               0.000000000               0.000000000               0.000084476               0.003178857               0.000046798              -0.000365678               0.001181501               0.000815823               0.000000000               0.000000000               0.000000000               0.000000000               0.000064664               0.003194570               0.000033152              -0.000375071               0.001189870               0.000814798               0.000000000               0.000000000               0.000000000               0.000000000               0.000043030               0.003218703               0.000020534              -0.000386201               0.001201624               0.000815423               0.000000000               0.000000000               0.000000000               0.000000000               0.000021715               0.003244830               0.000009555              -0.000397460               0.001214086               0.000816626               0.000000000               0.000000000               0.000000000               0.000000000               0.000014964               0.003262770               0.000007137              -0.000402234               0.001221657               0.000819424               0.000000000               0.000000000               0.000000000               0.000000000               0.001132696               0.003626976               0.001614069              -0.000028613               0.001218517               0.001189904               0.000000000               0.000000000               0.000000000               0.000000000               0.000726503               0.003411894               0.001120418              -0.000154049               0.001188636               0.001034587               0.000000000               0.000000000               0.000000000               0.000000000               0.000463086               0.003401911               0.000611737              -0.000251581               0.001217820               0.000966238               0.000000000               0.000000000               0.000000000               0.000000000               0.000352211               0.003333415               0.000385224              -0.000284597               0.001205993               0.000921396               0.000000000               0.000000000               0.000000000               0.000000000               0.000288816               0.003266697               0.000265350              -0.000300030               0.001188898               0.000888868               0.000000000               0.000000000               0.000000000               0.000000000               0.000244583               0.003214164               0.000197179              -0.000310051               0.001174728               0.000864677               0.000000000               0.000000000               0.000000000               0.000000000               0.000209011               0.003176080               0.000156254              -0.000318630               0.001164893               0.000846263               0.000000000               0.000000000               0.000000000               0.000000000               0.000178302               0.003155762               0.000132323              -0.000327606               0.001161112               0.000833506               0.000000000               0.000000000               0.000000000               0.000000000               0.000152018               0.003144863               0.000118202              -0.000336100               0.001160311               0.000824210               0.000000000               0.000000000               0.000000000               0.000000000               0.000128041               0.003140811               0.000103719              -0.000344585               0.001161788               0.000817203               0.000000000               0.000000000               0.000000000               0.000000000               0.000106955               0.003143280               0.000093213              -0.000352801               0.001165350               0.000812549               0.000000000               0.000000000               0.000000000               0.000000000               0.000088570               0.003153416               0.000087296              -0.000360962               0.001171449               0.000810487               0.000000000               0.000000000               0.000000000               0.000000000               0.000069744               0.003169330               0.000072648              -0.000370011               0.001179770               0.000809759               0.000000000               0.000000000               0.000000000               0.000000000               0.000049834               0.003188643               0.000050803              -0.000379892               0.001189501               0.000809609               0.000000000               0.000000000               0.000000000               0.000000000               0.000028861               0.003205320               0.000030001              -0.000389841               0.001198376               0.000808535               0.000000000               0.000000000               0.000000000               0.000000000               0.000012587               0.003212015               0.000012991              -0.000396781               0.001202921               0.000806140               0.000000000               0.000000000               0.000000000               0.000000000               0.000004254               0.003208672               0.000004389              -0.000399488               0.001202709               0.000803222               0.000000000               0.000000000               0.000000000               0.000000000               0.001150751               0.002992792               0.001532445               0.000057430               0.000978443               0.001035874               0.000000000               0.000000000               0.000000000               0.000000000               0.000710987               0.002997999               0.001118486              -0.000108131               0.001035366               0.000927235               0.000000000               0.000000000               0.000000000               0.000000000               0.000400635               0.003170190               0.000673097              -0.000246035               0.001138731               0.000892696               0.000000000               0.000000000               0.000000000               0.000000000               0.000295265               0.003175390               0.000458114              -0.000286199               0.001153852               0.000867653               0.000000000               0.000000000               0.000000000               0.000000000               0.000242168               0.003149098               0.000336909              -0.000302824               0.001150630               0.000847807               0.000000000               0.000000000               0.000000000               0.000000000               0.000205648               0.003123653               0.000261903              -0.000313338               0.001145653               0.000832315               0.000000000               0.000000000               0.000000000               0.000000000               0.000179970               0.003110643               0.000212969              -0.000321341               0.001143984               0.000822643               0.000000000               0.000000000               0.000000000               0.000000000               0.000159412               0.003106961               0.000180037              -0.000328590               0.001145173               0.000816583               0.000000000               0.000000000               0.000000000               0.000000000               0.000141982               0.003108702               0.000159724              -0.000335344               0.001148005               0.000812661               0.000000000               0.000000000               0.000000000               0.000000000               0.000124939               0.003116594               0.000140548              -0.000342721               0.001153095               0.000810374               0.000000000               0.000000000               0.000000000               0.000000000               0.000107468               0.003127568               0.000120771              -0.000350645               0.001159394               0.000808749               0.000000000               0.000000000               0.000000000               0.000000000               0.000088079               0.003144989               0.000104008              -0.000360093               0.001168350               0.000808257               0.000000000               0.000000000               0.000000000               0.000000000               0.000062788               0.003164985               0.000081252              -0.000372077               0.001179010               0.000806933               0.000000000               0.000000000               0.000000000               0.000000000               0.000035912               0.003178470               0.000051991              -0.000383841               0.001187427               0.000803586               0.000000000               0.000000000               0.000000000               0.000000000               0.000014280               0.003178652               0.000025224              -0.000391975               0.001190198               0.000798223               0.000000000               0.000000000               0.000000000               0.000000000               0.000002274               0.003164527               0.000007168              -0.000394712               0.001186403               0.000791690               0.000000000               0.000000000               0.000000000               0.000000000              -0.000005780               0.003147689              -0.000001616              -0.000395627               0.001181095               0.000785467               0.000000000               0.000000000               0.000000000               0.000000000               0.001140402               0.002437859               0.001391548               0.000122916               0.000771639               0.000894555               0.000000000               0.000000000               0.000000000               0.000000000               0.000705015               0.002633681               0.001094453              -0.000064831               0.000899495               0.000834664               0.000000000               0.000000000               0.000000000               0.000000000               0.000374169               0.002960028               0.000743652              -0.000229690               0.001063230               0.000833539               0.000000000               0.000000000               0.000000000               0.000000000               0.000276209               0.003036393               0.000538831              -0.000275970               0.001104111               0.000828141               0.000000000               0.000000000               0.000000000               0.000000000               0.000231750               0.003056607               0.000411937              -0.000295169               0.001117249               0.000822079               0.000000000               0.000000000               0.000000000               0.000000000               0.000199154               0.003061818               0.000327733              -0.000308044               0.001123277               0.000815233               0.000000000               0.000000000               0.000000000               0.000000000               0.000175882               0.003069240               0.000269480              -0.000317699               0.001128969               0.000811271               0.000000000               0.000000000               0.000000000               0.000000000               0.000159186               0.003076632               0.000227897              -0.000324884               0.001133828               0.000808945               0.000000000               0.000000000               0.000000000               0.000000000               0.000148973               0.003089329               0.000198988              -0.000330300               0.001139866               0.000809566               0.000000000               0.000000000               0.000000000               0.000000000               0.000141111               0.003110276               0.000171444              -0.000335867               0.001148704               0.000812837               0.000000000               0.000000000               0.000000000               0.000000000               0.000127623               0.003132097               0.000141932              -0.000343653               0.001158573               0.000814920               0.000000000               0.000000000               0.000000000               0.000000000               0.000103222               0.003153028               0.000113217              -0.000355419               0.001169472               0.000814053               0.000000000               0.000000000               0.000000000               0.000000000               0.000070728               0.003170759               0.000083488              -0.000369821               0.001180183               0.000810362               0.000000000               0.000000000               0.000000000               0.000000000               0.000038200               0.003175622               0.000051441              -0.000382627               0.001186073               0.000803446               0.000000000               0.000000000               0.000000000               0.000000000               0.000010629               0.003161116               0.000022650              -0.000391153               0.001184079               0.000792926               0.000000000               0.000000000               0.000000000               0.000000000              -0.000009576               0.003131391               0.000002999              -0.000395014               0.001175458               0.000780444               0.000000000               0.000000000               0.000000000               0.000000000              -0.000018039               0.003112800              -0.000004645              -0.000395864               0.001169544               0.000773681               0.000000000               0.000000000               0.000000000               0.000000000               0.001090580               0.001906795               0.001220754               0.000170615               0.000578720               0.000749335               0.000000000               0.000000000               0.000000000               0.000000000               0.000712970               0.002212257               0.001060450              -0.000009170               0.000740468               0.000731298               0.000000000               0.000000000               0.000000000               0.000000000               0.000393138               0.002649276               0.000829507              -0.000183733               0.000944327               0.000760594               0.000000000               0.000000000               0.000000000               0.000000000               0.000296281               0.002818810               0.000641160              -0.000241246               0.001020009               0.000778763               0.000000000               0.000000000               0.000000000               0.000000000               0.000256023               0.002901036               0.000507979              -0.000266621               0.001055876               0.000789255               0.000000000               0.000000000               0.000000000               0.000000000               0.000224310               0.002945357               0.000412566              -0.000284053               0.001076460               0.000792407               0.000000000               0.000000000               0.000000000               0.000000000               0.000198916               0.002977748               0.000344442              -0.000297624               0.001091781               0.000794157               0.000000000               0.000000000               0.000000000               0.000000000               0.000184670               0.003007797               0.000295633              -0.000306723               0.001104830               0.000798107               0.000000000               0.000000000               0.000000000               0.000000000               0.000176907               0.003039642               0.000256019              -0.000313614               0.001117742               0.000804127               0.000000000               0.000000000               0.000000000               0.000000000               0.000166696               0.003070212               0.000216807              -0.000321265               0.001130482               0.000809217               0.000000000               0.000000000               0.000000000               0.000000000               0.000150606               0.003096045               0.000176662              -0.000330528               0.001142180               0.000811653               0.000000000               0.000000000               0.000000000               0.000000000               0.000124871               0.003115089               0.000136991              -0.000342559               0.001152539               0.000809980               0.000000000               0.000000000               0.000000000               0.000000000               0.000088700               0.003125763               0.000100526              -0.000357457               0.001161063               0.000803606               0.000000000               0.000000000               0.000000000               0.000000000               0.000048871               0.003131521               0.000066228              -0.000373113               0.001168201               0.000795088               0.000000000               0.000000000               0.000000000               0.000000000               0.000009432               0.003124376               0.000034153              -0.000387009               0.001170451               0.000783442               0.000000000               0.000000000               0.000000000               0.000000000              -0.000024405               0.003106366               0.000010808              -0.000397447               0.001167927               0.000770481               0.000000000               0.000000000               0.000000000               0.000000000              -0.000042412               0.003093540               0.000000248              -0.000402596               0.001165368               0.000762772               0.000000000               0.000000000               0.000000000               0.000000000               0.000978202               0.001413117               0.001023640               0.000190184               0.000407639               0.000597823               0.000000000               0.000000000               0.000000000               0.000000000               0.000715964               0.001791555               0.000998046               0.000044541               0.000582332               0.000626872               0.000000000               0.000000000               0.000000000               0.000000000               0.000446163               0.002303805               0.000894434              -0.000120665               0.000808149               0.000687483               0.000000000               0.000000000               0.000000000               0.000000000               0.000350723               0.002561516               0.000740276              -0.000188668               0.000916719               0.000728051               0.000000000               0.000000000               0.000000000               0.000000000               0.000307968               0.002709943               0.000608507              -0.000223255               0.000977724               0.000754469               0.000000000               0.000000000               0.000000000               0.000000000               0.000273783               0.002799210               0.000506314              -0.000247232               0.001015471               0.000768239               0.000000000               0.000000000               0.000000000               0.000000000               0.000244620               0.002864971               0.000432441              -0.000266388               0.001043777               0.000777388               0.000000000               0.000000000               0.000000000               0.000000000               0.000223929               0.002923569               0.000377076              -0.000281472               0.001068337               0.000786865               0.000000000               0.000000000               0.000000000               0.000000000               0.000211495               0.002978321               0.000326475              -0.000292979               0.001090423               0.000797444               0.000000000               0.000000000               0.000000000               0.000000000               0.000198530               0.003024890               0.000276057              -0.000303662               0.001109507               0.000805845               0.000000000               0.000000000               0.000000000               0.000000000               0.000180094               0.003058040               0.000227921              -0.000314719               0.001124243               0.000809524               0.000000000               0.000000000               0.000000000               0.000000000               0.000154690               0.003077934               0.000182035              -0.000326732               0.001134878               0.000808146               0.000000000               0.000000000               0.000000000               0.000000000               0.000122331               0.003090499               0.000139820              -0.000340437               0.001143635               0.000803198               0.000000000               0.000000000               0.000000000               0.000000000               0.000082227               0.003097986               0.000098956              -0.000356412               0.001151456               0.000795044               0.000000000               0.000000000               0.000000000               0.000000000               0.000033669               0.003097407               0.000059615              -0.000374549               0.001157308               0.000782759               0.000000000               0.000000000               0.000000000               0.000000000              -0.000018429               0.003092893               0.000025911              -0.000393521               0.001162128               0.000768606               0.000000000               0.000000000               0.000000000               0.000000000              -0.000056220               0.003081472               0.000005564              -0.000406265               0.001162569               0.000756303               0.000000000               0.000000000               0.000000000               0.000000000               0.000807277               0.000979430               0.000806765               0.000180298               0.000266373               0.000446671               0.000000000               0.000000000               0.000000000               0.000000000               0.000692694               0.001390036               0.000892137               0.000086004               0.000434672               0.000520676               0.000000000               0.000000000               0.000000000               0.000000000               0.000513687               0.001926375               0.000901360              -0.000048165               0.000658173               0.000610008               0.000000000               0.000000000               0.000000000               0.000000000               0.000433871               0.002250639               0.000794608              -0.000118629               0.000789748               0.000671119               0.000000000               0.000000000               0.000000000               0.000000000               0.000388934               0.002462245               0.000678373              -0.000161931               0.000874717               0.000712786               0.000000000               0.000000000               0.000000000               0.000000000               0.000351514               0.002602575               0.000580097              -0.000193504               0.000932018               0.000738514               0.000000000               0.000000000               0.000000000               0.000000000               0.000314366               0.002709416               0.000504004              -0.000220789               0.000976726               0.000755937               0.000000000               0.000000000               0.000000000               0.000000000               0.000282326               0.002800878               0.000444458              -0.000244237               0.001015029               0.000770792               0.000000000               0.000000000               0.000000000               0.000000000               0.000259675               0.002883561               0.000389672              -0.000263066               0.001048866               0.000785800               0.000000000               0.000000000               0.000000000               0.000000000               0.000243794               0.002956698               0.000334429              -0.000278164               0.001078277               0.000800114               0.000000000               0.000000000               0.000000000               0.000000000               0.000222440               0.003009987               0.000281184              -0.000292833               0.001100930               0.000808097               0.000000000               0.000000000               0.000000000               0.000000000               0.000195098               0.003042013               0.000232459              -0.000307089               0.001116357               0.000809268               0.000000000               0.000000000               0.000000000               0.000000000               0.000161861               0.003057254               0.000187645              -0.000321458               0.001126227               0.000804769               0.000000000               0.000000000               0.000000000               0.000000000               0.000120667               0.003065148               0.000141014              -0.000337893               0.001134337               0.000796444               0.000000000               0.000000000               0.000000000               0.000000000               0.000071370               0.003072376               0.000092654              -0.000357282               0.001143209               0.000785927               0.000000000               0.000000000               0.000000000               0.000000000               0.000012348               0.003080328               0.000045691              -0.000380409               0.001153569               0.000773159               0.000000000               0.000000000               0.000000000               0.000000000              -0.000036574               0.003073264               0.000016245              -0.000397872               0.001157035               0.000759163               0.000000000               0.000000000               0.000000000               0.000000000               0.000593077               0.000628233               0.000590705               0.000143873               0.000161451               0.000305324               0.000000000               0.000000000               0.000000000               0.000000000               0.000642714               0.001026067               0.000749395               0.000112758               0.000304433               0.000417190               0.000000000               0.000000000               0.000000000               0.000000000               0.000585184               0.001543253               0.000841445               0.000026536               0.000505567               0.000532103               0.000000000               0.000000000               0.000000000               0.000000000               0.000537847               0.001907489               0.000783190              -0.000036744               0.000648071               0.000611327               0.000000000               0.000000000               0.000000000               0.000000000               0.000496428               0.002171169               0.000692792              -0.000085236               0.000752128               0.000666891               0.000000000               0.000000000               0.000000000               0.000000000               0.000455938               0.002359668               0.000605815              -0.000123982               0.000827875               0.000703893               0.000000000               0.000000000               0.000000000               0.000000000               0.000411242               0.002505053               0.000535069              -0.000158916               0.000887981               0.000729065               0.000000000               0.000000000               0.000000000               0.000000000               0.000371570               0.002632827               0.000478411              -0.000189764               0.000940855               0.000751091               0.000000000               0.000000000               0.000000000               0.000000000               0.000339272               0.002751741               0.000425381              -0.000216740               0.000989484               0.000772744               0.000000000               0.000000000               0.000000000               0.000000000               0.000315077               0.002855002               0.000370480              -0.000238721               0.001031232               0.000792510               0.000000000               0.000000000               0.000000000               0.000000000               0.000290933               0.002932109               0.000316534              -0.000257413               0.001063164               0.000805751               0.000000000               0.000000000               0.000000000               0.000000000               0.000262543               0.002983870               0.000268811              -0.000274529               0.001086123               0.000811594               0.000000000               0.000000000               0.000000000               0.000000000               0.000228239               0.003015692               0.000223600              -0.000291371               0.001102344               0.000810973               0.000000000               0.000000000               0.000000000               0.000000000               0.000189490               0.003036073               0.000176713              -0.000308450               0.001114831               0.000806381               0.000000000               0.000000000               0.000000000               0.000000000               0.000144579               0.003049710               0.000126201              -0.000326996               0.001125558               0.000798563               0.000000000               0.000000000               0.000000000               0.000000000               0.000088708               0.003065847               0.000067979              -0.000349965               0.001138594               0.000788629               0.000000000               0.000000000               0.000000000               0.000000000               0.000038830               0.003064989               0.000030256              -0.000368561               0.001144507               0.000775945               0.000000000               0.000000000               0.000000000               0.000000000               0.000366816               0.000367082               0.000395852               0.000091669               0.000091803               0.000183472               0.000000000               0.000000000               0.000000000               0.000000000               0.000575377               0.000719140               0.000578823               0.000125872               0.000197753               0.000323625               0.000000000               0.000000000               0.000000000               0.000000000               0.000648721               0.001184847               0.000710556               0.000095163               0.000363224               0.000458387               0.000000000               0.000000000               0.000000000               0.000000000               0.000647105               0.001562434               0.000690220               0.000047359               0.000505019               0.000552379               0.000000000               0.000000000               0.000000000               0.000000000               0.000614941               0.001858935               0.000628085              -0.000001765               0.000620227               0.000618462               0.000000000               0.000000000               0.000000000               0.000000000               0.000574795               0.002086486               0.000560475              -0.000045263               0.000710576               0.000665313               0.000000000               0.000000000               0.000000000               0.000000000               0.000530474               0.002271259               0.000502834              -0.000084980               0.000785405               0.000700425               0.000000000               0.000000000               0.000000000               0.000000000               0.000483355               0.002434122               0.000454671              -0.000123007               0.000852368               0.000729361               0.000000000               0.000000000               0.000000000               0.000000000               0.000440866               0.002584914               0.000408513              -0.000157789               0.000914226               0.000756436               0.000000000               0.000000000               0.000000000               0.000000000               0.000408103               0.002714364               0.000361307              -0.000186257               0.000966864               0.000780608               0.000000000               0.000000000               0.000000000               0.000000000               0.000381800               0.002817872               0.000312726              -0.000209058               0.001008967               0.000799909               0.000000000               0.000000000               0.000000000               0.000000000               0.000350753               0.002899424               0.000266003              -0.000230895               0.001043430               0.000812535               0.000000000               0.000000000               0.000000000               0.000000000               0.000316662               0.002960792               0.000225481              -0.000251350               0.001070704               0.000819354               0.000000000               0.000000000               0.000000000               0.000000000               0.000286025               0.003003775               0.000186463              -0.000268212               0.001090652               0.000822440               0.000000000               0.000000000               0.000000000               0.000000000               0.000254125               0.003032941               0.000138567              -0.000283820               0.001105577               0.000821757               0.000000000               0.000000000               0.000000000               0.000000000               0.000214287               0.003058990               0.000076070              -0.000302015               0.001120325               0.000818309               0.000000000               0.000000000               0.000000000               0.000000000               0.000178981               0.003065058               0.000037096              -0.000316014               0.001127014               0.000811000               0.000000000               0.000000000               0.000000000               0.000000000               0.000166725               0.000190449               0.000234753               0.000038715               0.000050577               0.000089292               0.000000000               0.000000000               0.000000000               0.000000000               0.000509364               0.000486401               0.000392191               0.000130210               0.000118728               0.000248938               0.000000000               0.000000000               0.000000000               0.000000000               0.000697962               0.000889281               0.000515719               0.000150574               0.000246233               0.000396807               0.000000000               0.000000000               0.000000000               0.000000000               0.000742526               0.001260237               0.000516403               0.000120916               0.000379769               0.000500685               0.000000000               0.000000000               0.000000000               0.000000000               0.000728421               0.001575353               0.000479339               0.000076238               0.000499700               0.000575937               0.000000000               0.000000000               0.000000000               0.000000000               0.000693060               0.001835130               0.000435780               0.000030506               0.000601535               0.000632041               0.000000000               0.000000000               0.000000000               0.000000000               0.000649642               0.002052714               0.000395780              -0.000012974               0.000688556               0.000675582               0.000000000               0.000000000               0.000000000               0.000000000               0.000596377               0.002241428               0.000359471              -0.000056537               0.000765981               0.000709444               0.000000000               0.000000000               0.000000000               0.000000000               0.000543252               0.002410092               0.000327276              -0.000097542               0.000835870               0.000738328               0.000000000               0.000000000               0.000000000               0.000000000               0.000500886               0.002561578               0.000294962              -0.000132365               0.000897972               0.000765608               0.000000000               0.000000000               0.000000000               0.000000000               0.000465853               0.002696120               0.000254612              -0.000162320               0.000952804               0.000790484               0.000000000               0.000000000               0.000000000               0.000000000               0.000433162               0.002811368               0.000214959              -0.000188985               0.001000108               0.000811123               0.000000000               0.000000000               0.000000000               0.000000000               0.000405676               0.002904236               0.000187040              -0.000210901               0.001038369               0.000827468               0.000000000               0.000000000               0.000000000               0.000000000               0.000381029               0.002972565               0.000160173              -0.000228684               0.001067073               0.000838389               0.000000000               0.000000000               0.000000000               0.000000000               0.000362057               0.003025537               0.000120793              -0.000242420               0.001089309               0.000846889               0.000000000               0.000000000               0.000000000               0.000000000               0.000349683               0.003063562               0.000065958              -0.000251814               0.001105115               0.000853301               0.000000000               0.000000000               0.000000000               0.000000000               0.000342887               0.003075465               0.000033901              -0.000255850               0.001110428               0.000854578               0.000000000               0.000000000               0.000000000               0.000000000               0.000030257               0.000093297               0.000105709              -0.000000316               0.000031204               0.000030888               0.000000000               0.000000000               0.000000000               0.000000000               0.000462199               0.000343680               0.000197214               0.000130363               0.000071104               0.000201468               0.000000000               0.000000000               0.000000000               0.000000000               0.000730807               0.000695505               0.000271562               0.000187113               0.000169462               0.000356574               0.000000000               0.000000000               0.000000000               0.000000000               0.000809033               0.001052814               0.000276210               0.000171784               0.000293673               0.000465457               0.000000000               0.000000000               0.000000000               0.000000000               0.000814828               0.001376234               0.000259861               0.000133530               0.000414230               0.000547760               0.000000000               0.000000000               0.000000000               0.000000000               0.000786694               0.001660287               0.000240451               0.000087473               0.000524266               0.000611739               0.000000000               0.000000000               0.000000000               0.000000000               0.000740703               0.001898584               0.000219973               0.000040440               0.000619375               0.000659815               0.000000000               0.000000000               0.000000000               0.000000000               0.000684021               0.002096886               0.000199041              -0.000005603               0.000700823               0.000695220               0.000000000               0.000000000               0.000000000               0.000000000               0.000625283               0.002275496               0.000183409              -0.000049956               0.000775143               0.000725187               0.000000000               0.000000000               0.000000000               0.000000000               0.000570170               0.002447846               0.000167382              -0.000092167               0.000846663               0.000754496               0.000000000               0.000000000               0.000000000               0.000000000               0.000525929               0.002610360               0.000143468              -0.000129071               0.000913135               0.000784064               0.000000000               0.000000000               0.000000000               0.000000000               0.000496446               0.002750980               0.000122536              -0.000157705               0.000969553               0.000811848               0.000000000               0.000000000               0.000000000               0.000000000               0.000474880               0.002864606               0.000108692              -0.000179995               0.001014857               0.000834862               0.000000000               0.000000000               0.000000000               0.000000000               0.000455785               0.002950422               0.000093624              -0.000197883               0.001049425               0.000851542               0.000000000               0.000000000               0.000000000               0.000000000               0.000446500               0.003015229               0.000071576              -0.000209466               0.001074888               0.000865422               0.000000000               0.000000000               0.000000000               0.000000000               0.000455459               0.003059208               0.000040305              -0.000211603               0.001090260               0.000878657               0.000000000               0.000000000               0.000000000               0.000000000               0.000471993               0.003076895               0.000022573              -0.000207614               0.001094826               0.000887212               0.000000000               0.000000000               0.000000000               0.000000000              -0.000017460               0.000064969              -0.000000000              -0.000014669               0.000026546               0.000011877               0.000000000               0.000000000               0.000000000               0.000000000               0.000445366               0.000297068               0.000000000               0.000129877               0.000055729               0.000185607               0.000000000               0.000000000               0.000000000               0.000000000               0.000742765               0.000626347               0.000000000               0.000200241               0.000142033               0.000342275               0.000000000               0.000000000               0.000000000               0.000000000               0.000833596               0.000976939              -0.000000000               0.000190479               0.000262150               0.000452629               0.000000000               0.000000000               0.000000000               0.000000000               0.000849069               0.001306923              -0.000000000               0.000155034               0.000383959               0.000538993               0.000000000               0.000000000               0.000000000               0.000000000               0.000823755               0.001599744               0.000000000               0.000108939               0.000496930               0.000605869               0.000000000               0.000000000               0.000000000               0.000000000               0.000773654               0.001840986               0.000000000               0.000059997               0.000593657               0.000653654               0.000000000               0.000000000               0.000000000               0.000000000               0.000716457               0.002041594              -0.000000000               0.000013472               0.000676034               0.000689506               0.000000000               0.000000000               0.000000000               0.000000000               0.000657910               0.002225500              -0.000000000              -0.000031471               0.000752316               0.000720845               0.000000000               0.000000000               0.000000000               0.000000000               0.000596966               0.002406735               0.000000000              -0.000076979               0.000827897               0.000750917               0.000000000               0.000000000               0.000000000               0.000000000               0.000550513               0.002581138              -0.000000000              -0.000116199               0.000899104               0.000782904               0.000000000               0.000000000               0.000000000               0.000000000               0.000522166               0.002729121               0.000000000              -0.000145327               0.000958140               0.000812813               0.000000000               0.000000000               0.000000000               0.000000000               0.000501247               0.002850006               0.000000000              -0.000168283               0.001006087               0.000837804               0.000000000               0.000000000               0.000000000               0.000000000               0.000486168               0.002942562              -0.000000000              -0.000185507               0.001042680               0.000857173               0.000000000               0.000000000               0.000000000               0.000000000               0.000481811               0.003006494              -0.000000000              -0.000195132               0.001067199               0.000872066               0.000000000               0.000000000               0.000000000               0.000000000               0.000498033               0.003052646               0.000000000              -0.000194818               0.001082478               0.000887660               0.000000000               0.000000000               0.000000000               0.000000000               0.000521983               0.003075213              -0.000000000              -0.000188658               0.001087947               0.000899289               0.000000000               0.000000000               0.000000000               0.000000000               0.000546246               0.006418099              -0.000000000              -0.000597419               0.002338484               0.001741066               0.000000000               0.000000000               0.000000000               0.000000000               0.000599515               0.005318565              -0.000000000              -0.000440001               0.001919504               0.001479503               0.000000000               0.000000000               0.000000000               0.000000000               0.000830850               0.004434776               0.000000000              -0.000242778               0.001559170               0.001316392               0.000000000               0.000000000               0.000000000               0.000000000               0.000858065               0.003949219               0.000000000              -0.000171878               0.001373686               0.001201808               0.000000000               0.000000000               0.000000000               0.000000000               0.000811887               0.003660790              -0.000000000              -0.000153141               0.001271298               0.001118157               0.000000000               0.000000000               0.000000000               0.000000000               0.000739820               0.003485330              -0.000000000              -0.000158233               0.001214510               0.001056276               0.000000000               0.000000000               0.000000000               0.000000000               0.000658159               0.003373648               0.000000000              -0.000174896               0.001182837               0.001007941               0.000000000               0.000000000               0.000000000               0.000000000               0.000581902               0.003302938              -0.000000000              -0.000194654               0.001165853               0.000971199               0.000000000               0.000000000               0.000000000               0.000000000               0.000511650               0.003260234              -0.000000000              -0.000215660               0.001158620               0.000942961               0.000000000               0.000000000               0.000000000               0.000000000               0.000444094               0.003235791              -0.000000000              -0.000237938               0.001157899               0.000919961               0.000000000               0.000000000               0.000000000               0.000000000               0.000382529               0.003222965              -0.000000000              -0.000259422               0.001160785               0.000901363               0.000000000               0.000000000               0.000000000               0.000000000               0.000323163               0.003218209              -0.000000000              -0.000281089               0.001166422               0.000885333               0.000000000               0.000000000               0.000000000               0.000000000               0.000260638               0.003219792              -0.000000000              -0.000304734               0.001174831               0.000870097               0.000000000               0.000000000               0.000000000               0.000000000               0.000194471               0.003221563              -0.000000000              -0.000329768               0.001183766               0.000853998               0.000000000               0.000000000               0.000000000               0.000000000               0.000128169               0.003222038              -0.000000000              -0.000354690               0.001192232               0.000837542               0.000000000               0.000000000               0.000000000               0.000000000               0.000062353               0.003217558              -0.000000000              -0.000378812               0.001198779               0.000819968               0.000000000               0.000000000               0.000000000               0.000000000               0.000030883               0.003216240              -0.000000000              -0.000390448               0.001202219               0.000811771               0.000000000               0.000000000               0.000000000               0.000000000               0.000582032               0.006313168              -0.000484462              -0.000570883               0.002294663               0.001723780               0.000000000               0.000000000               0.000000000               0.000000000               0.000611274               0.005245560              -0.000311953              -0.000426466               0.001890658               0.001464192               0.000000000               0.000000000               0.000000000               0.000000000               0.000815609               0.004397172              -0.000133558              -0.000243792               0.001546974               0.001303181               0.000000000               0.000000000               0.000000000               0.000000000               0.000831914               0.003928997              -0.000051102              -0.000179156               0.001369371               0.001190215               0.000000000               0.000000000               0.000000000               0.000000000               0.000784958               0.003653274              -0.000009931              -0.000162300               0.001271846               0.001109546               0.000000000               0.000000000               0.000000000               0.000000000               0.000712962               0.003483045               0.000011449              -0.000168019               0.001217010               0.001048990               0.000000000               0.000000000               0.000000000               0.000000000               0.000632964               0.003375238               0.000020977              -0.000184543               0.001186582               0.001002040               0.000000000               0.000000000               0.000000000               0.000000000               0.000558281               0.003307794               0.000024958              -0.000204118               0.001170626               0.000966508               0.000000000               0.000000000               0.000000000               0.000000000               0.000489034               0.003266585               0.000026636              -0.000224935               0.001163829               0.000938894               0.000000000               0.000000000               0.000000000               0.000000000               0.000424243               0.003243020               0.000025804              -0.000246286               0.001163091               0.000916805               0.000000000               0.000000000               0.000000000               0.000000000               0.000366221               0.003229572               0.000024112              -0.000266363               0.001165301               0.000898938               0.000000000               0.000000000               0.000000000               0.000000000               0.000309369               0.003225247               0.000024665              -0.000287142               0.001170785               0.000883644               0.000000000               0.000000000               0.000000000               0.000000000               0.000249217               0.003226828               0.000023981              -0.000309896               0.001178897               0.000869001               0.000000000               0.000000000               0.000000000               0.000000000               0.000186947               0.003230759               0.000020744              -0.000333739               0.001188155               0.000854416               0.000000000               0.000000000               0.000000000               0.000000000               0.000123350               0.003233487               0.000015521              -0.000357929               0.001197128               0.000839199               0.000000000               0.000000000               0.000000000               0.000000000               0.000060858               0.003234580               0.000008996              -0.000381500               0.001205349               0.000823849               0.000000000               0.000000000               0.000000000               0.000000000               0.000032026               0.003238265               0.000005400              -0.000392772               0.001210335               0.000817563               0.000000000               0.000000000               0.000000000               0.000000000               0.000676986               0.006006551              -0.000921758              -0.000496948               0.002167813               0.001670865               0.000000000               0.000000000               0.000000000               0.000000000               0.000641045               0.005032045              -0.000594645              -0.000388613               0.001806869               0.001418256               0.000000000               0.000000000               0.000000000               0.000000000               0.000775676               0.004283858              -0.000258262              -0.000244603               0.001509473               0.001264870               0.000000000               0.000000000               0.000000000               0.000000000               0.000763419               0.003867138              -0.000104007              -0.000197110               0.001354736               0.001157627               0.000000000               0.000000000               0.000000000               0.000000000               0.000707198               0.003621669              -0.000028752              -0.000187509               0.001269714               0.001082205               0.000000000               0.000000000               0.000000000               0.000000000               0.000633881               0.003467486               0.000008861              -0.000195730               0.001221060               0.001025330               0.000000000               0.000000000               0.000000000               0.000000000               0.000557948               0.003370329               0.000026153              -0.000212060               0.001194118               0.000982058               0.000000000               0.000000000               0.000000000               0.000000000               0.000488053               0.003308691               0.000033188              -0.000230566               0.001179741               0.000949176               0.000000000               0.000000000               0.000000000               0.000000000               0.000425878               0.003270323               0.000036821              -0.000249086               0.001173125               0.000924040               0.000000000               0.000000000               0.000000000               0.000000000               0.000369058               0.003248417               0.000034789              -0.000267654               0.001172013               0.000904358               0.000000000               0.000000000               0.000000000               0.000000000               0.000317019               0.003236445               0.000030910              -0.000285673               0.001174029               0.000888356               0.000000000               0.000000000               0.000000000               0.000000000               0.000266658               0.003231302               0.000031274              -0.000303915               0.001178395               0.000874480               0.000000000               0.000000000               0.000000000               0.000000000               0.000214783               0.003232558               0.000030735              -0.000323525               0.001185350               0.000861825               0.000000000               0.000000000               0.000000000               0.000000000               0.000161842               0.003239297               0.000025931              -0.000344221               0.001194495               0.000850275               0.000000000               0.000000000               0.000000000               0.000000000               0.000107547               0.003248746               0.000018049              -0.000365762               0.001204825               0.000839063               0.000000000               0.000000000               0.000000000               0.000000000               0.000053101               0.003261139               0.000009455              -0.000387729               0.001216278               0.000828550               0.000000000               0.000000000               0.000000000               0.000000000               0.000029585               0.003275279               0.000003721              -0.000398314               0.001224520               0.000826206               0.000000000               0.000000000               0.000000000               0.000000000               0.000810465               0.005531043              -0.001267171              -0.000387456               0.001972814               0.001585358               0.000000000               0.000000000               0.000000000               0.000000000               0.000679578               0.004702197              -0.000821483              -0.000332932               0.001678361               0.001345428               0.000000000               0.000000000               0.000000000               0.000000000               0.000711304               0.004104001              -0.000367094              -0.000246261               0.001450073               0.001203813               0.000000000               0.000000000               0.000000000               0.000000000               0.000660496               0.003765328              -0.000164204              -0.000222979               0.001329423               0.001106444               0.000000000               0.000000000               0.000000000               0.000000000               0.000594688               0.003559770              -0.000066658              -0.000221963               0.001260566               0.001038603               0.000000000               0.000000000               0.000000000               0.000000000               0.000523845               0.003430569              -0.000017558              -0.000232379               0.001220971               0.000988593               0.000000000               0.000000000               0.000000000               0.000000000               0.000455911               0.003346998               0.000006929              -0.000247407               0.001198124               0.000950717               0.000000000               0.000000000               0.000000000               0.000000000               0.000396118               0.003292737               0.000017325              -0.000263047               0.001185251               0.000922203               0.000000000               0.000000000               0.000000000               0.000000000               0.000340315               0.003257622               0.000022821              -0.000279584               0.001179058               0.000899474               0.000000000               0.000000000               0.000000000               0.000000000               0.000289132               0.003235945               0.000022304              -0.000296068               0.001177327               0.000881259               0.000000000               0.000000000               0.000000000               0.000000000               0.000244795               0.003226296               0.000016254              -0.000311488               0.001179250               0.000867762               0.000000000               0.000000000               0.000000000               0.000000000               0.000203864               0.003220777               0.000014838              -0.000326147               0.001182297               0.000856150               0.000000000               0.000000000               0.000000000               0.000000000               0.000165373               0.003221282               0.000016251              -0.000340645               0.001187298               0.000846654               0.000000000               0.000000000               0.000000000               0.000000000               0.000126346               0.003228347               0.000013997              -0.000356163               0.001194826               0.000838663               0.000000000               0.000000000               0.000000000               0.000000000               0.000084853               0.003242654               0.000008747              -0.000373511               0.001205378               0.000831867               0.000000000               0.000000000               0.000000000               0.000000000               0.000042098               0.003265852               0.000003582              -0.000392444               0.001219421               0.000826977               0.000000000               0.000000000               0.000000000               0.000000000               0.000025743               0.003289573              -0.000001092              -0.000401542               0.001230361               0.000828819               0.000000000               0.000000000               0.000000000               0.000000000               0.000948493               0.004939940              -0.001496502              -0.000261808               0.001733899               0.001472091               0.000000000               0.000000000               0.000000000               0.000000000               0.000711642               0.004297421              -0.000982739              -0.000270312               0.001522563               0.001252251               0.000000000               0.000000000               0.000000000               0.000000000               0.000632379               0.003884855              -0.000460776              -0.000248464               0.001377760               0.001129296               0.000000000               0.000000000               0.000000000               0.000000000               0.000544229               0.003633816              -0.000232879              -0.000250140               0.001294640               0.001044500               0.000000000               0.000000000               0.000000000               0.000000000               0.000469576               0.003473509              -0.000122020              -0.000258097               0.001243857               0.000985760               0.000000000               0.000000000               0.000000000               0.000000000               0.000408438               0.003372570              -0.000063934              -0.000268406               0.001213648               0.000945241               0.000000000               0.000000000               0.000000000               0.000000000               0.000352488               0.003304684              -0.000034430              -0.000280902               0.001195184               0.000914282               0.000000000               0.000000000               0.000000000               0.000000000               0.000302621               0.003259521              -0.000021259              -0.000293956               0.001184482               0.000890525               0.000000000               0.000000000               0.000000000               0.000000000               0.000257379               0.003229211              -0.000015376              -0.000307134               0.001178771               0.000871637               0.000000000               0.000000000               0.000000000               0.000000000               0.000213783               0.003208162              -0.000013453              -0.000320851               0.001176327               0.000855476               0.000000000               0.000000000               0.000000000               0.000000000               0.000174898               0.003198493              -0.000017537              -0.000334224               0.001177562               0.000843337               0.000000000               0.000000000               0.000000000               0.000000000               0.000143178               0.003195574              -0.000019010              -0.000345754               0.001180432               0.000834678               0.000000000               0.000000000               0.000000000               0.000000000               0.000115956               0.003196528              -0.000013867              -0.000356082               0.001184193               0.000828111               0.000000000               0.000000000               0.000000000               0.000000000               0.000089140               0.003206104              -0.000009757              -0.000367335               0.001191135               0.000823801               0.000000000               0.000000000               0.000000000               0.000000000               0.000061347               0.003226415              -0.000006575              -0.000380296               0.001202226               0.000821930               0.000000000               0.000000000               0.000000000               0.000000000               0.000031078               0.003257244              -0.000003459              -0.000395500               0.001217571               0.000822070               0.000000000               0.000000000               0.000000000               0.000000000               0.000020738               0.003284210              -0.000005420              -0.000402749               0.001228975               0.000826227               0.000000000               0.000000000               0.000000000               0.000000000               0.001062669               0.004288982              -0.001608074              -0.000137624               0.001475521               0.001337897               0.000000000               0.000000000               0.000000000               0.000000000               0.000727227               0.003856243              -0.001079234              -0.000209321               0.001355175               0.001145854               0.000000000               0.000000000               0.000000000               0.000000000               0.000544928               0.003645601              -0.000541801              -0.000251352               0.001298972               0.001047620               0.000000000               0.000000000               0.000000000               0.000000000               0.000437665               0.003486380              -0.000308404              -0.000271673               0.001252673               0.000981000               0.000000000               0.000000000               0.000000000               0.000000000               0.000364506               0.003375327              -0.000190525              -0.000285226               0.001220173               0.000934947               0.000000000               0.000000000               0.000000000               0.000000000               0.000311493               0.003300190              -0.000126378              -0.000295713               0.001198624               0.000902910               0.000000000               0.000000000               0.000000000               0.000000000               0.000266214               0.003246009              -0.000092113              -0.000305920               0.001183966               0.000878045               0.000000000               0.000000000               0.000000000               0.000000000               0.000225015               0.003210291              -0.000075536              -0.000316905               0.001175721               0.000858816               0.000000000               0.000000000               0.000000000               0.000000000               0.000188257               0.003186513              -0.000067455              -0.000327717               0.001171399               0.000843682               0.000000000               0.000000000               0.000000000               0.000000000               0.000155292               0.003171924              -0.000059889              -0.000338255               0.001170049               0.000831794               0.000000000               0.000000000               0.000000000               0.000000000               0.000127289               0.003168642              -0.000057432              -0.000348346               0.001172319               0.000823973               0.000000000               0.000000000               0.000000000               0.000000000               0.000103871               0.003171449              -0.000056477              -0.000357479               0.001176299               0.000818820               0.000000000               0.000000000               0.000000000               0.000000000               0.000084476               0.003178857              -0.000046798              -0.000365678               0.001181501               0.000815823               0.000000000               0.000000000               0.000000000               0.000000000               0.000064664               0.003194570              -0.000033152              -0.000375071               0.001189870               0.000814798               0.000000000               0.000000000               0.000000000               0.000000000               0.000043030               0.003218703              -0.000020534              -0.000386201               0.001201624               0.000815423               0.000000000               0.000000000               0.000000000               0.000000000               0.000021715               0.003244830              -0.000009555              -0.000397460               0.001214086               0.000816626               0.000000000               0.000000000               0.000000000               0.000000000               0.000014964               0.003262770              -0.000007137              -0.000402234               0.001221657               0.000819424               0.000000000               0.000000000               0.000000000               0.000000000               0.001132696               0.003626976              -0.001614069              -0.000028613               0.001218517               0.001189904               0.000000000               0.000000000               0.000000000               0.000000000               0.000726503               0.003411894              -0.001120418              -0.000154049               0.001188636               0.001034587               0.000000000               0.000000000               0.000000000               0.000000000               0.000463086               0.003401911              -0.000611737              -0.000251581               0.001217820               0.000966238               0.000000000               0.000000000               0.000000000               0.000000000               0.000352211               0.003333415              -0.000385224              -0.000284597               0.001205993               0.000921396               0.000000000               0.000000000               0.000000000               0.000000000               0.000288816               0.003266697              -0.000265350              -0.000300030               0.001188898               0.000888868               0.000000000               0.000000000               0.000000000               0.000000000               0.000244583               0.003214164              -0.000197179              -0.000310051               0.001174728               0.000864677               0.000000000               0.000000000               0.000000000               0.000000000               0.000209011               0.003176080              -0.000156254              -0.000318630               0.001164893               0.000846263               0.000000000               0.000000000               0.000000000               0.000000000               0.000178302               0.003155762              -0.000132323              -0.000327606               0.001161112               0.000833506               0.000000000               0.000000000               0.000000000               0.000000000               0.000152018               0.003144863              -0.000118202              -0.000336100               0.001160311               0.000824210               0.000000000               0.000000000               0.000000000               0.000000000               0.000128041               0.003140811              -0.000103719              -0.000344585               0.001161788               0.000817203               0.000000000               0.000000000               0.000000000               0.000000000               0.000106955               0.003143280              -0.000093213              -0.000352801               0.001165350               0.000812549               0.000000000               0.000000000               0.000000000               0.000000000               0.000088570               0.003153416              -0.000087296              -0.000360962               0.001171449               0.000810487               0.000000000               0.000000000               0.000000000               0.000000000               0.000069744               0.003169330              -0.000072648              -0.000370011               0.001179770               0.000809759               0.000000000               0.000000000               0.000000000               0.000000000               0.000049834               0.003188643              -0.000050803              -0.000379892               0.001189501               0.000809609               0.000000000               0.000000000               0.000000000               0.000000000               0.000028861               0.003205320              -0.000030001              -0.000389841               0.001198376               0.000808535               0.000000000               0.000000000               0.000000000               0.000000000               0.000012587               0.003212015              -0.000012991              -0.000396781               0.001202921               0.000806140               0.000000000               0.000000000               0.000000000               0.000000000               0.000004254               0.003208672              -0.000004389              -0.000399488               0.001202709               0.000803222               0.000000000               0.000000000               0.000000000               0.000000000               0.001150751               0.002992792              -0.001532445               0.000057430               0.000978443               0.001035874               0.000000000               0.000000000               0.000000000               0.000000000               0.000710987               0.002997999              -0.001118486              -0.000108131               0.001035366               0.000927235               0.000000000               0.000000000               0.000000000               0.000000000               0.000400635               0.003170190              -0.000673097              -0.000246035               0.001138731               0.000892696               0.000000000               0.000000000               0.000000000               0.000000000               0.000295265               0.003175390              -0.000458114              -0.000286199               0.001153852               0.000867653               0.000000000               0.000000000               0.000000000               0.000000000               0.000242168               0.003149098              -0.000336909              -0.000302824               0.001150630               0.000847807               0.000000000               0.000000000               0.000000000               0.000000000               0.000205648               0.003123653              -0.000261903              -0.000313338               0.001145653               0.000832315               0.000000000               0.000000000               0.000000000               0.000000000               0.000179970               0.003110643              -0.000212969              -0.000321341               0.001143984               0.000822643               0.000000000               0.000000000               0.000000000               0.000000000               0.000159412               0.003106961              -0.000180037              -0.000328590               0.001145173               0.000816583               0.000000000               0.000000000               0.000000000               0.000000000               0.000141982               0.003108702              -0.000159724              -0.000335344               0.001148005               0.000812661               0.000000000               0.000000000               0.000000000               0.000000000               0.000124939               0.003116594              -0.000140548              -0.000342721               0.001153095               0.000810374               0.000000000               0.000000000               0.000000000               0.000000000               0.000107468               0.003127568              -0.000120771              -0.000350645               0.001159394               0.000808749               0.000000000               0.000000000               0.000000000               0.000000000               0.000088079               0.003144989              -0.000104008              -0.000360093               0.001168350               0.000808257               0.000000000               0.000000000               0.000000000               0.000000000               0.000062788               0.003164985              -0.000081252              -0.000372077               0.001179010               0.000806933               0.000000000               0.000000000               0.000000000               0.000000000               0.000035912               0.003178470              -0.000051991              -0.000383841               0.001187427               0.000803586               0.000000000               0.000000000               0.000000000               0.000000000               0.000014280               0.003178652              -0.000025224              -0.000391975               0.001190198               0.000798223               0.000000000               0.000000000               0.000000000               0.000000000               0.000002274               0.003164527              -0.000007168              -0.000394712               0.001186403               0.000791690               0.000000000               0.000000000               0.000000000               0.000000000              -0.000005780               0.003147689               0.000001616              -0.000395627               0.001181095               0.000785467               0.000000000               0.000000000               0.000000000               0.000000000               0.001140402               0.002437859              -0.001391548               0.000122916               0.000771639               0.000894555               0.000000000               0.000000000               0.000000000               0.000000000               0.000705015               0.002633681              -0.001094453              -0.000064831               0.000899495               0.000834664               0.000000000               0.000000000               0.000000000               0.000000000               0.000374169               0.002960028              -0.000743652              -0.000229690               0.001063230               0.000833539               0.000000000               0.000000000               0.000000000               0.000000000               0.000276209               0.003036393              -0.000538831              -0.000275970               0.001104111               0.000828141               0.000000000               0.000000000               0.000000000               0.000000000               0.000231750               0.003056607              -0.000411937              -0.000295169               0.001117249               0.000822079               0.000000000               0.000000000               0.000000000               0.000000000               0.000199154               0.003061818              -0.000327733              -0.000308044               0.001123277               0.000815233               0.000000000               0.000000000               0.000000000               0.000000000               0.000175882               0.003069240              -0.000269480              -0.000317699               0.001128969               0.000811271               0.000000000               0.000000000               0.000000000               0.000000000               0.000159186               0.003076632              -0.000227897              -0.000324884               0.001133828               0.000808945               0.000000000               0.000000000               0.000000000               0.000000000               0.000148973               0.003089329              -0.000198988              -0.000330300               0.001139866               0.000809566               0.000000000               0.000000000               0.000000000               0.000000000               0.000141111               0.003110276              -0.000171444              -0.000335867               0.001148704               0.000812837               0.000000000               0.000000000               0.000000000               0.000000000               0.000127623               0.003132097              -0.000141932              -0.000343653               0.001158573               0.000814920               0.000000000               0.000000000               0.000000000               0.000000000               0.000103222               0.003153028              -0.000113217              -0.000355419               0.001169472               0.000814053               0.000000000               0.000000000               0.000000000               0.000000000               0.000070728               0.003170759              -0.000083488              -0.000369821               0.001180183               0.000810362               0.000000000               0.000000000               0.000000000               0.000000000               0.000038200               0.003175622              -0.000051441              -0.000382627               0.001186073               0.000803446               0.000000000               0.000000000               0.000000000               0.000000000               0.000010629               0.003161116              -0.000022650              -0.000391153               0.001184079               0.000792926               0.000000000               0.000000000               0.000000000               0.000000000              -0.000009576               0.003131391              -0.000002999              -0.000395014               0.001175458               0.000780444               0.000000000               0.000000000               0.000000000               0.000000000              -0.000018039               0.003112800               0.000004645              -0.000395864               0.001169544               0.000773681               0.000000000               0.000000000               0.000000000               0.000000000               0.001090580               0.001906795              -0.001220754               0.000170615               0.000578720               0.000749335               0.000000000               0.000000000               0.000000000               0.000000000               0.000712970               0.002212257              -0.001060450              -0.000009170               0.000740468               0.000731298               0.000000000               0.000000000               0.000000000               0.000000000               0.000393138               0.002649276              -0.000829507              -0.000183733               0.000944327               0.000760594               0.000000000               0.000000000               0.000000000               0.000000000               0.000296281               0.002818810              -0.000641160              -0.000241246               0.001020009               0.000778763               0.000000000               0.000000000               0.000000000               0.000000000               0.000256023               0.002901036              -0.000507979              -0.000266621               0.001055876               0.000789255               0.000000000               0.000000000               0.000000000               0.000000000               0.000224310               0.002945357              -0.000412566              -0.000284053               0.001076460               0.000792407               0.000000000               0.000000000               0.000000000               0.000000000               0.000198916               0.002977748              -0.000344442              -0.000297624               0.001091781               0.000794157               0.000000000               0.000000000               0.000000000               0.000000000               0.000184670               0.003007797              -0.000295633              -0.000306723               0.001104830               0.000798107               0.000000000               0.000000000               0.000000000               0.000000000               0.000176907               0.003039642              -0.000256019              -0.000313614               0.001117742               0.000804127               0.000000000               0.000000000               0.000000000               0.000000000               0.000166696               0.003070212              -0.000216807              -0.000321265               0.001130482               0.000809217               0.000000000               0.000000000               0.000000000               0.000000000               0.000150606               0.003096045              -0.000176662              -0.000330528               0.001142180               0.000811653               0.000000000               0.000000000               0.000000000               0.000000000               0.000124871               0.003115089              -0.000136991              -0.000342559               0.001152539               0.000809980               0.000000000               0.000000000               0.000000000               0.000000000               0.000088700               0.003125763              -0.000100526              -0.000357457               0.001161063               0.000803606               0.000000000               0.000000000               0.000000000               0.000000000               0.000048871               0.003131521              -0.000066228              -0.000373113               0.001168201               0.000795088               0.000000000               0.000000000               0.000000000               0.000000000               0.000009432               0.003124376              -0.000034153              -0.000387009               0.001170451               0.000783442               0.000000000               0.000000000               0.000000000               0.000000000              -0.000024405               0.003106366              -0.000010808              -0.000397447               0.001167927               0.000770481               0.000000000               0.000000000               0.000000000               0.000000000              -0.000042412               0.003093540              -0.000000248              -0.000402596               0.001165368               0.000762772               0.000000000               0.000000000               0.000000000               0.000000000               0.000978202               0.001413117              -0.001023640               0.000190184               0.000407639               0.000597823               0.000000000               0.000000000               0.000000000               0.000000000               0.000715964               0.001791555              -0.000998046               0.000044541               0.000582332               0.000626872               0.000000000               0.000000000               0.000000000               0.000000000               0.000446163               0.002303805              -0.000894434              -0.000120665               0.000808149               0.000687483               0.000000000               0.000000000               0.000000000               0.000000000               0.000350723               0.002561516              -0.000740276              -0.000188668               0.000916719               0.000728051               0.000000000               0.000000000               0.000000000               0.000000000               0.000307968               0.002709943              -0.000608507              -0.000223255               0.000977724               0.000754469               0.000000000               0.000000000               0.000000000               0.000000000               0.000273783               0.002799210              -0.000506314              -0.000247232               0.001015471               0.000768239               0.000000000               0.000000000               0.000000000               0.000000000               0.000244620               0.002864971              -0.000432441              -0.000266388               0.001043777               0.000777388               0.000000000               0.000000000               0.000000000               0.000000000               0.000223929               0.002923569              -0.000377076              -0.000281472               0.001068337               0.000786865               0.000000000               0.000000000               0.000000000               0.000000000               0.000211495               0.002978321              -0.000326475              -0.000292979               0.001090423               0.000797444               0.000000000               0.000000000               0.000000000               0.000000000               0.000198530               0.003024890              -0.000276057              -0.000303662               0.001109507               0.000805845               0.000000000               0.000000000               0.000000000               0.000000000               0.000180094               0.003058040              -0.000227921              -0.000314719               0.001124243               0.000809524               0.000000000               0.000000000               0.000000000               0.000000000               0.000154690               0.003077934              -0.000182035              -0.000326732               0.001134878               0.000808146               0.000000000               0.000000000               0.000000000               0.000000000               0.000122331               0.003090499              -0.000139820              -0.000340437               0.001143635               0.000803198               0.000000000               0.000000000               0.000000000               0.000000000               0.000082227               0.003097986              -0.000098956              -0.000356412               0.001151456               0.000795044               0.000000000               0.000000000               0.000000000               0.000000000               0.000033669               0.003097407              -0.000059615              -0.000374549               0.001157308               0.000782759               0.000000000               0.000000000               0.000000000               0.000000000              -0.000018429               0.003092893              -0.000025911              -0.000393521               0.001162128               0.000768606               0.000000000               0.000000000               0.000000000               0.000000000              -0.000056220               0.003081472              -0.000005564              -0.000406265               0.001162569               0.000756303               0.000000000               0.000000000               0.000000000               0.000000000               0.000807277               0.000979430              -0.000806765               0.000180298               0.000266373               0.000446671               0.000000000               0.000000000               0.000000000               0.000000000               0.000692694               0.001390036              -0.000892137               0.000086004               0.000434672               0.000520676               0.000000000               0.000000000               0.000000000               0.000000000               0.000513687               0.001926375              -0.000901360              -0.000048165               0.000658173               0.000610008               0.000000000               0.000000000               0.000000000               0.000000000               0.000433871               0.002250639              -0.000794608              -0.000118629               0.000789748               0.000671119               0.000000000               0.000000000               0.000000000               0.000000000               0.000388934               0.002462245              -0.000678373              -0.000161931               0.000874717               0.000712786               0.000000000               0.000000000               0.000000000               0.000000000               0.000351514               0.002602575              -0.000580097              -0.000193504               0.000932018               0.000738514               0.000000000               0.000000000               0.000000000               0.000000000               0.000314366               0.002709416              -0.000504004              -0.000220789               0.000976726               0.000755937               0.000000000               0.000000000               0.000000000               0.000000000               0.000282326               0.002800878              -0.000444458              -0.000244237               0.001015029               0.000770792               0.000000000               0.000000000               0.000000000               0.000000000               0.000259675               0.002883561              -0.000389672              -0.000263066               0.001048866               0.000785800               0.000000000               0.000000000               0.000000000               0.000000000               0.000243794               0.002956698              -0.000334429              -0.000278164               0.001078277               0.000800114               0.000000000               0.000000000               0.000000000               0.000000000               0.000222440               0.003009987              -0.000281184              -0.000292833               0.001100930               0.000808097               0.000000000               0.000000000               0.000000000               0.000000000               0.000195098               0.003042013              -0.000232459              -0.000307089               0.001116357               0.000809268               0.000000000               0.000000000               0.000000000               0.000000000               0.000161861               0.003057254              -0.000187645              -0.000321458               0.001126227               0.000804769               0.000000000               0.000000000               0.000000000               0.000000000               0.000120667               0.003065148              -0.000141014              -0.000337893               0.001134337               0.000796444               0.000000000               0.000000000               0.000000000               0.000000000               0.000071370               0.003072376              -0.000092654              -0.000357282               0.001143209               0.000785927               0.000000000               0.000000000               0.000000000               0.000000000               0.000012348               0.003080328              -0.000045691              -0.000380409               0.001153569               0.000773159               0.000000000               0.000000000               0.000000000               0.000000000              -0.000036574               0.003073264              -0.000016245              -0.000397872               0.001157035               0.000759163               0.000000000               0.000000000               0.000000000               0.000000000               0.000593077               0.000628233              -0.000590705               0.000143873               0.000161451               0.000305324               0.000000000               0.000000000               0.000000000               0.000000000               0.000642714               0.001026067              -0.000749395               0.000112758               0.000304433               0.000417190               0.000000000               0.000000000               0.000000000               0.000000000               0.000585184               0.001543253              -0.000841445               0.000026536               0.000505567               0.000532103               0.000000000               0.000000000               0.000000000               0.000000000               0.000537847               0.001907489              -0.000783190              -0.000036744               0.000648071               0.000611327               0.000000000               0.000000000               0.000000000               0.000000000               0.000496428               0.002171169              -0.000692792              -0.000085236               0.000752128               0.000666891               0.000000000               0.000000000               0.000000000               0.000000000               0.000455938               0.002359668              -0.000605815              -0.000123982               0.000827875               0.000703893               0.000000000               0.000000000               0.000000000               0.000000000               0.000411242               0.002505053              -0.000535069              -0.000158916               0.000887981               0.000729065               0.000000000               0.000000000               0.000000000               0.000000000               0.000371570               0.002632827              -0.000478411              -0.000189764               0.000940855               0.000751091               0.000000000               0.000000000               0.000000000               0.000000000               0.000339272               0.002751741              -0.000425381              -0.000216740               0.000989484               0.000772744               0.000000000               0.000000000               0.000000000               0.000000000               0.000315077               0.002855002              -0.000370480              -0.000238721               0.001031232               0.000792510               0.000000000               0.000000000               0.000000000               0.000000000               0.000290933               0.002932109              -0.000316534              -0.000257413               0.001063164               0.000805751               0.000000000               0.000000000               0.000000000               0.000000000               0.000262543               0.002983870              -0.000268811              -0.000274529               0.001086123               0.000811594               0.000000000               0.000000000               0.000000000               0.000000000               0.000228239               0.003015692              -0.000223600              -0.000291371               0.001102344               0.000810973               0.000000000               0.000000000               0.000000000               0.000000000               0.000189490               0.003036073              -0.000176713              -0.000308450               0.001114831               0.000806381               0.000000000               0.000000000               0.000000000               0.000000000               0.000144579               0.003049710              -0.000126201              -0.000326996               0.001125558               0.000798563               0.000000000               0.000000000               0.000000000               0.000000000               0.000088708               0.003065847              -0.000067979              -0.000349965               0.001138594               0.000788629               0.000000000               0.000000000               0.000000000               0.000000000               0.000038830               0.003064989              -0.000030256              -0.000368561               0.001144507               0.000775945               0.000000000               0.000000000               0.000000000               0.000000000               0.000366816               0.000367082              -0.000395852               0.000091669               0.000091803               0.000183472               0.000000000               0.000000000               0.000000000               0.000000000               0.000575377               0.000719140              -0.000578823               0.000125872               0.000197753               0.000323625               0.000000000               0.000000000               0.000000000               0.000000000               0.000648721               0.001184847              -0.000710556               0.000095163               0.000363224               0.000458387               0.000000000               0.000000000               0.000000000               0.000000000               0.000647105               0.001562434              -0.000690220               0.000047359               0.000505019               0.000552379               0.000000000               0.000000000               0.000000000               0.000000000               0.000614941               0.001858935              -0.000628085              -0.000001765               0.000620227               0.000618462               0.000000000               0.000000000               0.000000000               0.000000000               0.000574795               0.002086486              -0.000560475              -0.000045263               0.000710576               0.000665313               0.000000000               0.000000000               0.000000000               0.000000000               0.000530474               0.002271259              -0.000502834              -0.000084980               0.000785405               0.000700425               0.000000000               0.000000000               0.000000000               0.000000000               0.000483355               0.002434122              -0.000454671              -0.000123007               0.000852368               0.000729361               0.000000000               0.000000000               0.000000000               0.000000000               0.000440866               0.002584914              -0.000408513              -0.000157789               0.000914226               0.000756436               0.000000000               0.000000000               0.000000000               0.000000000               0.000408103               0.002714364              -0.000361307              -0.000186257               0.000966864               0.000780608               0.000000000               0.000000000               0.000000000               0.000000000               0.000381800               0.002817872              -0.000312726              -0.000209058               0.001008967               0.000799909               0.000000000               0.000000000               0.000000000               0.000000000               0.000350753               0.002899424              -0.000266003              -0.000230895               0.001043430               0.000812535               0.000000000               0.000000000               0.000000000               0.000000000               0.000316662               0.002960792              -0.000225481              -0.000251350               0.001070704               0.000819354               0.000000000               0.000000000               0.000000000               0.000000000               0.000286025               0.003003775              -0.000186463              -0.000268212               0.001090652               0.000822440               0.000000000               0.000000000               0.000000000               0.000000000               0.000254125               0.003032941              -0.000138567              -0.000283820               0.001105577               0.000821757               0.000000000               0.000000000               0.000000000               0.000000000               0.000214287               0.003058990              -0.000076070              -0.000302015               0.001120325               0.000818309               0.000000000               0.000000000               0.000000000               0.000000000               0.000178981               0.003065058              -0.000037096              -0.000316014               0.001127014               0.000811000               0.000000000               0.000000000               0.000000000               0.000000000               0.000166725               0.000190449              -0.000234753               0.000038715               0.000050577               0.000089292               0.000000000               0.000000000               0.000000000               0.000000000               0.000509364               0.000486401              -0.000392191               0.000130210               0.000118728               0.000248938               0.000000000               0.000000000               0.000000000               0.000000000               0.000697962               0.000889281              -0.000515719               0.000150574               0.000246233               0.000396807               0.000000000               0.000000000               0.000000000               0.000000000               0.000742526               0.001260237              -0.000516403               0.000120916               0.000379769               0.000500685               0.000000000               0.000000000               0.000000000               0.000000000               0.000728421               0.001575353              -0.000479339               0.000076238               0.000499700               0.000575937               0.000000000               0.000000000               0.000000000               0.000000000               0.000693060               0.001835130              -0.000435780               0.000030506               0.000601535               0.000632041               0.000000000               0.000000000               0.000000000               0.000000000               0.000649642               0.002052714              -0.000395780              -0.000012974               0.000688556               0.000675582               0.000000000               0.000000000               0.000000000               0.000000000               0.000596377               0.002241428              -0.000359471              -0.000056537               0.000765981               0.000709444               0.000000000               0.000000000               0.000000000               0.000000000               0.000543252               0.002410092              -0.000327276              -0.000097542               0.000835870               0.000738328               0.000000000               0.000000000               0.000000000               0.000000000               0.000500886               0.002561578              -0.000294962              -0.000132365               0.000897972               0.000765608               0.000000000               0.000000000               0.000000000               0.000000000               0.000465853               0.002696120              -0.000254612              -0.000162320               0.000952804               0.000790484               0.000000000               0.000000000               0.000000000               0.000000000               0.000433162               0.002811368              -0.000214959              -0.000188985               0.001000108               0.000811123               0.000000000               0.000000000               0.000000000               0.000000000               0.000405676               0.002904236              -0.000187040              -0.000210901               0.001038369               0.000827468               0.000000000               0.000000000               0.000000000               0.000000000               0.000381029               0.002972565              -0.000160173              -0.000228684               0.001067073               0.000838389               0.000000000               0.000000000               0.000000000               0.000000000               0.000362057               0.003025537              -0.000120793              -0.000242420               0.001089309               0.000846889               0.000000000               0.000000000               0.000000000               0.000000000               0.000349683               0.003063562              -0.000065958              -0.000251814               0.001105115               0.000853301               0.000000000               0.000000000               0.000000000               0.000000000               0.000342887               0.003075465              -0.000033901              -0.000255850               0.001110428               0.000854578               0.000000000               0.000000000               0.000000000               0.000000000               0.000030257               0.000093297              -0.000105709              -0.000000316               0.000031204               0.000030888               0.000000000               0.000000000               0.000000000               0.000000000               0.000462199               0.000343680              -0.000197214               0.000130363               0.000071104               0.000201468               0.000000000               0.000000000               0.000000000               0.000000000               0.000730807               0.000695505              -0.000271562               0.000187113               0.000169462               0.000356574               0.000000000               0.000000000               0.000000000               0.000000000               0.000809033               0.001052814              -0.000276210               0.000171784               0.000293673               0.000465457               0.000000000               0.000000000               0.000000000               0.000000000               0.000814828               0.001376234              -0.000259861               0.000133530               0.000414230               0.000547760               0.000000000               0.000000000               0.000000000               0.000000000               0.000786694               0.001660287              -0.000240451               0.000087473               0.000524266               0.000611739               0.000000000               0.000000000               0.000000000               0.000000000               0.000740703               0.001898584              -0.000219973               0.000040440               0.000619375               0.000659815               0.000000000               0.000000000               0.000000000               0.000000000               0.000684021               0.002096886              -0.000199041              -0.000005603               0.000700823               0.000695220               0.000000000               0.000000000               0.000000000               0.000000000               0.000625283               0.002275496              -0.000183409              -0.000049956               0.000775143               0.000725187               0.000000000               0.000000000               0.000000000               0.000000000               0.000570170               0.002447846              -0.000167382              -0.000092167               0.000846663               0.000754496               0.000000000               0.000000000               0.000000000               0.000000000               0.000525929               0.002610360              -0.000143468              -0.000129071               0.000913135               0.000784064               0.000000000               0.000000000               0.000000000               0.000000000               0.000496446               0.002750980              -0.000122536              -0.000157705               0.000969553               0.000811848               0.000000000               0.000000000               0.000000000               0.000000000               0.000474880               0.002864606              -0.000108692              -0.000179995               0.001014857               0.000834862               0.000000000               0.000000000               0.000000000               0.000000000               0.000455785               0.002950422              -0.000093624              -0.000197883               0.001049425               0.000851542               0.000000000               0.000000000               0.000000000               0.000000000               0.000446500               0.003015229              -0.000071576              -0.000209466               0.001074888               0.000865422               0.000000000               0.000000000               0.000000000               0.000000000               0.000455459               0.003059208              -0.000040305              -0.000211603               0.001090260               0.000878657               0.000000000               0.000000000               0.000000000               0.000000000               0.000471993               0.003076895              -0.000022573              -0.000207614               0.001094826               0.000887212               0.000000000               0.000000000               0.000000000               0.000000000               0.000000000               0.000000000               0.000000000               0.000000000               0.000000000               0.000000000               0.000000000               0.000000000               0.000000000               0.000000000               0.000000000               0.000000000               0.000000000               0.000000000               0.000000000               0.000000000               0.000000000               0.000000000               0.000000000               0.000000000               0.000000000               0.000000000               0.000000000               0.000000000               0.000000000               0.000000000               0.000000000               0.000000000               0.000000000               0.000000000               0.000000000               0.000000000               0.000000000               0.000000000               0.000000000               0.000000000               0.000000000               0.000000000               0.000000000               0.000000000               0.000000000               0.000000000               0.000000000               0.000000000               0.000000000               0.000000000               0.000000000               0.000000000               0.000000000               0.000000000               0.000000000               0.000000000               0.000000000               0.000000000               0.000000000               0.000000000               0.000000000               0.000000000               0.000000000               0.000000000               0.000000000               0.000000000               0.000000000               0.000000000               0.000000000               0.000000000               0.000000000               0.000000000               0.000000000               0.000000000               0.000000000               0.000000000               0.000000000               0.000000000               0.000000000               0.000000000               0.000000000               0.000000000               0.000000000               0.000000000               0.000000000               0.000000000               0.000000000               0.000000000               0.000000000               0.000000000               0.000000000               0.000000000               0.000000000               0.000000000               0.000000000               0.000000000               0.000000000               0.000000000               0.000000000               0.000000000               0.000000000               0.000000000               0.000000000               0.000000000               0.000000000               0.000000000               0.000000000               0.000000000               0.000000000               0.000000000               0.000000000               0.000000000               0.000000000               0.000000000               0.000000000               0.000000000               0.000000000               0.000000000               0.000000000               0.000000000               0.000000000               0.000000000               0.000000000               0.000000000               0.000000000               0.000000000               0.000000000               0.000000000               0.000000000               0.000000000               0.000000000               0.000000000               0.000000000               0.000000000               0.000000000               0.000000000               0.000000000               0.000000000               0.000000000               0.000000000               0.000000000               0.000000000               0.000000000               0.000000000               0.000000000               0.000000000               0.000000000               0.000000000               0.000000000               0.000000000               0.000000000               0.000000000               0.000000000               0.000000000               0.000000000               0.000000000               0.000000000               0.000000000               0.000000000               0.000000000               0.000000000               0.000000000               0.000000000               0.000000000               0.000000000               0.000000000               0.000000000               0.000000000               0.000000000               0.000000000               0.000000000               0.000000000               0.000000000               0.000000000               0.000000000               0.000000000               0.000000000               0.000000000               0.000000000               0.000000000               0.000000000               0.000000000               0.000000000               0.000000000               0.000000000               0.000000000               0.000000000               0.000000000               0.000000000               0.000000000               0.000000000               0.000000000               0.000000000               0.000000000               0.000000000               0.000000000               0.000000000               0.000000000               0.000000000               0.000000000               0.000000000               0.000000000               0.000000000               0.000000000               0.000000000               0.000000000               0.000000000               0.000000000               0.000000000               0.000000000               0.000000000               0.000000000               0.000000000               0.000000000               0.000000000               0.000000000               0.000000000               0.000000000               0.000000000               0.000000000               0.000000000               0.000000000               0.000000000               0.000000000               0.000000000               0.000000000               0.000000000               0.000000000               0.000000000               0.000000000               0.000000000               0.000000000               0.000000000               0.000000000               0.000000000               0.000000000               0.000000000               0.000000000               0.000000000               0.000000000               0.000000000               0.000000000               0.000000000               0.000000000               0.000000000               0.000000000               0.000000000               0.000000000               0.000000000               0.000000000               0.000000000               0.000000000               0.000000000               0.000000000               0.000000000               0.000000000               0.000000000               0.000000000               0.000000000               0.000000000               0.000000000               0.000000000               0.000000000               0.000000000               0.000000000               0.000000000               0.000000000               0.000000000               0.000000000               0.000000000               0.000000000               0.000000000               0.000000000               0.000000000               0.000000000               0.000000000               0.000000000               0.000000000               0.000000000               0.000000000               0.000000000               0.000000000               0.000000000               0.000000000               0.000000000               0.000000000               0.000000000               0.000000000               0.000000000               0.000000000               0.000000000               0.000000000               0.000000000               0.000000000               0.000000000               0.000000000               0.000000000               0.000000000               0.000000000               0.000000000               0.000000000               0.000000000               0.000000000               0.000000000               0.000000000               0.000000000               0.000000000               0.000000000               0.000000000               0.000000000               0.000000000               0.000000000               0.000000000               0.000000000               0.000000000               0.000000000               0.000000000               0.000000000               0.000000000               0.000000000               0.000000000               0.000000000               0.000000000               0.000000000               0.000000000               0.000000000               0.000000000               0.000000000               0.000000000               0.000000000               0.000000000               0.000000000               0.000000000               0.000000000               0.000000000               0.000000000               0.000000000               0.000000000               0.000000000               0.000000000               0.000000000               0.000000000               0.000000000               0.000000000               0.000582032               0.006313168               0.000484462              -0.000570883               0.002294663               0.001723780               0.000000000               0.000000000               0.000000000               0.000000000               0.000611274               0.005245560               0.000311953              -0.000426466               0.001890658               0.001464192               0.000000000               0.000000000               0.000000000               0.000000000               0.000815609               0.004397172               0.000133558              -0.000243792               0.001546974               0.001303181               0.000000000               0.000000000               0.000000000               0.000000000               0.000831914               0.003928997               0.000051102              -0.000179156               0.001369371               0.001190215               0.000000000               0.000000000               0.000000000               0.000000000               0.000784958               0.003653274               0.000009931              -0.000162300               0.001271846               0.001109546               0.000000000               0.000000000               0.000000000               0.000000000               0.000712962               0.003483045              -0.000011449              -0.000168019               0.001217010               0.001048990               0.000000000               0.000000000               0.000000000               0.000000000               0.000632964               0.003375238              -0.000020977              -0.000184543               0.001186582               0.001002040               0.000000000               0.000000000               0.000000000               0.000000000               0.000558281               0.003307794              -0.000024958              -0.000204118               0.001170626               0.000966508               0.000000000               0.000000000               0.000000000               0.000000000               0.000489034               0.003266585              -0.000026636              -0.000224935               0.001163829               0.000938894               0.000000000               0.000000000               0.000000000               0.000000000               0.000424243               0.003243020              -0.000025804              -0.000246286               0.001163091               0.000916805               0.000000000               0.000000000               0.000000000               0.000000000               0.000366221               0.003229572              -0.000024112              -0.000266363               0.001165301               0.000898938               0.000000000               0.000000000               0.000000000               0.000000000               0.000309369               0.003225247              -0.000024665              -0.000287142               0.001170785               0.000883644               0.000000000               0.000000000               0.000000000               0.000000000               0.000249217               0.003226828              -0.000023981              -0.000309896               0.001178897               0.000869001               0.000000000               0.000000000               0.000000000               0.000000000               0.000186947               0.003230759              -0.000020744              -0.000333739               0.001188155               0.000854416               0.000000000               0.000000000               0.000000000               0.000000000               0.000123350               0.003233487              -0.000015521              -0.000357929               0.001197128               0.000839199               0.000000000               0.000000000               0.000000000               0.000000000               0.000060858               0.003234580              -0.000008996              -0.000381500               0.001205349               0.000823849               0.000000000               0.000000000               0.000000000               0.000000000               0.000032026               0.003238265              -0.000005400              -0.000392772               0.001210335               0.000817563               0.000000000               0.000000000               0.000000000               0.000000000               0.000676986               0.006006551               0.000921758              -0.000496948               0.002167813               0.001670865               0.000000000               0.000000000               0.000000000               0.000000000               0.000641045               0.005032045               0.000594645              -0.000388613               0.001806869               0.001418256               0.000000000               0.000000000               0.000000000               0.000000000               0.000775676               0.004283858               0.000258262              -0.000244603               0.001509473               0.001264870               0.000000000               0.000000000               0.000000000               0.000000000               0.000763419               0.003867138               0.000104007              -0.000197110               0.001354736               0.001157627               0.000000000               0.000000000               0.000000000               0.000000000               0.000707198               0.003621669               0.000028752              -0.000187509               0.001269714               0.001082205               0.000000000               0.000000000               0.000000000               0.000000000               0.000633881               0.003467486              -0.000008861              -0.000195730               0.001221060               0.001025330               0.000000000               0.000000000               0.000000000               0.000000000               0.000557948               0.003370329              -0.000026153              -0.000212060               0.001194118               0.000982058               0.000000000               0.000000000               0.000000000               0.000000000               0.000488053               0.003308691              -0.000033188              -0.000230566               0.001179741               0.000949176               0.000000000               0.000000000               0.000000000               0.000000000               0.000425878               0.003270323              -0.000036821              -0.000249086               0.001173125               0.000924040               0.000000000               0.000000000               0.000000000               0.000000000               0.000369058               0.003248417              -0.000034789              -0.000267654               0.001172013               0.000904358               0.000000000               0.000000000               0.000000000               0.000000000               0.000317019               0.003236445              -0.000030910              -0.000285673               0.001174029               0.000888356               0.000000000               0.000000000               0.000000000               0.000000000               0.000266658               0.003231302              -0.000031274              -0.000303915               0.001178395               0.000874480               0.000000000               0.000000000               0.000000000               0.000000000               0.000214783               0.003232558              -0.000030735              -0.000323525               0.001185350               0.000861825               0.000000000               0.000000000               0.000000000               0.000000000               0.000161842               0.003239297              -0.000025931              -0.000344221               0.001194495               0.000850275               0.000000000               0.000000000               0.000000000               0.000000000               0.000107547               0.003248746              -0.000018049              -0.000365762               0.001204825               0.000839063               0.000000000               0.000000000               0.000000000               0.000000000               0.000053101               0.003261139              -0.000009455              -0.000387729               0.001216278               0.000828550               0.000000000               0.000000000               0.000000000               0.000000000               0.000029585               0.003275279              -0.000003721              -0.000398314               0.001224520               0.000826206               0.000000000               0.000000000               0.000000000               0.000000000               0.000810465               0.005531043               0.001267171              -0.000387456               0.001972814               0.001585358               0.000000000               0.000000000               0.000000000               0.000000000               0.000679578               0.004702197               0.000821483              -0.000332932               0.001678361               0.001345428               0.000000000               0.000000000               0.000000000               0.000000000               0.000711304               0.004104001               0.000367094              -0.000246261               0.001450073               0.001203813               0.000000000               0.000000000               0.000000000               0.000000000               0.000660496               0.003765328               0.000164204              -0.000222979               0.001329423               0.001106444               0.000000000               0.000000000               0.000000000               0.000000000               0.000594688               0.003559770               0.000066658              -0.000221963               0.001260566               0.001038603               0.000000000               0.000000000               0.000000000               0.000000000               0.000523845               0.003430569               0.000017558              -0.000232379               0.001220971               0.000988593               0.000000000               0.000000000               0.000000000               0.000000000               0.000455911               0.003346998              -0.000006929              -0.000247407               0.001198124               0.000950717               0.000000000               0.000000000               0.000000000               0.000000000               0.000396118               0.003292737              -0.000017325              -0.000263047               0.001185251               0.000922203               0.000000000               0.000000000               0.000000000               0.000000000               0.000340315               0.003257622              -0.000022821              -0.000279584               0.001179058               0.000899474               0.000000000               0.000000000               0.000000000               0.000000000               0.000289132               0.003235945              -0.000022304              -0.000296068               0.001177327               0.000881259               0.000000000               0.000000000               0.000000000               0.000000000               0.000244795               0.003226296              -0.000016254              -0.000311488               0.001179250               0.000867762               0.000000000               0.000000000               0.000000000               0.000000000               0.000203864               0.003220777              -0.000014838              -0.000326147               0.001182297               0.000856150               0.000000000               0.000000000               0.000000000               0.000000000               0.000165373               0.003221282              -0.000016251              -0.000340645               0.001187298               0.000846654               0.000000000               0.000000000               0.000000000               0.000000000               0.000126346               0.003228347              -0.000013997              -0.000356163               0.001194826               0.000838663               0.000000000               0.000000000               0.000000000               0.000000000               0.000084853               0.003242654              -0.000008747              -0.000373511               0.001205378               0.000831867               0.000000000               0.000000000               0.000000000               0.000000000               0.000042098               0.003265852              -0.000003582              -0.000392444               0.001219421               0.000826977               0.000000000               0.000000000               0.000000000               0.000000000               0.000025743               0.003289573               0.000001092              -0.000401542               0.001230361               0.000828819               0.000000000               0.000000000               0.000000000               0.000000000               0.000948493               0.004939940               0.001496502              -0.000261808               0.001733899               0.001472091               0.000000000               0.000000000               0.000000000               0.000000000               0.000711642               0.004297421               0.000982739              -0.000270312               0.001522563               0.001252251               0.000000000               0.000000000               0.000000000               0.000000000               0.000632379               0.003884855               0.000460776              -0.000248464               0.001377760               0.001129296               0.000000000               0.000000000               0.000000000               0.000000000               0.000544229               0.003633816               0.000232879              -0.000250140               0.001294640               0.001044500               0.000000000               0.000000000               0.000000000               0.000000000               0.000469576               0.003473509               0.000122020              -0.000258097               0.001243857               0.000985760               0.000000000               0.000000000               0.000000000               0.000000000               0.000408438               0.003372570               0.000063934              -0.000268406               0.001213648               0.000945241               0.000000000               0.000000000               0.000000000               0.000000000               0.000352488               0.003304684               0.000034430              -0.000280902               0.001195184               0.000914282               0.000000000               0.000000000               0.000000000               0.000000000               0.000302621               0.003259521               0.000021259              -0.000293956               0.001184482               0.000890525               0.000000000               0.000000000               0.000000000               0.000000000               0.000257379               0.003229211               0.000015376              -0.000307134               0.001178771               0.000871637               0.000000000               0.000000000               0.000000000               0.000000000               0.000213783               0.003208162               0.000013453              -0.000320851               0.001176327               0.000855476               0.000000000               0.000000000               0.000000000               0.000000000               0.000174898               0.003198493               0.000017537              -0.000334224               0.001177562               0.000843337               0.000000000               0.000000000               0.000000000               0.000000000               0.000143178               0.003195574               0.000019010              -0.000345754               0.001180432               0.000834678               0.000000000               0.000000000               0.000000000               0.000000000               0.000115956               0.003196528               0.000013867              -0.000356082               0.001184193               0.000828111               0.000000000               0.000000000               0.000000000               0.000000000               0.000089140               0.003206104               0.000009757              -0.000367335               0.001191135               0.000823801               0.000000000               0.000000000               0.000000000               0.000000000               0.000061347               0.003226415               0.000006575              -0.000380296               0.001202226               0.000821930               0.000000000               0.000000000               0.000000000               0.000000000               0.000031078               0.003257244               0.000003459              -0.000395500               0.001217571               0.000822070               0.000000000               0.000000000               0.000000000               0.000000000               0.000020738               0.003284210               0.000005420              -0.000402749               0.001228975               0.000826227               0.000000000               0.000000000               0.000000000               0.000000000               0.001062669               0.004288982               0.001608074              -0.000137624               0.001475521               0.001337897               0.000000000               0.000000000               0.000000000               0.000000000               0.000727227               0.003856243               0.001079234              -0.000209321               0.001355175               0.001145854               0.000000000               0.000000000               0.000000000               0.000000000               0.000544928               0.003645601               0.000541801              -0.000251352               0.001298972               0.001047620               0.000000000               0.000000000               0.000000000               0.000000000               0.000437665               0.003486380               0.000308404              -0.000271673               0.001252673               0.000981000               0.000000000               0.000000000               0.000000000               0.000000000               0.000364506               0.003375327               0.000190525              -0.000285226               0.001220173               0.000934947               0.000000000               0.000000000               0.000000000               0.000000000               0.000311493               0.003300190               0.000126378              -0.000295713               0.001198624               0.000902910               0.000000000               0.000000000               0.000000000               0.000000000               0.000266214               0.003246009               0.000092113              -0.000305920               0.001183966               0.000878045               0.000000000               0.000000000               0.000000000               0.000000000               0.000225015               0.003210291               0.000075536              -0.000316905               0.001175721               0.000858816               0.000000000               0.000000000               0.000000000               0.000000000               0.000188257               0.003186513               0.000067455              -0.000327717               0.001171399               0.000843682               0.000000000               0.000000000               0.000000000               0.000000000               0.000155292               0.003171924               0.000059889              -0.000338255               0.001170049               0.000831794               0.000000000               0.000000000               0.000000000               0.000000000               0.000127289               0.003168642               0.000057432              -0.000348346               0.001172319               0.000823973               0.000000000               0.000000000               0.000000000               0.000000000               0.000103871               0.003171449               0.000056477              -0.000357479               0.001176299               0.000818820               0.000000000               0.000000000               0.000000000               0.000000000               0.000084476               0.003178857               0.000046798              -0.000365678               0.001181501               0.000815823               0.000000000               0.000000000               0.000000000               0.000000000               0.000064664               0.003194570               0.000033152              -0.000375071               0.001189870               0.000814798               0.000000000               0.000000000               0.000000000               0.000000000               0.000043030               0.003218703               0.000020534              -0.000386201               0.001201624               0.000815423               0.000000000               0.000000000               0.000000000               0.000000000               0.000021715               0.003244830               0.000009555              -0.000397460               0.001214086               0.000816626               0.000000000               0.000000000               0.000000000               0.000000000               0.000014964               0.003262770               0.000007137              -0.000402234               0.001221657               0.000819424               0.000000000               0.000000000               0.000000000               0.000000000               0.001132696               0.003626976               0.001614069              -0.000028613               0.001218517               0.001189904               0.000000000               0.000000000               0.000000000               0.000000000               0.000726503               0.003411894               0.001120418              -0.000154049               0.001188636               0.001034587               0.000000000               0.000000000               0.000000000               0.000000000               0.000463086               0.003401911               0.000611737              -0.000251581               0.001217820               0.000966238               0.000000000               0.000000000               0.000000000               0.000000000               0.000352211               0.003333415               0.000385224              -0.000284597               0.001205993               0.000921396               0.000000000               0.000000000               0.000000000               0.000000000               0.000288816               0.003266697               0.000265350              -0.000300030               0.001188898               0.000888868               0.000000000               0.000000000               0.000000000               0.000000000               0.000244583               0.003214164               0.000197179              -0.000310051               0.001174728               0.000864677               0.000000000               0.000000000               0.000000000               0.000000000               0.000209011               0.003176080               0.000156254              -0.000318630               0.001164893               0.000846263               0.000000000               0.000000000               0.000000000               0.000000000               0.000178302               0.003155762               0.000132323              -0.000327606               0.001161112               0.000833506               0.000000000               0.000000000               0.000000000               0.000000000               0.000152018               0.003144863               0.000118202              -0.000336100               0.001160311               0.000824210               0.000000000               0.000000000               0.000000000               0.000000000               0.000128041               0.003140811               0.000103719              -0.000344585               0.001161788               0.000817203               0.000000000               0.000000000               0.000000000               0.000000000               0.000106955               0.003143280               0.000093213              -0.000352801               0.001165350               0.000812549               0.000000000               0.000000000               0.000000000               0.000000000               0.000088570               0.003153416               0.000087296              -0.000360962               0.001171449               0.000810487               0.000000000               0.000000000               0.000000000               0.000000000               0.000069744               0.003169330               0.000072648              -0.000370011               0.001179770               0.000809759               0.000000000               0.000000000               0.000000000               0.000000000               0.000049834               0.003188643               0.000050803              -0.000379892               0.001189501               0.000809609               0.000000000               0.000000000               0.000000000               0.000000000               0.000028861               0.003205320               0.000030001              -0.000389841               0.001198376               0.000808535               0.000000000               0.000000000               0.000000000               0.000000000               0.000012587               0.003212015               0.000012991              -0.000396781               0.001202921               0.000806140               0.000000000               0.000000000               0.000000000               0.000000000               0.000004254               0.003208672               0.000004389              -0.000399488               0.001202709               0.000803222               0.000000000               0.000000000               0.000000000               0.000000000               0.001150751               0.002992792               0.001532445               0.000057430               0.000978443               0.001035874               0.000000000               0.000000000               0.000000000               0.000000000               0.000710987               0.002997999               0.001118486              -0.000108131               0.001035366               0.000927235               0.000000000               0.000000000               0.000000000               0.000000000               0.000400635               0.003170190               0.000673097              -0.000246035               0.001138731               0.000892696               0.000000000               0.000000000               0.000000000               0.000000000               0.000295265               0.003175390               0.000458114              -0.000286199               0.001153852               0.000867653               0.000000000               0.000000000               0.000000000               0.000000000               0.000242168               0.003149098               0.000336909              -0.000302824               0.001150630               0.000847807               0.000000000               0.000000000               0.000000000               0.000000000               0.000205648               0.003123653               0.000261903              -0.000313338               0.001145653               0.000832315               0.000000000               0.000000000               0.000000000               0.000000000               0.000179970               0.003110643               0.000212969              -0.000321341               0.001143984               0.000822643               0.000000000               0.000000000               0.000000000               0.000000000               0.000159412               0.003106961               0.000180037              -0.000328590               0.001145173               0.000816583               0.000000000               0.000000000               0.000000000               0.000000000               0.000141982               0.003108702               0.000159724              -0.000335344               0.001148005               0.000812661               0.000000000               0.000000000               0.000000000               0.000000000               0.000124939               0.003116594               0.000140548              -0.000342721               0.001153095               0.000810374               0.000000000               0.000000000               0.000000000               0.000000000               0.000107468               0.003127568               0.000120771              -0.000350645               0.001159394               0.000808749               0.000000000               0.000000000               0.000000000               0.000000000               0.000088079               0.003144989               0.000104008              -0.000360093               0.001168350               0.000808257               0.000000000               0.000000000               0.000000000               0.000000000               0.000062788               0.003164985               0.000081252              -0.000372077               0.001179010               0.000806933               0.000000000               0.000000000               0.000000000               0.000000000               0.000035912               0.003178470               0.000051991              -0.000383841               0.001187427               0.000803586               0.000000000               0.000000000               0.000000000               0.000000000               0.000014280               0.003178652               0.000025224              -0.000391975               0.001190198               0.000798223               0.000000000               0.000000000               0.000000000               0.000000000               0.000002274               0.003164527               0.000007168              -0.000394712               0.001186403               0.000791690               0.000000000               0.000000000               0.000000000               0.000000000              -0.000005780               0.003147689              -0.000001616              -0.000395627               0.001181095               0.000785467               0.000000000               0.000000000               0.000000000               0.000000000               0.001140402               0.002437859               0.001391548               0.000122916               0.000771639               0.000894555               0.000000000               0.000000000               0.000000000               0.000000000               0.000705015               0.002633681               0.001094453              -0.000064831               0.000899495               0.000834664               0.000000000               0.000000000               0.000000000               0.000000000               0.000374169               0.002960028               0.000743652              -0.000229690               0.001063230               0.000833539               0.000000000               0.000000000               0.000000000               0.000000000               0.000276209               0.003036393               0.000538831              -0.000275970               0.001104111               0.000828141               0.000000000               0.000000000               0.000000000               0.000000000               0.000231750               0.003056607               0.000411937              -0.000295169               0.001117249               0.000822079               0.000000000               0.000000000               0.000000000               0.000000000               0.000199154               0.003061818               0.000327733              -0.000308044               0.001123277               0.000815233               0.000000000               0.000000000               0.000000000               0.000000000               0.000175882               0.003069240               0.000269480              -0.000317699               0.001128969               0.000811271               0.000000000               0.000000000               0.000000000               0.000000000               0.000159186               0.003076632               0.000227897              -0.000324884               0.001133828               0.000808945               0.000000000               0.000000000               0.000000000               0.000000000               0.000148973               0.003089329               0.000198988              -0.000330300               0.001139866               0.000809566               0.000000000               0.000000000               0.000000000               0.000000000               0.000141111               0.003110276               0.000171444              -0.000335867               0.001148704               0.000812837               0.000000000               0.000000000               0.000000000               0.000000000               0.000127623               0.003132097               0.000141932              -0.000343653               0.001158573               0.000814920               0.000000000               0.000000000               0.000000000               0.000000000               0.000103222               0.003153028               0.000113217              -0.000355419               0.001169472               0.000814053               0.000000000               0.000000000               0.000000000               0.000000000               0.000070728               0.003170759               0.000083488              -0.000369821               0.001180183               0.000810362               0.000000000               0.000000000               0.000000000               0.000000000               0.000038200               0.003175622               0.000051441              -0.000382627               0.001186073               0.000803446               0.000000000               0.000000000               0.000000000               0.000000000               0.000010629               0.003161116               0.000022650              -0.000391153               0.001184079               0.000792926               0.000000000               0.000000000               0.000000000               0.000000000              -0.000009576               0.003131391               0.000002999              -0.000395014               0.001175458               0.000780444               0.000000000               0.000000000               0.000000000               0.000000000              -0.000018039               0.003112800              -0.000004645              -0.000395864               0.001169544               0.000773681               0.000000000               0.000000000               0.000000000               0.000000000               0.001090580               0.001906795               0.001220754               0.000170615               0.000578720               0.000749335               0.000000000               0.000000000               0.000000000               0.000000000               0.000712970               0.002212257               0.001060450              -0.000009170               0.000740468               0.000731298               0.000000000               0.000000000               0.000000000               0.000000000               0.000393138               0.002649276               0.000829507              -0.000183733               0.000944327               0.000760594               0.000000000               0.000000000               0.000000000               0.000000000               0.000296281               0.002818810               0.000641160              -0.000241246               0.001020009               0.000778763               0.000000000               0.000000000               0.000000000               0.000000000               0.000256023               0.002901036               0.000507979              -0.000266621               0.001055876               0.000789255               0.000000000               0.000000000               0.000000000               0.000000000               0.000224310               0.002945357               0.000412566              -0.000284053               0.001076460               0.000792407               0.000000000               0.000000000               0.000000000               0.000000000               0.000198916               0.002977748               0.000344442              -0.000297624               0.001091781               0.000794157               0.000000000               0.000000000               0.000000000               0.000000000               0.000184670               0.003007797               0.000295633              -0.000306723               0.001104830               0.000798107               0.000000000               0.000000000               0.000000000               0.000000000               0.000176907               0.003039642               0.000256019              -0.000313614               0.001117742               0.000804127               0.000000000               0.000000000               0.000000000               0.000000000               0.000166696               0.003070212               0.000216807              -0.000321265               0.001130482               0.000809217               0.000000000               0.000000000               0.000000000               0.000000000               0.000150606               0.003096045               0.000176662              -0.000330528               0.001142180               0.000811653               0.000000000               0.000000000               0.000000000               0.000000000               0.000124871               0.003115089               0.000136991              -0.000342559               0.001152539               0.000809980               0.000000000               0.000000000               0.000000000               0.000000000               0.000088700               0.003125763               0.000100526              -0.000357457               0.001161063               0.000803606               0.000000000               0.000000000               0.000000000               0.000000000               0.000048871               0.003131521               0.000066228              -0.000373113               0.001168201               0.000795088               0.000000000               0.000000000               0.000000000               0.000000000               0.000009432               0.003124376               0.000034153              -0.000387009               0.001170451               0.000783442               0.000000000               0.000000000               0.000000000               0.000000000              -0.000024405               0.003106366               0.000010808              -0.000397447               0.001167927               0.000770481               0.000000000               0.000000000               0.000000000               0.000000000              -0.000042412               0.003093540               0.000000248              -0.000402596               0.001165368               0.000762772               0.000000000               0.000000000               0.000000000               0.000000000               0.000978202               0.001413117               0.001023640               0.000190184               0.000407639               0.000597823               0.000000000               0.000000000               0.000000000               0.000000000               0.000715964               0.001791555               0.000998046               0.000044541               0.000582332               0.000626872               0.000000000               0.000000000               0.000000000               0.000000000               0.000446163               0.002303805               0.000894434              -0.000120665               0.000808149               0.000687483               0.000000000               0.000000000               0.000000000               0.000000000               0.000350723               0.002561516               0.000740276              -0.000188668               0.000916719               0.000728051               0.000000000               0.000000000               0.000000000               0.000000000               0.000307968               0.002709943               0.000608507              -0.000223255               0.000977724               0.000754469               0.000000000               0.000000000               0.000000000               0.000000000               0.000273783               0.002799210               0.000506314              -0.000247232               0.001015471               0.000768239               0.000000000               0.000000000               0.000000000               0.000000000               0.000244620               0.002864971               0.000432441              -0.000266388               0.001043777               0.000777388               0.000000000               0.000000000               0.000000000               0.000000000               0.000223929               0.002923569               0.000377076              -0.000281472               0.001068337               0.000786865               0.000000000               0.000000000               0.000000000               0.000000000               0.000211495               0.002978321               0.000326475              -0.000292979               0.001090423               0.000797444               0.000000000               0.000000000               0.000000000               0.000000000               0.000198530               0.003024890               0.000276057              -0.000303662               0.001109507               0.000805845               0.000000000               0.000000000               0.000000000               0.000000000               0.000180094               0.003058040               0.000227921              -0.000314719               0.001124243               0.000809524               0.000000000               0.000000000               0.000000000               0.000000000               0.000154690               0.003077934               0.000182035              -0.000326732               0.001134878               0.000808146               0.000000000               0.000000000               0.000000000               0.000000000               0.000122331               0.003090499               0.000139820              -0.000340437               0.001143635               0.000803198               0.000000000               0.000000000               0.000000000               0.000000000               0.000082227               0.003097986               0.000098956              -0.000356412               0.001151456               0.000795044               0.000000000               0.000000000               0.000000000               0.000000000               0.000033669               0.003097407               0.000059615              -0.000374549               0.001157308               0.000782759               0.000000000               0.000000000               0.000000000               0.000000000              -0.000018429               0.003092893               0.000025911              -0.000393521               0.001162128               0.000768606               0.000000000               0.000000000               0.000000000               0.000000000              -0.000056220               0.003081472               0.000005564              -0.000406265               0.001162569               0.000756303               0.000000000               0.000000000               0.000000000               0.000000000               0.000807277               0.000979430               0.000806765               0.000180298               0.000266373               0.000446671               0.000000000               0.000000000               0.000000000               0.000000000               0.000692694               0.001390036               0.000892137               0.000086004               0.000434672               0.000520676               0.000000000               0.000000000               0.000000000               0.000000000               0.000513687               0.001926375               0.000901360              -0.000048165               0.000658173               0.000610008               0.000000000               0.000000000               0.000000000               0.000000000               0.000433871               0.002250639               0.000794608              -0.000118629               0.000789748               0.000671119               0.000000000               0.000000000               0.000000000               0.000000000               0.000388934               0.002462245               0.000678373              -0.000161931               0.000874717               0.000712786               0.000000000               0.000000000               0.000000000               0.000000000               0.000351514               0.002602575               0.000580097              -0.000193504               0.000932018               0.000738514               0.000000000               0.000000000               0.000000000               0.000000000               0.000314366               0.002709416               0.000504004              -0.000220789               0.000976726               0.000755937               0.000000000               0.000000000               0.000000000               0.000000000               0.000282326               0.002800878               0.000444458              -0.000244237               0.001015029               0.000770792               0.000000000               0.000000000               0.000000000               0.000000000               0.000259675               0.002883561               0.000389672              -0.000263066               0.001048866               0.000785800               0.000000000               0.000000000               0.000000000               0.000000000               0.000243794               0.002956698               0.000334429              -0.000278164               0.001078277               0.000800114               0.000000000               0.000000000               0.000000000               0.000000000               0.000222440               0.003009987               0.000281184              -0.000292833               0.001100930               0.000808097               0.000000000               0.000000000               0.000000000               0.000000000               0.000195098               0.003042013               0.000232459              -0.000307089               0.001116357               0.000809268               0.000000000               0.000000000               0.000000000               0.000000000               0.000161861               0.003057254               0.000187645              -0.000321458               0.001126227               0.000804769               0.000000000               0.000000000               0.000000000               0.000000000               0.000120667               0.003065148               0.000141014              -0.000337893               0.001134337               0.000796444               0.000000000               0.000000000               0.000000000               0.000000000               0.000071370               0.003072376               0.000092654              -0.000357282               0.001143209               0.000785927               0.000000000               0.000000000               0.000000000               0.000000000               0.000012348               0.003080328               0.000045691              -0.000380409               0.001153569               0.000773159               0.000000000               0.000000000               0.000000000               0.000000000              -0.000036574               0.003073264               0.000016245              -0.000397872               0.001157035               0.000759163               0.000000000               0.000000000               0.000000000               0.000000000               0.000593077               0.000628233               0.000590705               0.000143873               0.000161451               0.000305324               0.000000000               0.000000000               0.000000000               0.000000000               0.000642714               0.001026067               0.000749395               0.000112758               0.000304433               0.000417190               0.000000000               0.000000000               0.000000000               0.000000000               0.000585184               0.001543253               0.000841445               0.000026536               0.000505567               0.000532103               0.000000000               0.000000000               0.000000000               0.000000000               0.000537847               0.001907489               0.000783190              -0.000036744               0.000648071               0.000611327               0.000000000               0.000000000               0.000000000               0.000000000               0.000496428               0.002171169               0.000692792              -0.000085236               0.000752128               0.000666891               0.000000000               0.000000000               0.000000000               0.000000000               0.000455938               0.002359668               0.000605815              -0.000123982               0.000827875               0.000703893               0.000000000               0.000000000               0.000000000               0.000000000               0.000411242               0.002505053               0.000535069              -0.000158916               0.000887981               0.000729065               0.000000000               0.000000000               0.000000000               0.000000000               0.000371570               0.002632827               0.000478411              -0.000189764               0.000940855               0.000751091               0.000000000               0.000000000               0.000000000               0.000000000               0.000339272               0.002751741               0.000425381              -0.000216740               0.000989484               0.000772744               0.000000000               0.000000000               0.000000000               0.000000000               0.000315077               0.002855002               0.000370480              -0.000238721               0.001031232               0.000792510               0.000000000               0.000000000               0.000000000               0.000000000               0.000290933               0.002932109               0.000316534              -0.000257413               0.001063164               0.000805751               0.000000000               0.000000000               0.000000000               0.000000000               0.000262543               0.002983870               0.000268811              -0.000274529               0.001086123               0.000811594               0.000000000               0.000000000               0.000000000               0.000000000               0.000228239               0.003015692               0.000223600              -0.000291371               0.001102344               0.000810973               0.000000000               0.000000000               0.000000000               0.000000000               0.000189490               0.003036073               0.000176713              -0.000308450               0.001114831               0.000806381               0.000000000               0.000000000               0.000000000               0.000000000               0.000144579               0.003049710               0.000126201              -0.000326996               0.001125558               0.000798563               0.000000000               0.000000000               0.000000000               0.000000000               0.000088708               0.003065847               0.000067979              -0.000349965               0.001138594               0.000788629               0.000000000               0.000000000               0.000000000               0.000000000               0.000038830               0.003064989               0.000030256              -0.000368561               0.001144507               0.000775945               0.000000000               0.000000000               0.000000000               0.000000000               0.000366816               0.000367082               0.000395852               0.000091669               0.000091803               0.000183472               0.000000000               0.000000000               0.000000000               0.000000000               0.000575377               0.000719140               0.000578823               0.000125872               0.000197753               0.000323625               0.000000000               0.000000000               0.000000000               0.000000000               0.000648721               0.001184847               0.000710556               0.000095163               0.000363224               0.000458387               0.000000000               0.000000000               0.000000000               0.000000000               0.000647105               0.001562434               0.000690220               0.000047359               0.000505019               0.000552379               0.000000000               0.000000000               0.000000000               0.000000000               0.000614941               0.001858935               0.000628085              -0.000001765               0.000620227               0.000618462               0.000000000               0.000000000               0.000000000               0.000000000               0.000574795               0.002086486               0.000560475              -0.000045263               0.000710576               0.000665313               0.000000000               0.000000000               0.000000000               0.000000000               0.000530474               0.002271259               0.000502834              -0.000084980               0.000785405               0.000700425               0.000000000               0.000000000               0.000000000               0.000000000               0.000483355               0.002434122               0.000454671              -0.000123007               0.000852368               0.000729361               0.000000000               0.000000000               0.000000000               0.000000000               0.000440866               0.002584914               0.000408513              -0.000157789               0.000914226               0.000756436               0.000000000               0.000000000               0.000000000               0.000000000               0.000408103               0.002714364               0.000361307              -0.000186257               0.000966864               0.000780608               0.000000000               0.000000000               0.000000000               0.000000000               0.000381800               0.002817872               0.000312726              -0.000209058               0.001008967               0.000799909               0.000000000               0.000000000               0.000000000               0.000000000               0.000350753               0.002899424               0.000266003              -0.000230895               0.001043430               0.000812535               0.000000000               0.000000000               0.000000000               0.000000000               0.000316662               0.002960792               0.000225481              -0.000251350               0.001070704               0.000819354               0.000000000               0.000000000               0.000000000               0.000000000               0.000286025               0.003003775               0.000186463              -0.000268212               0.001090652               0.000822440               0.000000000               0.000000000               0.000000000               0.000000000               0.000254125               0.003032941               0.000138567              -0.000283820               0.001105577               0.000821757               0.000000000               0.000000000               0.000000000               0.000000000               0.000214287               0.003058990               0.000076070              -0.000302015               0.001120325               0.000818309               0.000000000               0.000000000               0.000000000               0.000000000               0.000178981               0.003065058               0.000037096              -0.000316014               0.001127014               0.000811000               0.000000000               0.000000000               0.000000000               0.000000000               0.000166725               0.000190449               0.000234753               0.000038715               0.000050577               0.000089292               0.000000000               0.000000000               0.000000000               0.000000000               0.000509364               0.000486401               0.000392191               0.000130210               0.000118728               0.000248938               0.000000000               0.000000000               0.000000000               0.000000000               0.000697962               0.000889281               0.000515719               0.000150574               0.000246233               0.000396807               0.000000000               0.000000000               0.000000000               0.000000000               0.000742526               0.001260237               0.000516403               0.000120916               0.000379769               0.000500685               0.000000000               0.000000000               0.000000000               0.000000000               0.000728421               0.001575353               0.000479339               0.000076238               0.000499700               0.000575937               0.000000000               0.000000000               0.000000000               0.000000000               0.000693060               0.001835130               0.000435780               0.000030506               0.000601535               0.000632041               0.000000000               0.000000000               0.000000000               0.000000000               0.000649642               0.002052714               0.000395780              -0.000012974               0.000688556               0.000675582               0.000000000               0.000000000               0.000000000               0.000000000               0.000596377               0.002241428               0.000359471              -0.000056537               0.000765981               0.000709444               0.000000000               0.000000000               0.000000000               0.000000000               0.000543252               0.002410092               0.000327276              -0.000097542               0.000835870               0.000738328               0.000000000               0.000000000               0.000000000               0.000000000               0.000500886               0.002561578               0.000294962              -0.000132365               0.000897972               0.000765608               0.000000000               0.000000000               0.000000000               0.000000000               0.000465853               0.002696120               0.000254612              -0.000162320               0.000952804               0.000790484               0.000000000               0.000000000               0.000000000               0.000000000               0.000433162               0.002811368               0.000214959              -0.000188985               0.001000108               0.000811123               0.000000000               0.000000000               0.000000000               0.000000000               0.000405676               0.002904236               0.000187040              -0.000210901               0.001038369               0.000827468               0.000000000               0.000000000               0.000000000               0.000000000               0.000381029               0.002972565               0.000160173              -0.000228684               0.001067073               0.000838389               0.000000000               0.000000000               0.000000000               0.000000000               0.000362057               0.003025537               0.000120793              -0.000242420               0.001089309               0.000846889               0.000000000               0.000000000               0.000000000               0.000000000               0.000349683               0.003063562               0.000065958              -0.000251814               0.001105115               0.000853301               0.000000000               0.000000000               0.000000000               0.000000000               0.000342887               0.003075465               0.000033901              -0.000255850               0.001110428               0.000854578               0.000000000               0.000000000               0.000000000               0.000000000               0.000030257               0.000093297               0.000105709              -0.000000316               0.000031204               0.000030888               0.000000000               0.000000000               0.000000000               0.000000000               0.000462199               0.000343680               0.000197214               0.000130363               0.000071104               0.000201468               0.000000000               0.000000000               0.000000000               0.000000000               0.000730807               0.000695505               0.000271562               0.000187113               0.000169462               0.000356574               0.000000000               0.000000000               0.000000000               0.000000000               0.000809033               0.001052814               0.000276210               0.000171784               0.000293673               0.000465457               0.000000000               0.000000000               0.000000000               0.000000000               0.000814828               0.001376234               0.000259861               0.000133530               0.000414230               0.000547760               0.000000000               0.000000000               0.000000000               0.000000000               0.000786694               0.001660287               0.000240451               0.000087473               0.000524266               0.000611739               0.000000000               0.000000000               0.000000000               0.000000000               0.000740703               0.001898584               0.000219973               0.000040440               0.000619375               0.000659815               0.000000000               0.000000000               0.000000000               0.000000000               0.000684021               0.002096886               0.000199041              -0.000005603               0.000700823               0.000695220               0.000000000               0.000000000               0.000000000               0.000000000               0.000625283               0.002275496               0.000183409              -0.000049956               0.000775143               0.000725187               0.000000000               0.000000000               0.000000000               0.000000000               0.000570170               0.002447846               0.000167382              -0.000092167               0.000846663               0.000754496               0.000000000               0.000000000               0.000000000               0.000000000               0.000525929               0.002610360               0.000143468              -0.000129071               0.000913135               0.000784064               0.000000000               0.000000000               0.000000000               0.000000000               0.000496446               0.002750980               0.000122536              -0.000157705               0.000969553               0.000811848               0.000000000               0.000000000               0.000000000               0.000000000               0.000474880               0.002864606               0.000108692              -0.000179995               0.001014857               0.000834862               0.000000000               0.000000000               0.000000000               0.000000000               0.000455785               0.002950422               0.000093624              -0.000197883               0.001049425               0.000851542               0.000000000               0.000000000               0.000000000               0.000000000               0.000446500               0.003015229               0.000071576              -0.000209466               0.001074888               0.000865422               0.000000000               0.000000000               0.000000000               0.000000000               0.000455459               0.003059208               0.000040305              -0.000211603               0.001090260               0.000878657               0.000000000               0.000000000               0.000000000               0.000000000               0.000471993               0.003076895               0.000022573              -0.000207614               0.001094826               0.000887212               0.000000000               0.000000000               0.000000000               0.000000000               0.000000000               0.000000000               0.000000000               0.000000000               0.000000000               0.000000000               0.000000000               0.000000000               0.000000000               0.000000000               0.000000000               0.000000000               0.000000000               0.000000000               0.000000000               0.000000000               0.000000000               0.000000000               0.000000000               0.000000000               0.000000000               0.000000000               0.000000000               0.000000000               0.000000000               0.000000000               0.000000000               0.000000000               0.000000000               0.000000000               0.000000000               0.000000000               0.000000000               0.000000000               0.000000000               0.000000000               0.000000000               0.000000000               0.000000000               0.000000000               0.000000000               0.000000000               0.000000000               0.000000000               0.000000000               0.000000000               0.000000000               0.000000000               0.000000000               0.000000000               0.000000000               0.000000000               0.000000000               0.000000000               0.000000000               0.000000000               0.000000000               0.000000000               0.000000000               0.000000000               0.000000000               0.000000000               0.000000000               0.000000000               0.000000000               0.000000000               0.000000000               0.000000000               0.000000000               0.000000000               0.000000000               0.000000000               0.000000000               0.000000000               0.000000000               0.000000000               0.000000000               0.000000000               0.000000000               0.000000000               0.000000000               0.000000000               0.000000000               0.000000000               0.000000000               0.000000000               0.000000000               0.000000000               0.000000000               0.000000000               0.000000000               0.000000000               0.000000000               0.000000000               0.000000000               0.000000000               0.000000000               0.000000000               0.000000000               0.000000000               0.000000000               0.000000000               0.000000000               0.000000000               0.000000000               0.000000000               0.000000000               0.000000000               0.000000000               0.000000000               0.000000000               0.000000000               0.000000000               0.000000000               0.000000000               0.000000000               0.000000000               0.000000000               0.000000000               0.000000000               0.000000000               0.000000000               0.000000000               0.000000000               0.000000000               0.000000000               0.000000000               0.000000000               0.000000000               0.000000000               0.000000000               0.000000000               0.000000000               0.000000000               0.000000000               0.000000000               0.000000000               0.000000000               0.000000000               0.000000000               0.000000000               0.000000000               0.000000000               0.000000000               0.000000000               0.000000000               0.000000000               0.000000000               0.000000000               0.000000000               0.000000000               0.000000000               0.000000000               0.000000000               0.000000000               0.000000000               0.000000000               0.000000000               0.000000000               0.000000000               0.000000000               0.000000000               0.000000000               0.000000000               0.000000000               0.000000000               0.000000000               0.000000000               0.000000000               0.000000000 </DataArray>
</PointData>
</Piece>
</UnstructuredGrid> </VTKFile>
