<?xml version="1.0"?>
<VTKFile type="UnstructuredGrid" version="0.1">
<UnstructuredGrid>
<Piece NumberOfPoints="      1156" NumberOfCells="      1024">
<Points>
<DataArray type="Float64"                                    Name="coordinates"                                                      NumberOfComponents=" 3" format="ascii">
              0.133000000               0.000000000               0.000000000               0.155937500               0.000000000               0.000000000               0.178875000               0.000000000               0.000000000               0.201812500               0.000000000               0.000000000               0.224750000               0.000000000               0.000000000               0.247687500               0.000000000               0.000000000               0.270625000               0.000000000               0.000000000               0.293562500               0.000000000               0.000000000               0.316500000               0.000000000               0.000000000               0.339437500               0.000000000               0.000000000               0.362375000               0.000000000               0.000000000               0.385312500               0.000000000               0.000000000               0.408250000               0.000000000               0.000000000               0.431187500               0.000000000               0.000000000               0.454125000               0.000000000               0.000000000               0.477062500               0.000000000               0.000000000               0.500000000               0.000000000               0.000000000               0.132359569               0.013036280               0.000000000               0.155337096               0.016127762               0.000000000               0.178314623               0.019219245               0.000000000               0.201292150               0.022310727               0.000000000               0.224269676               0.025402210               0.000000000               0.247247203               0.028493692               0.000000000               0.270224730               0.031585175               0.000000000               0.293202257               0.034676657               0.000000000               0.316179784               0.037768140               0.000000000               0.339157311               0.040859622               0.000000000               0.362134838               0.043951105               0.000000000               0.385112365               0.047042587               0.000000000               0.408089892               0.050134070               0.000000000               0.431067419               0.053225552               0.000000000               0.454044946               0.056317035               0.000000000               0.477022473               0.059408517               0.000000000               0.500000000               0.062500000               0.000000000               0.130444442               0.025947013               0.000000000               0.153541665               0.032137825               0.000000000               0.176638887               0.038328636               0.000000000               0.199736109               0.044519448               0.000000000               0.222833332               0.050710260               0.000000000               0.245930554               0.056901071               0.000000000               0.269027776               0.063091883               0.000000000               0.292124999               0.069282695               0.000000000               0.315222221               0.075473506               0.000000000               0.338319444               0.081664318               0.000000000               0.361416666               0.087855130               0.000000000               0.384513888               0.094045942               0.000000000               0.407611111               0.100236753               0.000000000               0.430708333               0.106427565               0.000000000               0.453805555               0.112618377               0.000000000               0.476902778               0.118809188               0.000000000               0.500000000               0.125000000               0.000000000               0.127273065               0.038607862               0.000000000               0.150568498               0.047913621               0.000000000               0.173863932               0.057219379               0.000000000               0.197159365               0.066525138               0.000000000               0.220454798               0.075830897               0.000000000               0.243750232               0.085136655               0.000000000               0.267045665               0.094442414               0.000000000               0.290341099               0.103748172               0.000000000               0.313636532               0.113053931               0.000000000               0.336931966               0.122359690               0.000000000               0.360227399               0.131665448               0.000000000               0.383522833               0.140971207               0.000000000               0.406818266               0.150276966               0.000000000               0.430113700               0.159582724               0.000000000               0.453409133               0.168888483               0.000000000               0.476704567               0.178194241               0.000000000               0.500000000               0.187500000               0.000000000               0.122875978               0.050896897               0.000000000               0.146446229               0.063340840               0.000000000               0.170016481               0.075784784               0.000000000               0.193586732               0.088228728               0.000000000               0.217156983               0.100672672               0.000000000               0.240727235               0.113116616               0.000000000               0.264297486               0.125560560               0.000000000               0.287867738               0.138004504               0.000000000               0.311437989               0.150448448               0.000000000               0.335008240               0.162892392               0.000000000               0.358578492               0.175336336               0.000000000               0.382148743               0.187780280               0.000000000               0.405718994               0.200224224               0.000000000               0.429289246               0.212668168               0.000000000               0.452859497               0.225112112               0.000000000               0.476429749               0.237556056               0.000000000               0.500000000               0.250000000               0.000000000               0.117295528               0.062695766               0.000000000               0.141214558               0.078308531               0.000000000               0.165133587               0.093921295               0.000000000               0.189052617               0.109534060               0.000000000               0.212971646               0.125146824               0.000000000               0.236890676               0.140759589               0.000000000               0.260809705               0.156372354               0.000000000               0.284728735               0.171985118               0.000000000               0.308647764               0.187597883               0.000000000               0.332566794               0.203210648               0.000000000               0.356485823               0.218823412               0.000000000               0.380404853               0.234436177               0.000000000               0.404323882               0.250048941               0.000000000               0.428242912               0.265661706               0.000000000               0.452161941               0.281274471               0.000000000               0.476080971               0.296887235               0.000000000               0.500000000               0.312500000               0.000000000               0.110585458               0.073890841               0.000000000               0.134923867               0.092710163               0.000000000               0.159262276               0.111529486               0.000000000               0.183600685               0.130348808               0.000000000               0.207939094               0.149168131               0.000000000               0.232277503               0.167987453               0.000000000               0.256615912               0.186806776               0.000000000               0.280954320               0.205626098               0.000000000               0.305292729               0.224445420               0.000000000               0.329631138               0.243264743               0.000000000               0.353969547               0.262084065               0.000000000               0.378307956               0.280903388               0.000000000               0.402646365               0.299722710               0.000000000               0.426984773               0.318542033               0.000000000               0.451323182               0.337361355               0.000000000               0.475661591               0.356180678               0.000000000               0.500000000               0.375000000               0.000000000               0.102810390               0.084374307               0.000000000               0.127634741               0.106444663               0.000000000               0.152459092               0.128515018               0.000000000               0.177283442               0.150585374               0.000000000               0.202107793               0.172655730               0.000000000               0.226932143               0.194726086               0.000000000               0.251756494               0.216796442               0.000000000               0.276580845               0.238866798               0.000000000               0.301405195               0.260937153               0.000000000               0.326229546               0.283007509               0.000000000               0.351053896               0.305077865               0.000000000               0.375878247               0.327148221               0.000000000               0.400702598               0.349218577               0.000000000               0.425526948               0.371288933               0.000000000               0.450351299               0.393359288               0.000000000               0.475175649               0.415429644               0.000000000               0.500000000               0.437500000               0.000000000               0.094045202               0.094045202               0.000000000               0.119417377               0.119417377               0.000000000               0.144789552               0.144789552               0.000000000               0.170161727               0.170161727               0.000000000               0.195533901               0.195533901               0.000000000               0.220906076               0.220906076               0.000000000               0.246278251               0.246278251               0.000000000               0.271650426               0.271650426               0.000000000               0.297022601               0.297022601               0.000000000               0.322394776               0.322394776               0.000000000               0.347766951               0.347766951               0.000000000               0.373139126               0.373139126               0.000000000               0.398511300               0.398511300               0.000000000               0.423883475               0.423883475               0.000000000               0.449255650               0.449255650               0.000000000               0.474627825               0.474627825               0.000000000               0.500000000               0.500000000               0.000000000               0.084374307               0.102810390               0.000000000               0.106444663               0.127634741               0.000000000               0.128515018               0.152459092               0.000000000               0.150585374               0.177283442               0.000000000               0.172655730               0.202107793               0.000000000               0.194726086               0.226932143               0.000000000               0.216796442               0.251756494               0.000000000               0.238866798               0.276580845               0.000000000               0.260937153               0.301405195               0.000000000               0.283007509               0.326229546               0.000000000               0.305077865               0.351053896               0.000000000               0.327148221               0.375878247               0.000000000               0.349218577               0.400702598               0.000000000               0.371288933               0.425526948               0.000000000               0.393359288               0.450351299               0.000000000               0.415429644               0.475175649               0.000000000               0.437500000               0.500000000               0.000000000               0.073890841               0.110585458               0.000000000               0.092710163               0.134923867               0.000000000               0.111529486               0.159262276               0.000000000               0.130348808               0.183600685               0.000000000               0.149168131               0.207939094               0.000000000               0.167987453               0.232277503               0.000000000               0.186806776               0.256615912               0.000000000               0.205626098               0.280954320               0.000000000               0.224445420               0.305292729               0.000000000               0.243264743               0.329631138               0.000000000               0.262084065               0.353969547               0.000000000               0.280903388               0.378307956               0.000000000               0.299722710               0.402646365               0.000000000               0.318542033               0.426984773               0.000000000               0.337361355               0.451323182               0.000000000               0.356180678               0.475661591               0.000000000               0.375000000               0.500000000               0.000000000               0.062695766               0.117295528               0.000000000               0.078308531               0.141214558               0.000000000               0.093921295               0.165133587               0.000000000               0.109534060               0.189052617               0.000000000               0.125146824               0.212971646               0.000000000               0.140759589               0.236890676               0.000000000               0.156372354               0.260809705               0.000000000               0.171985118               0.284728735               0.000000000               0.187597883               0.308647764               0.000000000               0.203210648               0.332566794               0.000000000               0.218823412               0.356485823               0.000000000               0.234436177               0.380404853               0.000000000               0.250048941               0.404323882               0.000000000               0.265661706               0.428242912               0.000000000               0.281274471               0.452161941               0.000000000               0.296887235               0.476080971               0.000000000               0.312500000               0.500000000               0.000000000               0.050896897               0.122875978               0.000000000               0.063340840               0.146446229               0.000000000               0.075784784               0.170016481               0.000000000               0.088228728               0.193586732               0.000000000               0.100672672               0.217156983               0.000000000               0.113116616               0.240727235               0.000000000               0.125560560               0.264297486               0.000000000               0.138004504               0.287867738               0.000000000               0.150448448               0.311437989               0.000000000               0.162892392               0.335008240               0.000000000               0.175336336               0.358578492               0.000000000               0.187780280               0.382148743               0.000000000               0.200224224               0.405718994               0.000000000               0.212668168               0.429289246               0.000000000               0.225112112               0.452859497               0.000000000               0.237556056               0.476429749               0.000000000               0.250000000               0.500000000               0.000000000               0.038607862               0.127273065               0.000000000               0.047913621               0.150568498               0.000000000               0.057219379               0.173863932               0.000000000               0.066525138               0.197159365               0.000000000               0.075830897               0.220454798               0.000000000               0.085136655               0.243750232               0.000000000               0.094442414               0.267045665               0.000000000               0.103748172               0.290341099               0.000000000               0.113053931               0.313636532               0.000000000               0.122359690               0.336931966               0.000000000               0.131665448               0.360227399               0.000000000               0.140971207               0.383522833               0.000000000               0.150276966               0.406818266               0.000000000               0.159582724               0.430113700               0.000000000               0.168888483               0.453409133               0.000000000               0.178194241               0.476704567               0.000000000               0.187500000               0.500000000               0.000000000               0.025947013               0.130444442               0.000000000               0.032137825               0.153541665               0.000000000               0.038328636               0.176638887               0.000000000               0.044519448               0.199736109               0.000000000               0.050710260               0.222833332               0.000000000               0.056901071               0.245930554               0.000000000               0.063091883               0.269027776               0.000000000               0.069282695               0.292124999               0.000000000               0.075473506               0.315222221               0.000000000               0.081664318               0.338319444               0.000000000               0.087855130               0.361416666               0.000000000               0.094045942               0.384513888               0.000000000               0.100236753               0.407611111               0.000000000               0.106427565               0.430708333               0.000000000               0.112618377               0.453805555               0.000000000               0.118809188               0.476902778               0.000000000               0.125000000               0.500000000               0.000000000               0.013036280               0.132359569               0.000000000               0.016127762               0.155337096               0.000000000               0.019219245               0.178314623               0.000000000               0.022310727               0.201292150               0.000000000               0.025402210               0.224269676               0.000000000               0.028493692               0.247247203               0.000000000               0.031585175               0.270224730               0.000000000               0.034676657               0.293202257               0.000000000               0.037768140               0.316179784               0.000000000               0.040859622               0.339157311               0.000000000               0.043951105               0.362134838               0.000000000               0.047042587               0.385112365               0.000000000               0.050134070               0.408089892               0.000000000               0.053225552               0.431067419               0.000000000               0.056317035               0.454044946               0.000000000               0.059408517               0.477022473               0.000000000               0.062500000               0.500000000               0.000000000               0.000000000               0.133000000               0.000000000               0.000000000               0.155937500               0.000000000               0.000000000               0.178875000               0.000000000               0.000000000               0.201812500               0.000000000               0.000000000               0.224750000               0.000000000               0.000000000               0.247687500               0.000000000               0.000000000               0.270625000               0.000000000               0.000000000               0.293562500               0.000000000               0.000000000               0.316500000               0.000000000               0.000000000               0.339437500               0.000000000               0.000000000               0.362375000               0.000000000               0.000000000               0.385312500               0.000000000               0.000000000               0.408250000               0.000000000               0.000000000               0.431187500               0.000000000               0.000000000               0.454125000               0.000000000               0.000000000               0.477062500               0.000000000               0.000000000               0.500000000               0.000000000               0.133000000               0.000000000               0.000000000               0.155937500               0.000000000               0.000000000               0.178875000               0.000000000               0.000000000               0.201812500               0.000000000               0.000000000               0.224750000               0.000000000               0.000000000               0.247687500               0.000000000               0.000000000               0.270625000               0.000000000               0.000000000               0.293562500               0.000000000               0.000000000               0.316500000               0.000000000               0.000000000               0.339437500               0.000000000               0.000000000               0.362375000               0.000000000               0.000000000               0.385312500               0.000000000               0.000000000               0.408250000               0.000000000               0.000000000               0.431187500               0.000000000               0.000000000               0.454125000               0.000000000               0.000000000               0.477062500               0.000000000               0.000000000               0.500000000               0.000000000               0.000000000               0.132359569              -0.013036280               0.000000000               0.155337096              -0.016127762               0.000000000               0.178314623              -0.019219245               0.000000000               0.201292150              -0.022310727               0.000000000               0.224269676              -0.025402210               0.000000000               0.247247203              -0.028493692               0.000000000               0.270224730              -0.031585175               0.000000000               0.293202257              -0.034676657               0.000000000               0.316179784              -0.037768140               0.000000000               0.339157311              -0.040859622               0.000000000               0.362134838              -0.043951105               0.000000000               0.385112365              -0.047042587               0.000000000               0.408089892              -0.050134070               0.000000000               0.431067419              -0.053225552               0.000000000               0.454044946              -0.056317035               0.000000000               0.477022473              -0.059408517               0.000000000               0.500000000              -0.062500000               0.000000000               0.130444442              -0.025947013               0.000000000               0.153541665              -0.032137825               0.000000000               0.176638887              -0.038328636               0.000000000               0.199736109              -0.044519448               0.000000000               0.222833332              -0.050710260               0.000000000               0.245930554              -0.056901071               0.000000000               0.269027776              -0.063091883               0.000000000               0.292124999              -0.069282695               0.000000000               0.315222221              -0.075473506               0.000000000               0.338319444              -0.081664318               0.000000000               0.361416666              -0.087855130               0.000000000               0.384513888              -0.094045942               0.000000000               0.407611111              -0.100236753               0.000000000               0.430708333              -0.106427565               0.000000000               0.453805555              -0.112618377               0.000000000               0.476902778              -0.118809188               0.000000000               0.500000000              -0.125000000               0.000000000               0.127273065              -0.038607862               0.000000000               0.150568498              -0.047913621               0.000000000               0.173863932              -0.057219379               0.000000000               0.197159365              -0.066525138               0.000000000               0.220454798              -0.075830897               0.000000000               0.243750232              -0.085136655               0.000000000               0.267045665              -0.094442414               0.000000000               0.290341099              -0.103748172               0.000000000               0.313636532              -0.113053931               0.000000000               0.336931966              -0.122359690               0.000000000               0.360227399              -0.131665448               0.000000000               0.383522833              -0.140971207               0.000000000               0.406818266              -0.150276966               0.000000000               0.430113700              -0.159582724               0.000000000               0.453409133              -0.168888483               0.000000000               0.476704567              -0.178194241               0.000000000               0.500000000              -0.187500000               0.000000000               0.122875978              -0.050896897               0.000000000               0.146446229              -0.063340840               0.000000000               0.170016481              -0.075784784               0.000000000               0.193586732              -0.088228728               0.000000000               0.217156983              -0.100672672               0.000000000               0.240727235              -0.113116616               0.000000000               0.264297486              -0.125560560               0.000000000               0.287867738              -0.138004504               0.000000000               0.311437989              -0.150448448               0.000000000               0.335008240              -0.162892392               0.000000000               0.358578492              -0.175336336               0.000000000               0.382148743              -0.187780280               0.000000000               0.405718994              -0.200224224               0.000000000               0.429289246              -0.212668168               0.000000000               0.452859497              -0.225112112               0.000000000               0.476429749              -0.237556056               0.000000000               0.500000000              -0.250000000               0.000000000               0.117295528              -0.062695766               0.000000000               0.141214558              -0.078308531               0.000000000               0.165133587              -0.093921295               0.000000000               0.189052617              -0.109534060               0.000000000               0.212971646              -0.125146824               0.000000000               0.236890676              -0.140759589               0.000000000               0.260809705              -0.156372354               0.000000000               0.284728735              -0.171985118               0.000000000               0.308647764              -0.187597883               0.000000000               0.332566794              -0.203210648               0.000000000               0.356485823              -0.218823412               0.000000000               0.380404853              -0.234436177               0.000000000               0.404323882              -0.250048941               0.000000000               0.428242912              -0.265661706               0.000000000               0.452161941              -0.281274471               0.000000000               0.476080971              -0.296887235               0.000000000               0.500000000              -0.312500000               0.000000000               0.110585458              -0.073890841               0.000000000               0.134923867              -0.092710163               0.000000000               0.159262276              -0.111529486               0.000000000               0.183600685              -0.130348808               0.000000000               0.207939094              -0.149168131               0.000000000               0.232277503              -0.167987453               0.000000000               0.256615912              -0.186806776               0.000000000               0.280954320              -0.205626098               0.000000000               0.305292729              -0.224445420               0.000000000               0.329631138              -0.243264743               0.000000000               0.353969547              -0.262084065               0.000000000               0.378307956              -0.280903388               0.000000000               0.402646365              -0.299722710               0.000000000               0.426984773              -0.318542033               0.000000000               0.451323182              -0.337361355               0.000000000               0.475661591              -0.356180678               0.000000000               0.500000000              -0.375000000               0.000000000               0.102810390              -0.084374307               0.000000000               0.127634741              -0.106444663               0.000000000               0.152459092              -0.128515018               0.000000000               0.177283442              -0.150585374               0.000000000               0.202107793              -0.172655730               0.000000000               0.226932143              -0.194726086               0.000000000               0.251756494              -0.216796442               0.000000000               0.276580845              -0.238866798               0.000000000               0.301405195              -0.260937153               0.000000000               0.326229546              -0.283007509               0.000000000               0.351053896              -0.305077865               0.000000000               0.375878247              -0.327148221               0.000000000               0.400702598              -0.349218577               0.000000000               0.425526948              -0.371288933               0.000000000               0.450351299              -0.393359288               0.000000000               0.475175649              -0.415429644               0.000000000               0.500000000              -0.437500000               0.000000000               0.094045202              -0.094045202               0.000000000               0.119417377              -0.119417377               0.000000000               0.144789552              -0.144789552               0.000000000               0.170161727              -0.170161727               0.000000000               0.195533901              -0.195533901               0.000000000               0.220906076              -0.220906076               0.000000000               0.246278251              -0.246278251               0.000000000               0.271650426              -0.271650426               0.000000000               0.297022601              -0.297022601               0.000000000               0.322394776              -0.322394776               0.000000000               0.347766951              -0.347766951               0.000000000               0.373139126              -0.373139126               0.000000000               0.398511300              -0.398511300               0.000000000               0.423883475              -0.423883475               0.000000000               0.449255650              -0.449255650               0.000000000               0.474627825              -0.474627825               0.000000000               0.500000000              -0.500000000               0.000000000               0.084374307              -0.102810390               0.000000000               0.106444663              -0.127634741               0.000000000               0.128515018              -0.152459092               0.000000000               0.150585374              -0.177283442               0.000000000               0.172655730              -0.202107793               0.000000000               0.194726086              -0.226932143               0.000000000               0.216796442              -0.251756494               0.000000000               0.238866798              -0.276580845               0.000000000               0.260937153              -0.301405195               0.000000000               0.283007509              -0.326229546               0.000000000               0.305077865              -0.351053896               0.000000000               0.327148221              -0.375878247               0.000000000               0.349218577              -0.400702598               0.000000000               0.371288933              -0.425526948               0.000000000               0.393359288              -0.450351299               0.000000000               0.415429644              -0.475175649               0.000000000               0.437500000              -0.500000000               0.000000000               0.073890841              -0.110585458               0.000000000               0.092710163              -0.134923867               0.000000000               0.111529486              -0.159262276               0.000000000               0.130348808              -0.183600685               0.000000000               0.149168131              -0.207939094               0.000000000               0.167987453              -0.232277503               0.000000000               0.186806776              -0.256615912               0.000000000               0.205626098              -0.280954320               0.000000000               0.224445420              -0.305292729               0.000000000               0.243264743              -0.329631138               0.000000000               0.262084065              -0.353969547               0.000000000               0.280903388              -0.378307956               0.000000000               0.299722710              -0.402646365               0.000000000               0.318542033              -0.426984773               0.000000000               0.337361355              -0.451323182               0.000000000               0.356180678              -0.475661591               0.000000000               0.375000000              -0.500000000               0.000000000               0.062695766              -0.117295528               0.000000000               0.078308531              -0.141214558               0.000000000               0.093921295              -0.165133587               0.000000000               0.109534060              -0.189052617               0.000000000               0.125146824              -0.212971646               0.000000000               0.140759589              -0.236890676               0.000000000               0.156372354              -0.260809705               0.000000000               0.171985118              -0.284728735               0.000000000               0.187597883              -0.308647764               0.000000000               0.203210648              -0.332566794               0.000000000               0.218823412              -0.356485823               0.000000000               0.234436177              -0.380404853               0.000000000               0.250048941              -0.404323882               0.000000000               0.265661706              -0.428242912               0.000000000               0.281274471              -0.452161941               0.000000000               0.296887235              -0.476080971               0.000000000               0.312500000              -0.500000000               0.000000000               0.050896897              -0.122875978               0.000000000               0.063340840              -0.146446229               0.000000000               0.075784784              -0.170016481               0.000000000               0.088228728              -0.193586732               0.000000000               0.100672672              -0.217156983               0.000000000               0.113116616              -0.240727235               0.000000000               0.125560560              -0.264297486               0.000000000               0.138004504              -0.287867738               0.000000000               0.150448448              -0.311437989               0.000000000               0.162892392              -0.335008240               0.000000000               0.175336336              -0.358578492               0.000000000               0.187780280              -0.382148743               0.000000000               0.200224224              -0.405718994               0.000000000               0.212668168              -0.429289246               0.000000000               0.225112112              -0.452859497               0.000000000               0.237556056              -0.476429749               0.000000000               0.250000000              -0.500000000               0.000000000               0.038607862              -0.127273065               0.000000000               0.047913621              -0.150568498               0.000000000               0.057219379              -0.173863932               0.000000000               0.066525138              -0.197159365               0.000000000               0.075830897              -0.220454798               0.000000000               0.085136655              -0.243750232               0.000000000               0.094442414              -0.267045665               0.000000000               0.103748172              -0.290341099               0.000000000               0.113053931              -0.313636532               0.000000000               0.122359690              -0.336931966               0.000000000               0.131665448              -0.360227399               0.000000000               0.140971207              -0.383522833               0.000000000               0.150276966              -0.406818266               0.000000000               0.159582724              -0.430113700               0.000000000               0.168888483              -0.453409133               0.000000000               0.178194241              -0.476704567               0.000000000               0.187500000              -0.500000000               0.000000000               0.025947013              -0.130444442               0.000000000               0.032137825              -0.153541665               0.000000000               0.038328636              -0.176638887               0.000000000               0.044519448              -0.199736109               0.000000000               0.050710260              -0.222833332               0.000000000               0.056901071              -0.245930554               0.000000000               0.063091883              -0.269027776               0.000000000               0.069282695              -0.292124999               0.000000000               0.075473506              -0.315222221               0.000000000               0.081664318              -0.338319444               0.000000000               0.087855130              -0.361416666               0.000000000               0.094045942              -0.384513888               0.000000000               0.100236753              -0.407611111               0.000000000               0.106427565              -0.430708333               0.000000000               0.112618377              -0.453805555               0.000000000               0.118809188              -0.476902778               0.000000000               0.125000000              -0.500000000               0.000000000               0.013036280              -0.132359569               0.000000000               0.016127762              -0.155337096               0.000000000               0.019219245              -0.178314623               0.000000000               0.022310727              -0.201292150               0.000000000               0.025402210              -0.224269676               0.000000000               0.028493692              -0.247247203               0.000000000               0.031585175              -0.270224730               0.000000000               0.034676657              -0.293202257               0.000000000               0.037768140              -0.316179784               0.000000000               0.040859622              -0.339157311               0.000000000               0.043951105              -0.362134838               0.000000000               0.047042587              -0.385112365               0.000000000               0.050134070              -0.408089892               0.000000000               0.053225552              -0.431067419               0.000000000               0.056317035              -0.454044946               0.000000000               0.059408517              -0.477022473               0.000000000               0.062500000              -0.500000000               0.000000000               0.000000000              -0.133000000               0.000000000               0.000000000              -0.155937500               0.000000000               0.000000000              -0.178875000               0.000000000               0.000000000              -0.201812500               0.000000000               0.000000000              -0.224750000               0.000000000               0.000000000              -0.247687500               0.000000000               0.000000000              -0.270625000               0.000000000               0.000000000              -0.293562500               0.000000000               0.000000000              -0.316500000               0.000000000               0.000000000              -0.339437500               0.000000000               0.000000000              -0.362375000               0.000000000               0.000000000              -0.385312500               0.000000000               0.000000000              -0.408250000               0.000000000               0.000000000              -0.431187500               0.000000000               0.000000000              -0.454125000               0.000000000               0.000000000              -0.477062500               0.000000000               0.000000000              -0.500000000               0.000000000              -0.133000000               0.000000000               0.000000000              -0.155937500               0.000000000               0.000000000              -0.178875000               0.000000000               0.000000000              -0.201812500               0.000000000               0.000000000              -0.224750000               0.000000000               0.000000000              -0.247687500               0.000000000               0.000000000              -0.270625000               0.000000000               0.000000000              -0.293562500               0.000000000               0.000000000              -0.316500000               0.000000000               0.000000000              -0.339437500               0.000000000               0.000000000              -0.362375000               0.000000000               0.000000000              -0.385312500               0.000000000               0.000000000              -0.408250000               0.000000000               0.000000000              -0.431187500               0.000000000               0.000000000              -0.454125000               0.000000000               0.000000000              -0.477062500               0.000000000               0.000000000              -0.500000000               0.000000000               0.000000000              -0.132359569              -0.013036280               0.000000000              -0.155337096              -0.016127762               0.000000000              -0.178314623              -0.019219245               0.000000000              -0.201292150              -0.022310727               0.000000000              -0.224269676              -0.025402210               0.000000000              -0.247247203              -0.028493692               0.000000000              -0.270224730              -0.031585175               0.000000000              -0.293202257              -0.034676657               0.000000000              -0.316179784              -0.037768140               0.000000000              -0.339157311              -0.040859622               0.000000000              -0.362134838              -0.043951105               0.000000000              -0.385112365              -0.047042587               0.000000000              -0.408089892              -0.050134070               0.000000000              -0.431067419              -0.053225552               0.000000000              -0.454044946              -0.056317035               0.000000000              -0.477022473              -0.059408517               0.000000000              -0.500000000              -0.062500000               0.000000000              -0.130444442              -0.025947013               0.000000000              -0.153541665              -0.032137825               0.000000000              -0.176638887              -0.038328636               0.000000000              -0.199736109              -0.044519448               0.000000000              -0.222833332              -0.050710260               0.000000000              -0.245930554              -0.056901071               0.000000000              -0.269027776              -0.063091883               0.000000000              -0.292124999              -0.069282695               0.000000000              -0.315222221              -0.075473506               0.000000000              -0.338319444              -0.081664318               0.000000000              -0.361416666              -0.087855130               0.000000000              -0.384513888              -0.094045942               0.000000000              -0.407611111              -0.100236753               0.000000000              -0.430708333              -0.106427565               0.000000000              -0.453805555              -0.112618377               0.000000000              -0.476902778              -0.118809188               0.000000000              -0.500000000              -0.125000000               0.000000000              -0.127273065              -0.038607862               0.000000000              -0.150568498              -0.047913621               0.000000000              -0.173863932              -0.057219379               0.000000000              -0.197159365              -0.066525138               0.000000000              -0.220454798              -0.075830897               0.000000000              -0.243750232              -0.085136655               0.000000000              -0.267045665              -0.094442414               0.000000000              -0.290341099              -0.103748172               0.000000000              -0.313636532              -0.113053931               0.000000000              -0.336931966              -0.122359690               0.000000000              -0.360227399              -0.131665448               0.000000000              -0.383522833              -0.140971207               0.000000000              -0.406818266              -0.150276966               0.000000000              -0.430113700              -0.159582724               0.000000000              -0.453409133              -0.168888483               0.000000000              -0.476704567              -0.178194241               0.000000000              -0.500000000              -0.187500000               0.000000000              -0.122875978              -0.050896897               0.000000000              -0.146446229              -0.063340840               0.000000000              -0.170016481              -0.075784784               0.000000000              -0.193586732              -0.088228728               0.000000000              -0.217156983              -0.100672672               0.000000000              -0.240727235              -0.113116616               0.000000000              -0.264297486              -0.125560560               0.000000000              -0.287867738              -0.138004504               0.000000000              -0.311437989              -0.150448448               0.000000000              -0.335008240              -0.162892392               0.000000000              -0.358578492              -0.175336336               0.000000000              -0.382148743              -0.187780280               0.000000000              -0.405718994              -0.200224224               0.000000000              -0.429289246              -0.212668168               0.000000000              -0.452859497              -0.225112112               0.000000000              -0.476429749              -0.237556056               0.000000000              -0.500000000              -0.250000000               0.000000000              -0.117295528              -0.062695766               0.000000000              -0.141214558              -0.078308531               0.000000000              -0.165133587              -0.093921295               0.000000000              -0.189052617              -0.109534060               0.000000000              -0.212971646              -0.125146824               0.000000000              -0.236890676              -0.140759589               0.000000000              -0.260809705              -0.156372354               0.000000000              -0.284728735              -0.171985118               0.000000000              -0.308647764              -0.187597883               0.000000000              -0.332566794              -0.203210648               0.000000000              -0.356485823              -0.218823412               0.000000000              -0.380404853              -0.234436177               0.000000000              -0.404323882              -0.250048941               0.000000000              -0.428242912              -0.265661706               0.000000000              -0.452161941              -0.281274471               0.000000000              -0.476080971              -0.296887235               0.000000000              -0.500000000              -0.312500000               0.000000000              -0.110585458              -0.073890841               0.000000000              -0.134923867              -0.092710163               0.000000000              -0.159262276              -0.111529486               0.000000000              -0.183600685              -0.130348808               0.000000000              -0.207939094              -0.149168131               0.000000000              -0.232277503              -0.167987453               0.000000000              -0.256615912              -0.186806776               0.000000000              -0.280954320              -0.205626098               0.000000000              -0.305292729              -0.224445420               0.000000000              -0.329631138              -0.243264743               0.000000000              -0.353969547              -0.262084065               0.000000000              -0.378307956              -0.280903388               0.000000000              -0.402646365              -0.299722710               0.000000000              -0.426984773              -0.318542033               0.000000000              -0.451323182              -0.337361355               0.000000000              -0.475661591              -0.356180678               0.000000000              -0.500000000              -0.375000000               0.000000000              -0.102810390              -0.084374307               0.000000000              -0.127634741              -0.106444663               0.000000000              -0.152459092              -0.128515018               0.000000000              -0.177283442              -0.150585374               0.000000000              -0.202107793              -0.172655730               0.000000000              -0.226932143              -0.194726086               0.000000000              -0.251756494              -0.216796442               0.000000000              -0.276580845              -0.238866798               0.000000000              -0.301405195              -0.260937153               0.000000000              -0.326229546              -0.283007509               0.000000000              -0.351053896              -0.305077865               0.000000000              -0.375878247              -0.327148221               0.000000000              -0.400702598              -0.349218577               0.000000000              -0.425526948              -0.371288933               0.000000000              -0.450351299              -0.393359288               0.000000000              -0.475175649              -0.415429644               0.000000000              -0.500000000              -0.437500000               0.000000000              -0.094045202              -0.094045202               0.000000000              -0.119417377              -0.119417377               0.000000000              -0.144789552              -0.144789552               0.000000000              -0.170161727              -0.170161727               0.000000000              -0.195533901              -0.195533901               0.000000000              -0.220906076              -0.220906076               0.000000000              -0.246278251              -0.246278251               0.000000000              -0.271650426              -0.271650426               0.000000000              -0.297022601              -0.297022601               0.000000000              -0.322394776              -0.322394776               0.000000000              -0.347766951              -0.347766951               0.000000000              -0.373139126              -0.373139126               0.000000000              -0.398511300              -0.398511300               0.000000000              -0.423883475              -0.423883475               0.000000000              -0.449255650              -0.449255650               0.000000000              -0.474627825              -0.474627825               0.000000000              -0.500000000              -0.500000000               0.000000000              -0.084374307              -0.102810390               0.000000000              -0.106444663              -0.127634741               0.000000000              -0.128515018              -0.152459092               0.000000000              -0.150585374              -0.177283442               0.000000000              -0.172655730              -0.202107793               0.000000000              -0.194726086              -0.226932143               0.000000000              -0.216796442              -0.251756494               0.000000000              -0.238866798              -0.276580845               0.000000000              -0.260937153              -0.301405195               0.000000000              -0.283007509              -0.326229546               0.000000000              -0.305077865              -0.351053896               0.000000000              -0.327148221              -0.375878247               0.000000000              -0.349218577              -0.400702598               0.000000000              -0.371288933              -0.425526948               0.000000000              -0.393359288              -0.450351299               0.000000000              -0.415429644              -0.475175649               0.000000000              -0.437500000              -0.500000000               0.000000000              -0.073890841              -0.110585458               0.000000000              -0.092710163              -0.134923867               0.000000000              -0.111529486              -0.159262276               0.000000000              -0.130348808              -0.183600685               0.000000000              -0.149168131              -0.207939094               0.000000000              -0.167987453              -0.232277503               0.000000000              -0.186806776              -0.256615912               0.000000000              -0.205626098              -0.280954320               0.000000000              -0.224445420              -0.305292729               0.000000000              -0.243264743              -0.329631138               0.000000000              -0.262084065              -0.353969547               0.000000000              -0.280903388              -0.378307956               0.000000000              -0.299722710              -0.402646365               0.000000000              -0.318542033              -0.426984773               0.000000000              -0.337361355              -0.451323182               0.000000000              -0.356180678              -0.475661591               0.000000000              -0.375000000              -0.500000000               0.000000000              -0.062695766              -0.117295528               0.000000000              -0.078308531              -0.141214558               0.000000000              -0.093921295              -0.165133587               0.000000000              -0.109534060              -0.189052617               0.000000000              -0.125146824              -0.212971646               0.000000000              -0.140759589              -0.236890676               0.000000000              -0.156372354              -0.260809705               0.000000000              -0.171985118              -0.284728735               0.000000000              -0.187597883              -0.308647764               0.000000000              -0.203210648              -0.332566794               0.000000000              -0.218823412              -0.356485823               0.000000000              -0.234436177              -0.380404853               0.000000000              -0.250048941              -0.404323882               0.000000000              -0.265661706              -0.428242912               0.000000000              -0.281274471              -0.452161941               0.000000000              -0.296887235              -0.476080971               0.000000000              -0.312500000              -0.500000000               0.000000000              -0.050896897              -0.122875978               0.000000000              -0.063340840              -0.146446229               0.000000000              -0.075784784              -0.170016481               0.000000000              -0.088228728              -0.193586732               0.000000000              -0.100672672              -0.217156983               0.000000000              -0.113116616              -0.240727235               0.000000000              -0.125560560              -0.264297486               0.000000000              -0.138004504              -0.287867738               0.000000000              -0.150448448              -0.311437989               0.000000000              -0.162892392              -0.335008240               0.000000000              -0.175336336              -0.358578492               0.000000000              -0.187780280              -0.382148743               0.000000000              -0.200224224              -0.405718994               0.000000000              -0.212668168              -0.429289246               0.000000000              -0.225112112              -0.452859497               0.000000000              -0.237556056              -0.476429749               0.000000000              -0.250000000              -0.500000000               0.000000000              -0.038607862              -0.127273065               0.000000000              -0.047913621              -0.150568498               0.000000000              -0.057219379              -0.173863932               0.000000000              -0.066525138              -0.197159365               0.000000000              -0.075830897              -0.220454798               0.000000000              -0.085136655              -0.243750232               0.000000000              -0.094442414              -0.267045665               0.000000000              -0.103748172              -0.290341099               0.000000000              -0.113053931              -0.313636532               0.000000000              -0.122359690              -0.336931966               0.000000000              -0.131665448              -0.360227399               0.000000000              -0.140971207              -0.383522833               0.000000000              -0.150276966              -0.406818266               0.000000000              -0.159582724              -0.430113700               0.000000000              -0.168888483              -0.453409133               0.000000000              -0.178194241              -0.476704567               0.000000000              -0.187500000              -0.500000000               0.000000000              -0.025947013              -0.130444442               0.000000000              -0.032137825              -0.153541665               0.000000000              -0.038328636              -0.176638887               0.000000000              -0.044519448              -0.199736109               0.000000000              -0.050710260              -0.222833332               0.000000000              -0.056901071              -0.245930554               0.000000000              -0.063091883              -0.269027776               0.000000000              -0.069282695              -0.292124999               0.000000000              -0.075473506              -0.315222221               0.000000000              -0.081664318              -0.338319444               0.000000000              -0.087855130              -0.361416666               0.000000000              -0.094045942              -0.384513888               0.000000000              -0.100236753              -0.407611111               0.000000000              -0.106427565              -0.430708333               0.000000000              -0.112618377              -0.453805555               0.000000000              -0.118809188              -0.476902778               0.000000000              -0.125000000              -0.500000000               0.000000000              -0.013036280              -0.132359569               0.000000000              -0.016127762              -0.155337096               0.000000000              -0.019219245              -0.178314623               0.000000000              -0.022310727              -0.201292150               0.000000000              -0.025402210              -0.224269676               0.000000000              -0.028493692              -0.247247203               0.000000000              -0.031585175              -0.270224730               0.000000000              -0.034676657              -0.293202257               0.000000000              -0.037768140              -0.316179784               0.000000000              -0.040859622              -0.339157311               0.000000000              -0.043951105              -0.362134838               0.000000000              -0.047042587              -0.385112365               0.000000000              -0.050134070              -0.408089892               0.000000000              -0.053225552              -0.431067419               0.000000000              -0.056317035              -0.454044946               0.000000000              -0.059408517              -0.477022473               0.000000000              -0.062500000              -0.500000000               0.000000000               0.000000000              -0.133000000               0.000000000               0.000000000              -0.155937500               0.000000000               0.000000000              -0.178875000               0.000000000               0.000000000              -0.201812500               0.000000000               0.000000000              -0.224750000               0.000000000               0.000000000              -0.247687500               0.000000000               0.000000000              -0.270625000               0.000000000               0.000000000              -0.293562500               0.000000000               0.000000000              -0.316500000               0.000000000               0.000000000              -0.339437500               0.000000000               0.000000000              -0.362375000               0.000000000               0.000000000              -0.385312500               0.000000000               0.000000000              -0.408250000               0.000000000               0.000000000              -0.431187500               0.000000000               0.000000000              -0.454125000               0.000000000               0.000000000              -0.477062500               0.000000000               0.000000000              -0.500000000               0.000000000              -0.133000000               0.000000000               0.000000000              -0.155937500               0.000000000               0.000000000              -0.178875000               0.000000000               0.000000000              -0.201812500               0.000000000               0.000000000              -0.224750000               0.000000000               0.000000000              -0.247687500               0.000000000               0.000000000              -0.270625000               0.000000000               0.000000000              -0.293562500               0.000000000               0.000000000              -0.316500000               0.000000000               0.000000000              -0.339437500               0.000000000               0.000000000              -0.362375000               0.000000000               0.000000000              -0.385312500               0.000000000               0.000000000              -0.408250000               0.000000000               0.000000000              -0.431187500               0.000000000               0.000000000              -0.454125000               0.000000000               0.000000000              -0.477062500               0.000000000               0.000000000              -0.500000000               0.000000000               0.000000000              -0.132359569               0.013036280               0.000000000              -0.155337096               0.016127762               0.000000000              -0.178314623               0.019219245               0.000000000              -0.201292150               0.022310727               0.000000000              -0.224269676               0.025402210               0.000000000              -0.247247203               0.028493692               0.000000000              -0.270224730               0.031585175               0.000000000              -0.293202257               0.034676657               0.000000000              -0.316179784               0.037768140               0.000000000              -0.339157311               0.040859622               0.000000000              -0.362134838               0.043951105               0.000000000              -0.385112365               0.047042587               0.000000000              -0.408089892               0.050134070               0.000000000              -0.431067419               0.053225552               0.000000000              -0.454044946               0.056317035               0.000000000              -0.477022473               0.059408517               0.000000000              -0.500000000               0.062500000               0.000000000              -0.130444442               0.025947013               0.000000000              -0.153541665               0.032137825               0.000000000              -0.176638887               0.038328636               0.000000000              -0.199736109               0.044519448               0.000000000              -0.222833332               0.050710260               0.000000000              -0.245930554               0.056901071               0.000000000              -0.269027776               0.063091883               0.000000000              -0.292124999               0.069282695               0.000000000              -0.315222221               0.075473506               0.000000000              -0.338319444               0.081664318               0.000000000              -0.361416666               0.087855130               0.000000000              -0.384513888               0.094045942               0.000000000              -0.407611111               0.100236753               0.000000000              -0.430708333               0.106427565               0.000000000              -0.453805555               0.112618377               0.000000000              -0.476902778               0.118809188               0.000000000              -0.500000000               0.125000000               0.000000000              -0.127273065               0.038607862               0.000000000              -0.150568498               0.047913621               0.000000000              -0.173863932               0.057219379               0.000000000              -0.197159365               0.066525138               0.000000000              -0.220454798               0.075830897               0.000000000              -0.243750232               0.085136655               0.000000000              -0.267045665               0.094442414               0.000000000              -0.290341099               0.103748172               0.000000000              -0.313636532               0.113053931               0.000000000              -0.336931966               0.122359690               0.000000000              -0.360227399               0.131665448               0.000000000              -0.383522833               0.140971207               0.000000000              -0.406818266               0.150276966               0.000000000              -0.430113700               0.159582724               0.000000000              -0.453409133               0.168888483               0.000000000              -0.476704567               0.178194241               0.000000000              -0.500000000               0.187500000               0.000000000              -0.122875978               0.050896897               0.000000000              -0.146446229               0.063340840               0.000000000              -0.170016481               0.075784784               0.000000000              -0.193586732               0.088228728               0.000000000              -0.217156983               0.100672672               0.000000000              -0.240727235               0.113116616               0.000000000              -0.264297486               0.125560560               0.000000000              -0.287867738               0.138004504               0.000000000              -0.311437989               0.150448448               0.000000000              -0.335008240               0.162892392               0.000000000              -0.358578492               0.175336336               0.000000000              -0.382148743               0.187780280               0.000000000              -0.405718994               0.200224224               0.000000000              -0.429289246               0.212668168               0.000000000              -0.452859497               0.225112112               0.000000000              -0.476429749               0.237556056               0.000000000              -0.500000000               0.250000000               0.000000000              -0.117295528               0.062695766               0.000000000              -0.141214558               0.078308531               0.000000000              -0.165133587               0.093921295               0.000000000              -0.189052617               0.109534060               0.000000000              -0.212971646               0.125146824               0.000000000              -0.236890676               0.140759589               0.000000000              -0.260809705               0.156372354               0.000000000              -0.284728735               0.171985118               0.000000000              -0.308647764               0.187597883               0.000000000              -0.332566794               0.203210648               0.000000000              -0.356485823               0.218823412               0.000000000              -0.380404853               0.234436177               0.000000000              -0.404323882               0.250048941               0.000000000              -0.428242912               0.265661706               0.000000000              -0.452161941               0.281274471               0.000000000              -0.476080971               0.296887235               0.000000000              -0.500000000               0.312500000               0.000000000              -0.110585458               0.073890841               0.000000000              -0.134923867               0.092710163               0.000000000              -0.159262276               0.111529486               0.000000000              -0.183600685               0.130348808               0.000000000              -0.207939094               0.149168131               0.000000000              -0.232277503               0.167987453               0.000000000              -0.256615912               0.186806776               0.000000000              -0.280954320               0.205626098               0.000000000              -0.305292729               0.224445420               0.000000000              -0.329631138               0.243264743               0.000000000              -0.353969547               0.262084065               0.000000000              -0.378307956               0.280903388               0.000000000              -0.402646365               0.299722710               0.000000000              -0.426984773               0.318542033               0.000000000              -0.451323182               0.337361355               0.000000000              -0.475661591               0.356180678               0.000000000              -0.500000000               0.375000000               0.000000000              -0.102810390               0.084374307               0.000000000              -0.127634741               0.106444663               0.000000000              -0.152459092               0.128515018               0.000000000              -0.177283442               0.150585374               0.000000000              -0.202107793               0.172655730               0.000000000              -0.226932143               0.194726086               0.000000000              -0.251756494               0.216796442               0.000000000              -0.276580845               0.238866798               0.000000000              -0.301405195               0.260937153               0.000000000              -0.326229546               0.283007509               0.000000000              -0.351053896               0.305077865               0.000000000              -0.375878247               0.327148221               0.000000000              -0.400702598               0.349218577               0.000000000              -0.425526948               0.371288933               0.000000000              -0.450351299               0.393359288               0.000000000              -0.475175649               0.415429644               0.000000000              -0.500000000               0.437500000               0.000000000              -0.094045202               0.094045202               0.000000000              -0.119417377               0.119417377               0.000000000              -0.144789552               0.144789552               0.000000000              -0.170161727               0.170161727               0.000000000              -0.195533901               0.195533901               0.000000000              -0.220906076               0.220906076               0.000000000              -0.246278251               0.246278251               0.000000000              -0.271650426               0.271650426               0.000000000              -0.297022601               0.297022601               0.000000000              -0.322394776               0.322394776               0.000000000              -0.347766951               0.347766951               0.000000000              -0.373139126               0.373139126               0.000000000              -0.398511300               0.398511300               0.000000000              -0.423883475               0.423883475               0.000000000              -0.449255650               0.449255650               0.000000000              -0.474627825               0.474627825               0.000000000              -0.500000000               0.500000000               0.000000000              -0.084374307               0.102810390               0.000000000              -0.106444663               0.127634741               0.000000000              -0.128515018               0.152459092               0.000000000              -0.150585374               0.177283442               0.000000000              -0.172655730               0.202107793               0.000000000              -0.194726086               0.226932143               0.000000000              -0.216796442               0.251756494               0.000000000              -0.238866798               0.276580845               0.000000000              -0.260937153               0.301405195               0.000000000              -0.283007509               0.326229546               0.000000000              -0.305077865               0.351053896               0.000000000              -0.327148221               0.375878247               0.000000000              -0.349218577               0.400702598               0.000000000              -0.371288933               0.425526948               0.000000000              -0.393359288               0.450351299               0.000000000              -0.415429644               0.475175649               0.000000000              -0.437500000               0.500000000               0.000000000              -0.073890841               0.110585458               0.000000000              -0.092710163               0.134923867               0.000000000              -0.111529486               0.159262276               0.000000000              -0.130348808               0.183600685               0.000000000              -0.149168131               0.207939094               0.000000000              -0.167987453               0.232277503               0.000000000              -0.186806776               0.256615912               0.000000000              -0.205626098               0.280954320               0.000000000              -0.224445420               0.305292729               0.000000000              -0.243264743               0.329631138               0.000000000              -0.262084065               0.353969547               0.000000000              -0.280903388               0.378307956               0.000000000              -0.299722710               0.402646365               0.000000000              -0.318542033               0.426984773               0.000000000              -0.337361355               0.451323182               0.000000000              -0.356180678               0.475661591               0.000000000              -0.375000000               0.500000000               0.000000000              -0.062695766               0.117295528               0.000000000              -0.078308531               0.141214558               0.000000000              -0.093921295               0.165133587               0.000000000              -0.109534060               0.189052617               0.000000000              -0.125146824               0.212971646               0.000000000              -0.140759589               0.236890676               0.000000000              -0.156372354               0.260809705               0.000000000              -0.171985118               0.284728735               0.000000000              -0.187597883               0.308647764               0.000000000              -0.203210648               0.332566794               0.000000000              -0.218823412               0.356485823               0.000000000              -0.234436177               0.380404853               0.000000000              -0.250048941               0.404323882               0.000000000              -0.265661706               0.428242912               0.000000000              -0.281274471               0.452161941               0.000000000              -0.296887235               0.476080971               0.000000000              -0.312500000               0.500000000               0.000000000              -0.050896897               0.122875978               0.000000000              -0.063340840               0.146446229               0.000000000              -0.075784784               0.170016481               0.000000000              -0.088228728               0.193586732               0.000000000              -0.100672672               0.217156983               0.000000000              -0.113116616               0.240727235               0.000000000              -0.125560560               0.264297486               0.000000000              -0.138004504               0.287867738               0.000000000              -0.150448448               0.311437989               0.000000000              -0.162892392               0.335008240               0.000000000              -0.175336336               0.358578492               0.000000000              -0.187780280               0.382148743               0.000000000              -0.200224224               0.405718994               0.000000000              -0.212668168               0.429289246               0.000000000              -0.225112112               0.452859497               0.000000000              -0.237556056               0.476429749               0.000000000              -0.250000000               0.500000000               0.000000000              -0.038607862               0.127273065               0.000000000              -0.047913621               0.150568498               0.000000000              -0.057219379               0.173863932               0.000000000              -0.066525138               0.197159365               0.000000000              -0.075830897               0.220454798               0.000000000              -0.085136655               0.243750232               0.000000000              -0.094442414               0.267045665               0.000000000              -0.103748172               0.290341099               0.000000000              -0.113053931               0.313636532               0.000000000              -0.122359690               0.336931966               0.000000000              -0.131665448               0.360227399               0.000000000              -0.140971207               0.383522833               0.000000000              -0.150276966               0.406818266               0.000000000              -0.159582724               0.430113700               0.000000000              -0.168888483               0.453409133               0.000000000              -0.178194241               0.476704567               0.000000000              -0.187500000               0.500000000               0.000000000              -0.025947013               0.130444442               0.000000000              -0.032137825               0.153541665               0.000000000              -0.038328636               0.176638887               0.000000000              -0.044519448               0.199736109               0.000000000              -0.050710260               0.222833332               0.000000000              -0.056901071               0.245930554               0.000000000              -0.063091883               0.269027776               0.000000000              -0.069282695               0.292124999               0.000000000              -0.075473506               0.315222221               0.000000000              -0.081664318               0.338319444               0.000000000              -0.087855130               0.361416666               0.000000000              -0.094045942               0.384513888               0.000000000              -0.100236753               0.407611111               0.000000000              -0.106427565               0.430708333               0.000000000              -0.112618377               0.453805555               0.000000000              -0.118809188               0.476902778               0.000000000              -0.125000000               0.500000000               0.000000000              -0.013036280               0.132359569               0.000000000              -0.016127762               0.155337096               0.000000000              -0.019219245               0.178314623               0.000000000              -0.022310727               0.201292150               0.000000000              -0.025402210               0.224269676               0.000000000              -0.028493692               0.247247203               0.000000000              -0.031585175               0.270224730               0.000000000              -0.034676657               0.293202257               0.000000000              -0.037768140               0.316179784               0.000000000              -0.040859622               0.339157311               0.000000000              -0.043951105               0.362134838               0.000000000              -0.047042587               0.385112365               0.000000000              -0.050134070               0.408089892               0.000000000              -0.053225552               0.431067419               0.000000000              -0.056317035               0.454044946               0.000000000              -0.059408517               0.477022473               0.000000000              -0.062500000               0.500000000               0.000000000               0.000000000               0.133000000               0.000000000               0.000000000               0.155937500               0.000000000               0.000000000               0.178875000               0.000000000               0.000000000               0.201812500               0.000000000               0.000000000               0.224750000               0.000000000               0.000000000               0.247687500               0.000000000               0.000000000               0.270625000               0.000000000               0.000000000               0.293562500               0.000000000               0.000000000               0.316500000               0.000000000               0.000000000               0.339437500               0.000000000               0.000000000               0.362375000               0.000000000               0.000000000               0.385312500               0.000000000               0.000000000               0.408250000               0.000000000               0.000000000               0.431187500               0.000000000               0.000000000               0.454125000               0.000000000               0.000000000               0.477062500               0.000000000               0.000000000               0.500000000               0.000000000 </DataArray>
</Points>
<Cells>
<DataArray type="Int32"                                    Name="connectivity"                                                      NumberOfComponents=" 1" format="ascii">
         0          1         18         17          1          2         19         18          2          3         20         19          3          4         21         20          4          5         22         21          5          6         23         22          6          7         24         23          7          8         25         24          8          9         26         25          9         10         27         26         10         11         28         27         11         12         29         28         12         13         30         29         13         14         31         30         14         15         32         31         15         16         33         32         17         18         35         34         18         19         36         35         19         20         37         36         20         21         38         37         21         22         39         38         22         23         40         39         23         24         41         40         24         25         42         41         25         26         43         42         26         27         44         43         27         28         45         44         28         29         46         45         29         30         47         46         30         31         48         47         31         32         49         48         32         33         50         49         34         35         52         51         35         36         53         52         36         37         54         53         37         38         55         54         38         39         56         55         39         40         57         56         40         41         58         57         41         42         59         58         42         43         60         59         43         44         61         60         44         45         62         61         45         46         63         62         46         47         64         63         47         48         65         64         48         49         66         65         49         50         67         66         51         52         69         68         52         53         70         69         53         54         71         70         54         55         72         71         55         56         73         72         56         57         74         73         57         58         75         74         58         59         76         75         59         60         77         76         60         61         78         77         61         62         79         78         62         63         80         79         63         64         81         80         64         65         82         81         65         66         83         82         66         67         84         83         68         69         86         85         69         70         87         86         70         71         88         87         71         72         89         88         72         73         90         89         73         74         91         90         74         75         92         91         75         76         93         92         76         77         94         93         77         78         95         94         78         79         96         95         79         80         97         96         80         81         98         97         81         82         99         98         82         83        100         99         83         84        101        100         85         86        103        102         86         87        104        103         87         88        105        104         88         89        106        105         89         90        107        106         90         91        108        107         91         92        109        108         92         93        110        109         93         94        111        110         94         95        112        111         95         96        113        112         96         97        114        113         97         98        115        114         98         99        116        115         99        100        117        116        100        101        118        117        102        103        120        119        103        104        121        120        104        105        122        121        105        106        123        122        106        107        124        123        107        108        125        124        108        109        126        125        109        110        127        126        110        111        128        127        111        112        129        128        112        113        130        129        113        114        131        130        114        115        132        131        115        116        133        132        116        117        134        133        117        118        135        134        119        120        137        136        120        121        138        137        121        122        139        138        122        123        140        139        123        124        141        140        124        125        142        141        125        126        143        142        126        127        144        143        127        128        145        144        128        129        146        145        129        130        147        146        130        131        148        147        131        132        149        148        132        133        150        149        133        134        151        150        134        135        152        151        136        137        154        153        137        138        155        154        138        139        156        155        139        140        157        156        140        141        158        157        141        142        159        158        142        143        160        159        143        144        161        160        144        145        162        161        145        146        163        162        146        147        164        163        147        148        165        164        148        149        166        165        149        150        167        166        150        151        168        167        151        152        169        168        153        154        171        170        154        155        172        171        155        156        173        172        156        157        174        173        157        158        175        174        158        159        176        175        159        160        177        176        160        161        178        177        161        162        179        178        162        163        180        179        163        164        181        180        164        165        182        181        165        166        183        182        166        167        184        183        167        168        185        184        168        169        186        185        170        171        188        187        171        172        189        188        172        173        190        189        173        174        191        190        174        175        192        191        175        176        193        192        176        177        194        193        177        178        195        194        178        179        196        195        179        180        197        196        180        181        198        197        181        182        199        198        182        183        200        199        183        184        201        200        184        185        202        201        185        186        203        202        187        188        205        204        188        189        206        205        189        190        207        206        190        191        208        207        191        192        209        208        192        193        210        209        193        194        211        210        194        195        212        211        195        196        213        212        196        197        214        213        197        198        215        214        198        199        216        215        199        200        217        216        200        201        218        217        201        202        219        218        202        203        220        219        204        205        222        221        205        206        223        222        206        207        224        223        207        208        225        224        208        209        226        225        209        210        227        226        210        211        228        227        211        212        229        228        212        213        230        229        213        214        231        230        214        215        232        231        215        216        233        232        216        217        234        233        217        218        235        234        218        219        236        235        219        220        237        236        221        222        239        238        222        223        240        239        223        224        241        240        224        225        242        241        225        226        243        242        226        227        244        243        227        228        245        244        228        229        246        245        229        230        247        246        230        231        248        247        231        232        249        248        232        233        250        249        233        234        251        250        234        235        252        251        235        236        253        252        236        237        254        253        238        239        256        255        239        240        257        256        240        241        258        257        241        242        259        258        242        243        260        259        243        244        261        260        244        245        262        261        245        246        263        262        246        247        264        263        247        248        265        264        248        249        266        265        249        250        267        266        250        251        268        267        251        252        269        268        252        253        270        269        253        254        271        270        255        256        273        272        256        257        274        273        257        258        275        274        258        259        276        275        259        260        277        276        260        261        278        277        261        262        279        278        262        263        280        279        263        264        281        280        264        265        282        281        265        266        283        282        266        267        284        283        267        268        285        284        268        269        286        285        269        270        287        286        270        271        288        287        306        307          1          0        307        308          2          1        308        309          3          2        309        310          4          3        310        311          5          4        311        312          6          5        312        313          7          6        313        314          8          7        314        315          9          8        315        316         10          9        316        317         11         10        317        318         12         11        318        319         13         12        319        320         14         13        320        321         15         14        321        322         16         15        323        324        307        306        324        325        308        307        325        326        309        308        326        327        310        309        327        328        311        310        328        329        312        311        329        330        313        312        330        331        314        313        331        332        315        314        332        333        316        315        333        334        317        316        334        335        318        317        335        336        319        318        336        337        320        319        337        338        321        320        338        339        322        321        340        341        324        323        341        342        325        324        342        343        326        325        343        344        327        326        344        345        328        327        345        346        329        328        346        347        330        329        347        348        331        330        348        349        332        331        349        350        333        332        350        351        334        333        351        352        335        334        352        353        336        335        353        354        337        336        354        355        338        337        355        356        339        338        357        358        341        340        358        359        342        341        359        360        343        342        360        361        344        343        361        362        345        344        362        363        346        345        363        364        347        346        364        365        348        347        365        366        349        348        366        367        350        349        367        368        351        350        368        369        352        351        369        370        353        352        370        371        354        353        371        372        355        354        372        373        356        355        374        375        358        357        375        376        359        358        376        377        360        359        377        378        361        360        378        379        362        361        379        380        363        362        380        381        364        363        381        382        365        364        382        383        366        365        383        384        367        366        384        385        368        367        385        386        369        368        386        387        370        369        387        388        371        370        388        389        372        371        389        390        373        372        391        392        375        374        392        393        376        375        393        394        377        376        394        395        378        377        395        396        379        378        396        397        380        379        397        398        381        380        398        399        382        381        399        400        383        382        400        401        384        383        401        402        385        384        402        403        386        385        403        404        387        386        404        405        388        387        405        406        389        388        406        407        390        389        408        409        392        391        409        410        393        392        410        411        394        393        411        412        395        394        412        413        396        395        413        414        397        396        414        415        398        397        415        416        399        398        416        417        400        399        417        418        401        400        418        419        402        401        419        420        403        402        420        421        404        403        421        422        405        404        422        423        406        405        423        424        407        406        425        426        409        408        426        427        410        409        427        428        411        410        428        429        412        411        429        430        413        412        430        431        414        413        431        432        415        414        432        433        416        415        433        434        417        416        434        435        418        417        435        436        419        418        436        437        420        419        437        438        421        420        438        439        422        421        439        440        423        422        440        441        424        423        442        443        426        425        443        444        427        426        444        445        428        427        445        446        429        428        446        447        430        429        447        448        431        430        448        449        432        431        449        450        433        432        450        451        434        433        451        452        435        434        452        453        436        435        453        454        437        436        454        455        438        437        455        456        439        438        456        457        440        439        457        458        441        440        459        460        443        442        460        461        444        443        461        462        445        444        462        463        446        445        463        464        447        446        464        465        448        447        465        466        449        448        466        467        450        449        467        468        451        450        468        469        452        451        469        470        453        452        470        471        454        453        471        472        455        454        472        473        456        455        473        474        457        456        474        475        458        457        476        477        460        459        477        478        461        460        478        479        462        461        479        480        463        462        480        481        464        463        481        482        465        464        482        483        466        465        483        484        467        466        484        485        468        467        485        486        469        468        486        487        470        469        487        488        471        470        488        489        472        471        489        490        473        472        490        491        474        473        491        492        475        474        493        494        477        476        494        495        478        477        495        496        479        478        496        497        480        479        497        498        481        480        498        499        482        481        499        500        483        482        500        501        484        483        501        502        485        484        502        503        486        485        503        504        487        486        504        505        488        487        505        506        489        488        506        507        490        489        507        508        491        490        508        509        492        491        510        511        494        493        511        512        495        494        512        513        496        495        513        514        497        496        514        515        498        497        515        516        499        498        516        517        500        499        517        518        501        500        518        519        502        501        519        520        503        502        520        521        504        503        521        522        505        504        522        523        506        505        523        524        507        506        524        525        508        507        525        526        509        508        527        528        511        510        528        529        512        511        529        530        513        512        530        531        514        513        531        532        515        514        532        533        516        515        533        534        517        516        534        535        518        517        535        536        519        518        536        537        520        519        537        538        521        520        538        539        522        521        539        540        523        522        540        541        524        523        541        542        525        524        542        543        526        525        544        545        528        527        545        546        529        528        546        547        530        529        547        548        531        530        548        549        532        531        549        550        533        532        550        551        534        533        551        552        535        534        552        553        536        535        553        554        537        536        554        555        538        537        555        556        539        538        556        557        540        539        557        558        541        540        558        559        542        541        559        560        543        542        561        562        545        544        562        563        546        545        563        564        547        546        564        565        548        547        565        566        549        548        566        567        550        549        567        568        551        550        568        569        552        551        569        570        553        552        570        571        554        553        571        572        555        554        572        573        556        555        573        574        557        556        574        575        558        557        575        576        559        558        576        577        560        559        578        579        596        595        579        580        597        596        580        581        598        597        581        582        599        598        582        583        600        599        583        584        601        600        584        585        602        601        585        586        603        602        586        587        604        603        587        588        605        604        588        589        606        605        589        590        607        606        590        591        608        607        591        592        609        608        592        593        610        609        593        594        611        610        595        596        613        612        596        597        614        613        597        598        615        614        598        599        616        615        599        600        617        616        600        601        618        617        601        602        619        618        602        603        620        619        603        604        621        620        604        605        622        621        605        606        623        622        606        607        624        623        607        608        625        624        608        609        626        625        609        610        627        626        610        611        628        627        612        613        630        629        613        614        631        630        614        615        632        631        615        616        633        632        616        617        634        633        617        618        635        634        618        619        636        635        619        620        637        636        620        621        638        637        621        622        639        638        622        623        640        639        623        624        641        640        624        625        642        641        625        626        643        642        626        627        644        643        627        628        645        644        629        630        647        646        630        631        648        647        631        632        649        648        632        633        650        649        633        634        651        650        634        635        652        651        635        636        653        652        636        637        654        653        637        638        655        654        638        639        656        655        639        640        657        656        640        641        658        657        641        642        659        658        642        643        660        659        643        644        661        660        644        645        662        661        646        647        664        663        647        648        665        664        648        649        666        665        649        650        667        666        650        651        668        667        651        652        669        668        652        653        670        669        653        654        671        670        654        655        672        671        655        656        673        672        656        657        674        673        657        658        675        674        658        659        676        675        659        660        677        676        660        661        678        677        661        662        679        678        663        664        681        680        664        665        682        681        665        666        683        682        666        667        684        683        667        668        685        684        668        669        686        685        669        670        687        686        670        671        688        687        671        672        689        688        672        673        690        689        673        674        691        690        674        675        692        691        675        676        693        692        676        677        694        693        677        678        695        694        678        679        696        695        680        681        698        697        681        682        699        698        682        683        700        699        683        684        701        700        684        685        702        701        685        686        703        702        686        687        704        703        687        688        705        704        688        689        706        705        689        690        707        706        690        691        708        707        691        692        709        708        692        693        710        709        693        694        711        710        694        695        712        711        695        696        713        712        697        698        715        714        698        699        716        715        699        700        717        716        700        701        718        717        701        702        719        718        702        703        720        719        703        704        721        720        704        705        722        721        705        706        723        722        706        707        724        723        707        708        725        724        708        709        726        725        709        710        727        726        710        711        728        727        711        712        729        728        712        713        730        729        714        715        732        731        715        716        733        732        716        717        734        733        717        718        735        734        718        719        736        735        719        720        737        736        720        721        738        737        721        722        739        738        722        723        740        739        723        724        741        740        724        725        742        741        725        726        743        742        726        727        744        743        727        728        745        744        728        729        746        745        729        730        747        746        731        732        749        748        732        733        750        749        733        734        751        750        734        735        752        751        735        736        753        752        736        737        754        753        737        738        755        754        738        739        756        755        739        740        757        756        740        741        758        757        741        742        759        758        742        743        760        759        743        744        761        760        744        745        762        761        745        746        763        762        746        747        764        763        748        749        766        765        749        750        767        766        750        751        768        767        751        752        769        768        752        753        770        769        753        754        771        770        754        755        772        771        755        756        773        772        756        757        774        773        757        758        775        774        758        759        776        775        759        760        777        776        760        761        778        777        761        762        779        778        762        763        780        779        763        764        781        780        765        766        783        782        766        767        784        783        767        768        785        784        768        769        786        785        769        770        787        786        770        771        788        787        771        772        789        788        772        773        790        789        773        774        791        790        774        775        792        791        775        776        793        792        776        777        794        793        777        778        795        794        778        779        796        795        779        780        797        796        780        781        798        797        782        783        800        799        783        784        801        800        784        785        802        801        785        786        803        802        786        787        804        803        787        788        805        804        788        789        806        805        789        790        807        806        790        791        808        807        791        792        809        808        792        793        810        809        793        794        811        810        794        795        812        811        795        796        813        812        796        797        814        813        797        798        815        814        799        800        817        816        800        801        818        817        801        802        819        818        802        803        820        819        803        804        821        820        804        805        822        821        805        806        823        822        806        807        824        823        807        808        825        824        808        809        826        825        809        810        827        826        810        811        828        827        811        812        829        828        812        813        830        829        813        814        831        830        814        815        832        831        816        817        834        833        817        818        835        834        818        819        836        835        819        820        837        836        820        821        838        837        821        822        839        838        822        823        840        839        823        824        841        840        824        825        842        841        825        826        843        842        826        827        844        843        827        828        845        844        828        829        846        845        829        830        847        846        830        831        848        847        831        832        849        848        833        834        562        561        834        835        563        562        835        836        564        563        836        837        565        564        837        838        566        565        838        839        567        566        839        840        568        567        840        841        569        568        841        842        570        569        842        843        571        570        843        844        572        571        844        845        573        572        845        846        574        573        846        847        575        574        847        848        576        575        848        849        577        576        884        885        579        578        885        886        580        579        886        887        581        580        887        888        582        581        888        889        583        582        889        890        584        583        890        891        585        584        891        892        586        585        892        893        587        586        893        894        588        587        894        895        589        588        895        896        590        589        896        897        591        590        897        898        592        591        898        899        593        592        899        900        594        593        901        902        885        884        902        903        886        885        903        904        887        886        904        905        888        887        905        906        889        888        906        907        890        889        907        908        891        890        908        909        892        891        909        910        893        892        910        911        894        893        911        912        895        894        912        913        896        895        913        914        897        896        914        915        898        897        915        916        899        898        916        917        900        899        918        919        902        901        919        920        903        902        920        921        904        903        921        922        905        904        922        923        906        905        923        924        907        906        924        925        908        907        925        926        909        908        926        927        910        909        927        928        911        910        928        929        912        911        929        930        913        912        930        931        914        913        931        932        915        914        932        933        916        915        933        934        917        916        935        936        919        918        936        937        920        919        937        938        921        920        938        939        922        921        939        940        923        922        940        941        924        923        941        942        925        924        942        943        926        925        943        944        927        926        944        945        928        927        945        946        929        928        946        947        930        929        947        948        931        930        948        949        932        931        949        950        933        932        950        951        934        933        952        953        936        935        953        954        937        936        954        955        938        937        955        956        939        938        956        957        940        939        957        958        941        940        958        959        942        941        959        960        943        942        960        961        944        943        961        962        945        944        962        963        946        945        963        964        947        946        964        965        948        947        965        966        949        948        966        967        950        949        967        968        951        950        969        970        953        952        970        971        954        953        971        972        955        954        972        973        956        955        973        974        957        956        974        975        958        957        975        976        959        958        976        977        960        959        977        978        961        960        978        979        962        961        979        980        963        962        980        981        964        963        981        982        965        964        982        983        966        965        983        984        967        966        984        985        968        967        986        987        970        969        987        988        971        970        988        989        972        971        989        990        973        972        990        991        974        973        991        992        975        974        992        993        976        975        993        994        977        976        994        995        978        977        995        996        979        978        996        997        980        979        997        998        981        980        998        999        982        981        999       1000        983        982       1000       1001        984        983       1001       1002        985        984       1003       1004        987        986       1004       1005        988        987       1005       1006        989        988       1006       1007        990        989       1007       1008        991        990       1008       1009        992        991       1009       1010        993        992       1010       1011        994        993       1011       1012        995        994       1012       1013        996        995       1013       1014        997        996       1014       1015        998        997       1015       1016        999        998       1016       1017       1000        999       1017       1018       1001       1000       1018       1019       1002       1001       1020       1021       1004       1003       1021       1022       1005       1004       1022       1023       1006       1005       1023       1024       1007       1006       1024       1025       1008       1007       1025       1026       1009       1008       1026       1027       1010       1009       1027       1028       1011       1010       1028       1029       1012       1011       1029       1030       1013       1012       1030       1031       1014       1013       1031       1032       1015       1014       1032       1033       1016       1015       1033       1034       1017       1016       1034       1035       1018       1017       1035       1036       1019       1018       1037       1038       1021       1020       1038       1039       1022       1021       1039       1040       1023       1022       1040       1041       1024       1023       1041       1042       1025       1024       1042       1043       1026       1025       1043       1044       1027       1026       1044       1045       1028       1027       1045       1046       1029       1028       1046       1047       1030       1029       1047       1048       1031       1030       1048       1049       1032       1031       1049       1050       1033       1032       1050       1051       1034       1033       1051       1052       1035       1034       1052       1053       1036       1035       1054       1055       1038       1037       1055       1056       1039       1038       1056       1057       1040       1039       1057       1058       1041       1040       1058       1059       1042       1041       1059       1060       1043       1042       1060       1061       1044       1043       1061       1062       1045       1044       1062       1063       1046       1045       1063       1064       1047       1046       1064       1065       1048       1047       1065       1066       1049       1048       1066       1067       1050       1049       1067       1068       1051       1050       1068       1069       1052       1051       1069       1070       1053       1052       1071       1072       1055       1054       1072       1073       1056       1055       1073       1074       1057       1056       1074       1075       1058       1057       1075       1076       1059       1058       1076       1077       1060       1059       1077       1078       1061       1060       1078       1079       1062       1061       1079       1080       1063       1062       1080       1081       1064       1063       1081       1082       1065       1064       1082       1083       1066       1065       1083       1084       1067       1066       1084       1085       1068       1067       1085       1086       1069       1068       1086       1087       1070       1069       1088       1089       1072       1071       1089       1090       1073       1072       1090       1091       1074       1073       1091       1092       1075       1074       1092       1093       1076       1075       1093       1094       1077       1076       1094       1095       1078       1077       1095       1096       1079       1078       1096       1097       1080       1079       1097       1098       1081       1080       1098       1099       1082       1081       1099       1100       1083       1082       1100       1101       1084       1083       1101       1102       1085       1084       1102       1103       1086       1085       1103       1104       1087       1086       1105       1106       1089       1088       1106       1107       1090       1089       1107       1108       1091       1090       1108       1109       1092       1091       1109       1110       1093       1092       1110       1111       1094       1093       1111       1112       1095       1094       1112       1113       1096       1095       1113       1114       1097       1096       1114       1115       1098       1097       1115       1116       1099       1098       1116       1117       1100       1099       1117       1118       1101       1100       1118       1119       1102       1101       1119       1120       1103       1102       1120       1121       1104       1103       1122       1123       1106       1105       1123       1124       1107       1106       1124       1125       1108       1107       1125       1126       1109       1108       1126       1127       1110       1109       1127       1128       1111       1110       1128       1129       1112       1111       1129       1130       1113       1112       1130       1131       1114       1113       1131       1132       1115       1114       1132       1133       1116       1115       1133       1134       1117       1116       1134       1135       1118       1117       1135       1136       1119       1118       1136       1137       1120       1119       1137       1138       1121       1120        272        273       1123       1122        273        274       1124       1123        274        275       1125       1124        275        276       1126       1125        276        277       1127       1126        277        278       1128       1127        278        279       1129       1128        279        280       1130       1129        280        281       1131       1130        281        282       1132       1131        282        283       1133       1132        283        284       1134       1133        284        285       1135       1134        285        286       1136       1135        286        287       1137       1136        287        288       1138       1137 </DataArray>
<DataArray type="Int32"                                    Name="offsets"                                                      NumberOfComponents=" 1" format="ascii">
         4          8         12         16         20         24         28         32         36         40         44         48         52         56         60         64         68         72         76         80         84         88         92         96        100        104        108        112        116        120        124        128        132        136        140        144        148        152        156        160        164        168        172        176        180        184        188        192        196        200        204        208        212        216        220        224        228        232        236        240        244        248        252        256        260        264        268        272        276        280        284        288        292        296        300        304        308        312        316        320        324        328        332        336        340        344        348        352        356        360        364        368        372        376        380        384        388        392        396        400        404        408        412        416        420        424        428        432        436        440        444        448        452        456        460        464        468        472        476        480        484        488        492        496        500        504        508        512        516        520        524        528        532        536        540        544        548        552        556        560        564        568        572        576        580        584        588        592        596        600        604        608        612        616        620        624        628        632        636        640        644        648        652        656        660        664        668        672        676        680        684        688        692        696        700        704        708        712        716        720        724        728        732        736        740        744        748        752        756        760        764        768        772        776        780        784        788        792        796        800        804        808        812        816        820        824        828        832        836        840        844        848        852        856        860        864        868        872        876        880        884        888        892        896        900        904        908        912        916        920        924        928        932        936        940        944        948        952        956        960        964        968        972        976        980        984        988        992        996       1000       1004       1008       1012       1016       1020       1024       1028       1032       1036       1040       1044       1048       1052       1056       1060       1064       1068       1072       1076       1080       1084       1088       1092       1096       1100       1104       1108       1112       1116       1120       1124       1128       1132       1136       1140       1144       1148       1152       1156       1160       1164       1168       1172       1176       1180       1184       1188       1192       1196       1200       1204       1208       1212       1216       1220       1224       1228       1232       1236       1240       1244       1248       1252       1256       1260       1264       1268       1272       1276       1280       1284       1288       1292       1296       1300       1304       1308       1312       1316       1320       1324       1328       1332       1336       1340       1344       1348       1352       1356       1360       1364       1368       1372       1376       1380       1384       1388       1392       1396       1400       1404       1408       1412       1416       1420       1424       1428       1432       1436       1440       1444       1448       1452       1456       1460       1464       1468       1472       1476       1480       1484       1488       1492       1496       1500       1504       1508       1512       1516       1520       1524       1528       1532       1536       1540       1544       1548       1552       1556       1560       1564       1568       1572       1576       1580       1584       1588       1592       1596       1600       1604       1608       1612       1616       1620       1624       1628       1632       1636       1640       1644       1648       1652       1656       1660       1664       1668       1672       1676       1680       1684       1688       1692       1696       1700       1704       1708       1712       1716       1720       1724       1728       1732       1736       1740       1744       1748       1752       1756       1760       1764       1768       1772       1776       1780       1784       1788       1792       1796       1800       1804       1808       1812       1816       1820       1824       1828       1832       1836       1840       1844       1848       1852       1856       1860       1864       1868       1872       1876       1880       1884       1888       1892       1896       1900       1904       1908       1912       1916       1920       1924       1928       1932       1936       1940       1944       1948       1952       1956       1960       1964       1968       1972       1976       1980       1984       1988       1992       1996       2000       2004       2008       2012       2016       2020       2024       2028       2032       2036       2040       2044       2048       2052       2056       2060       2064       2068       2072       2076       2080       2084       2088       2092       2096       2100       2104       2108       2112       2116       2120       2124       2128       2132       2136       2140       2144       2148       2152       2156       2160       2164       2168       2172       2176       2180       2184       2188       2192       2196       2200       2204       2208       2212       2216       2220       2224       2228       2232       2236       2240       2244       2248       2252       2256       2260       2264       2268       2272       2276       2280       2284       2288       2292       2296       2300       2304       2308       2312       2316       2320       2324       2328       2332       2336       2340       2344       2348       2352       2356       2360       2364       2368       2372       2376       2380       2384       2388       2392       2396       2400       2404       2408       2412       2416       2420       2424       2428       2432       2436       2440       2444       2448       2452       2456       2460       2464       2468       2472       2476       2480       2484       2488       2492       2496       2500       2504       2508       2512       2516       2520       2524       2528       2532       2536       2540       2544       2548       2552       2556       2560       2564       2568       2572       2576       2580       2584       2588       2592       2596       2600       2604       2608       2612       2616       2620       2624       2628       2632       2636       2640       2644       2648       2652       2656       2660       2664       2668       2672       2676       2680       2684       2688       2692       2696       2700       2704       2708       2712       2716       2720       2724       2728       2732       2736       2740       2744       2748       2752       2756       2760       2764       2768       2772       2776       2780       2784       2788       2792       2796       2800       2804       2808       2812       2816       2820       2824       2828       2832       2836       2840       2844       2848       2852       2856       2860       2864       2868       2872       2876       2880       2884       2888       2892       2896       2900       2904       2908       2912       2916       2920       2924       2928       2932       2936       2940       2944       2948       2952       2956       2960       2964       2968       2972       2976       2980       2984       2988       2992       2996       3000       3004       3008       3012       3016       3020       3024       3028       3032       3036       3040       3044       3048       3052       3056       3060       3064       3068       3072       3076       3080       3084       3088       3092       3096       3100       3104       3108       3112       3116       3120       3124       3128       3132       3136       3140       3144       3148       3152       3156       3160       3164       3168       3172       3176       3180       3184       3188       3192       3196       3200       3204       3208       3212       3216       3220       3224       3228       3232       3236       3240       3244       3248       3252       3256       3260       3264       3268       3272       3276       3280       3284       3288       3292       3296       3300       3304       3308       3312       3316       3320       3324       3328       3332       3336       3340       3344       3348       3352       3356       3360       3364       3368       3372       3376       3380       3384       3388       3392       3396       3400       3404       3408       3412       3416       3420       3424       3428       3432       3436       3440       3444       3448       3452       3456       3460       3464       3468       3472       3476       3480       3484       3488       3492       3496       3500       3504       3508       3512       3516       3520       3524       3528       3532       3536       3540       3544       3548       3552       3556       3560       3564       3568       3572       3576       3580       3584       3588       3592       3596       3600       3604       3608       3612       3616       3620       3624       3628       3632       3636       3640       3644       3648       3652       3656       3660       3664       3668       3672       3676       3680       3684       3688       3692       3696       3700       3704       3708       3712       3716       3720       3724       3728       3732       3736       3740       3744       3748       3752       3756       3760       3764       3768       3772       3776       3780       3784       3788       3792       3796       3800       3804       3808       3812       3816       3820       3824       3828       3832       3836       3840       3844       3848       3852       3856       3860       3864       3868       3872       3876       3880       3884       3888       3892       3896       3900       3904       3908       3912       3916       3920       3924       3928       3932       3936       3940       3944       3948       3952       3956       3960       3964       3968       3972       3976       3980       3984       3988       3992       3996       4000       4004       4008       4012       4016       4020       4024       4028       4032       4036       4040       4044       4048       4052       4056       4060       4064       4068       4072       4076       4080       4084       4088       4092       4096 </DataArray>
<DataArray type="UInt8"                                    Name="types"                                                      NumberOfComponents=" 1" format="ascii">
         9          9          9          9          9          9          9          9          9          9          9          9          9          9          9          9          9          9          9          9          9          9          9          9          9          9          9          9          9          9          9          9          9          9          9          9          9          9          9          9          9          9          9          9          9          9          9          9          9          9          9          9          9          9          9          9          9          9          9          9          9          9          9          9          9          9          9          9          9          9          9          9          9          9          9          9          9          9          9          9          9          9          9          9          9          9          9          9          9          9          9          9          9          9          9          9          9          9          9          9          9          9          9          9          9          9          9          9          9          9          9          9          9          9          9          9          9          9          9          9          9          9          9          9          9          9          9          9          9          9          9          9          9          9          9          9          9          9          9          9          9          9          9          9          9          9          9          9          9          9          9          9          9          9          9          9          9          9          9          9          9          9          9          9          9          9          9          9          9          9          9          9          9          9          9          9          9          9          9          9          9          9          9          9          9          9          9          9          9          9          9          9          9          9          9          9          9          9          9          9          9          9          9          9          9          9          9          9          9          9          9          9          9          9          9          9          9          9          9          9          9          9          9          9          9          9          9          9          9          9          9          9          9          9          9          9          9          9          9          9          9          9          9          9          9          9          9          9          9          9          9          9          9          9          9          9          9          9          9          9          9          9          9          9          9          9          9          9          9          9          9          9          9          9          9          9          9          9          9          9          9          9          9          9          9          9          9          9          9          9          9          9          9          9          9          9          9          9          9          9          9          9          9          9          9          9          9          9          9          9          9          9          9          9          9          9          9          9          9          9          9          9          9          9          9          9          9          9          9          9          9          9          9          9          9          9          9          9          9          9          9          9          9          9          9          9          9          9          9          9          9          9          9          9          9          9          9          9          9          9          9          9          9          9          9          9          9          9          9          9          9          9          9          9          9          9          9          9          9          9          9          9          9          9          9          9          9          9          9          9          9          9          9          9          9          9          9          9          9          9          9          9          9          9          9          9          9          9          9          9          9          9          9          9          9          9          9          9          9          9          9          9          9          9          9          9          9          9          9          9          9          9          9          9          9          9          9          9          9          9          9          9          9          9          9          9          9          9          9          9          9          9          9          9          9          9          9          9          9          9          9          9          9          9          9          9          9          9          9          9          9          9          9          9          9          9          9          9          9          9          9          9          9          9          9          9          9          9          9          9          9          9          9          9          9          9          9          9          9          9          9          9          9          9          9          9          9          9          9          9          9          9          9          9          9          9          9          9          9          9          9          9          9          9          9          9          9          9          9          9          9          9          9          9          9          9          9          9          9          9          9          9          9          9          9          9          9          9          9          9          9          9          9          9          9          9          9          9          9          9          9          9          9          9          9          9          9          9          9          9          9          9          9          9          9          9          9          9          9          9          9          9          9          9          9          9          9          9          9          9          9          9          9          9          9          9          9          9          9          9          9          9          9          9          9          9          9          9          9          9          9          9          9          9          9          9          9          9          9          9          9          9          9          9          9          9          9          9          9          9          9          9          9          9          9          9          9          9          9          9          9          9          9          9          9          9          9          9          9          9          9          9          9          9          9          9          9          9          9          9          9          9          9          9          9          9          9          9          9          9          9          9          9          9          9          9          9          9          9          9          9          9          9          9          9          9          9          9          9          9          9          9          9          9          9          9          9          9          9          9          9          9          9          9          9          9          9          9          9          9          9          9          9          9          9          9          9          9          9          9          9          9          9          9          9          9          9          9          9          9          9          9          9          9          9          9          9          9          9          9          9          9          9          9          9          9          9          9          9          9          9          9          9          9          9          9          9          9          9          9          9          9          9          9          9          9          9          9          9          9          9          9          9          9          9          9          9          9          9          9          9          9          9          9          9          9          9          9          9          9          9          9          9          9          9          9          9          9          9          9          9          9          9          9          9          9          9          9          9          9          9          9          9          9          9          9          9          9          9          9          9          9          9          9          9          9          9          9          9          9          9          9          9          9          9          9          9          9          9          9          9          9          9          9          9          9          9          9          9          9          9          9          9          9          9          9          9          9          9          9          9          9          9          9          9          9          9          9          9          9          9          9          9          9          9          9          9          9          9          9          9          9          9          9          9          9          9          9          9          9          9          9          9          9          9          9          9          9          9          9          9          9          9          9          9          9          9          9          9          9          9          9          9          9          9          9          9          9          9          9          9          9          9          9          9          9          9          9          9          9          9          9          9          9          9          9          9          9          9          9          9          9          9          9          9          9          9          9          9          9          9          9          9          9          9          9          9          9          9          9          9          9          9          9          9          9          9          9          9          9          9          9          9          9          9          9          9          9          9          9          9          9          9          9          9          9          9          9          9          9          9          9          9          9          9          9          9          9          9          9          9          9          9          9          9          9          9          9          9          9          9          9          9          9          9          9          9          9          9          9          9          9          9          9 </DataArray>
</Cells>
<CellData>
<DataArray type="Int32"                                    Name="material"                                                      NumberOfComponents=" 1" format="ascii">
         1          1          1          1          1          1          1          1          1          1          1          1          1          1          1          1          1          1          1          1          1          1          1          1          1          1          1          1          1          1          1          1          1          1          1          1          1          1          1          1          1          1          1          1          1          1          1          1          1          1          1          1          1          1          1          1          1          1          1          1          1          1          1          1          1          1          1          1          1          1          1          1          1          1          1          1          1          1          1          1          1          1          1          1          1          1          1          1          1          1          1          1          1          1          1          1          1          1          1          1          1          1          1          1          1          1          1          1          1          1          1          1          1          1          1          1          1          1          1          1          1          1          1          1          1          1          1          1          1          1          1          1          1          1          1          1          1          1          1          1          1          1          1          1          1          1          1          1          1          1          1          1          1          1          1          1          1          1          1          1          1          1          1          1          1          1          1          1          1          1          1          1          1          1          1          1          1          1          1          1          1          1          1          1          1          1          1          1          1          1          1          1          1          1          1          1          1          1          1          1          1          1          1          1          1          1          1          1          1          1          1          1          1          1          1          1          1          1          1          1          1          1          1          1          1          1          1          1          1          1          1          1          1          1          1          1          1          1          1          1          1          1          1          1          1          1          1          1          1          1          1          1          1          1          1          1          1          1          1          1          1          1          1          1          1          1          1          1          1          1          1          1          1          1          1          1          1          1          1          1          1          1          1          1          1          1          1          1          1          1          1          1          1          1          1          1          1          1          1          1          1          1          1          1          1          1          1          1          1          1          1          1          1          1          1          1          1          1          1          1          1          1          1          1          1          1          1          1          1          1          1          1          1          1          1          1          1          1          1          1          1          1          1          1          1          1          1          1          1          1          1          1          1          1          1          1          1          1          1          1          1          1          1          1          1          1          1          1          1          1          1          1          1          1          1          1          1          1          1          1          1          1          1          1          1          1          1          1          1          1          1          1          1          1          1          1          1          1          1          1          1          1          1          1          1          1          1          1          1          1          1          1          1          1          1          1          1          1          1          1          1          1          1          1          1          1          1          1          1          1          1          1          1          1          1          1          1          1          1          1          1          1          1          1          1          1          1          1          1          1          1          1          1          1          1          1          1          1          1          1          1          1          1          1          1          1          1          1          1          1          1          1          1          1          1          1          1          1          1          1          1          1          1          1          1          1          1          1          1          1          1          1          1          1          1          1          1          1          1          1          1          1          1          1          1          1          1          1          1          1          1          1          1          1          1          1          1          1          1          1          1          1          1          1          1          1          1          1          1          1          1          1          1          1          1          1          1          1          1          1          1          1          1          1          1          1          1          1          1          1          1          1          1          1          1          1          1          1          1          1          1          1          1          1          1          1          1          1          1          1          1          1          1          1          1          1          1          1          1          1          1          1          1          1          1          1          1          1          1          1          1          1          1          1          1          1          1          1          1          1          1          1          1          1          1          1          1          1          1          1          1          1          1          1          1          1          1          1          1          1          1          1          1          1          1          1          1          1          1          1          1          1          1          1          1          1          1          1          1          1          1          1          1          1          1          1          1          1          1          1          1          1          1          1          1          1          1          1          1          1          1          1          1          1          1          1          1          1          1          1          1          1          1          1          1          1          1          1          1          1          1          1          1          1          1          1          1          1          1          1          1          1          1          1          1          1          1          1          1          1          1          1          1          1          1          1          1          1          1          1          1          1          1          1          1          1          1          1          1          1          1          1          1          1          1          1          1          1          1          1          1          1          1          1          1          1          1          1          1          1          1          1          1          1          1          1          1          1          1          1          1          1          1          1          1          1          1          1          1          1          1          1          1          1          1          1          1          1          1          1          1          1          1          1          1          1          1          1          1          1          1          1          1          1          1          1          1          1          1          1          1          1          1          1          1          1          1          1          1          1          1          1          1          1          1          1          1          1          1          1          1          1          1          1          1          1          1          1          1          1          1          1          1          1          1          1          1          1          1          1          1          1          1          1          1          1          1          1          1          1          1          1          1          1          1          1          1          1          1          1          1          1          1          1          1          1          1          1          1          1          1          1          1          1          1          1          1          1          1          1          1          1          1          1          1          1          1          1          1          1          1          1          1          1          1          1          1          1          1          1          1          1          1          1          1          1          1          1          1          1          1          1          1          1          1          1          1          1          1          1          1          1          1          1          1          1          1          1          1          1          1          1          1          1          1          1          1          1          1          1          1          1          1          1          1          1          1          1          1          1          1          1          1          1          1          1          1          1          1          1          1          1          1          1          1          1          1          1          1          1          1          1          1          1          1          1          1          1          1          1          1          1          1          1          1          1          1          1          1          1          1          1          1          1          1          1          1          1          1          1          1          1          1          1          1          1          1          1          1          1          1          1          1          1          1          1          1          1          1          1          1          1          1          1          1          1          1          1          1          1          1          1          1          1 </DataArray>
</CellData>
<PointData>
<DataArray type="Float64"                                    Name="u"                                                      NumberOfComponents=" 3" format="ascii">
              0.000008998              -0.000000000               0.999999999               0.000001569              -0.000000000               0.999999999              -0.000001865              -0.000000000               0.999999999              -0.000003594              -0.000000000               0.999999999              -0.000004656               0.000000000               0.999999999              -0.000005587              -0.000000000               0.999999999              -0.000006696               0.000000000               0.999999999              -0.000008164              -0.000000000               0.999999999              -0.000010006              -0.000000000               0.999999999              -0.000012323               0.000000000               0.999999999              -0.000015132               0.000000000               0.999999999              -0.000018410               0.000000000               0.999999999              -0.000022244               0.000000000               0.999999999              -0.000026682              -0.000000000               0.999999999              -0.000031598              -0.000000000               0.999999999              -0.000036872              -0.000000000               0.999999999              -0.000042565              -0.000000000               0.999999999               0.000008909               0.000018541               0.999999999               0.000001712               0.000016732               0.999999999              -0.000001588               0.000016258               0.999999999              -0.000003281               0.000016614               0.999999999              -0.000004389               0.000017533               0.999999999              -0.000005424               0.000018891               0.999999999              -0.000006659               0.000020532               0.999999999              -0.000008257               0.000022491               0.999999999              -0.000010283               0.000024609               0.999999999              -0.000012760               0.000026975               0.999999999              -0.000015744               0.000029509               0.999999999              -0.000019249               0.000032370               0.999999999              -0.000023308               0.000035362               0.999999999              -0.000027877               0.000038501               0.999999999              -0.000032882               0.000041657               0.999999999              -0.000038328               0.000044928               0.999999999              -0.000044188               0.000048465               0.999999999               0.000008675               0.000036948               0.999999999               0.000002170               0.000033264               0.999999999              -0.000000771               0.000032421               0.999999999              -0.000002417               0.000033225               0.999999999              -0.000003681               0.000035127               0.999999999              -0.000005003               0.000037848               0.999999999              -0.000006649               0.000041228               0.999999999              -0.000008700               0.000045059               0.999999999              -0.000011169               0.000049353               0.999999999              -0.000014157               0.000054015               0.999999999              -0.000017675               0.000059161               0.999999999              -0.000021732               0.000064731               0.999999999              -0.000026335               0.000070721               0.999999999              -0.000031422               0.000076829               0.999999999              -0.000036959               0.000082993               0.999999999              -0.000042841               0.000089457               0.999999999              -0.000049077               0.000096395               0.999999999               0.000008293               0.000055014               0.999999999               0.000002971               0.000049447               0.999999999               0.000000528               0.000048371               0.999999999              -0.000001117               0.000049770               0.999999999              -0.000002704               0.000052771               0.999999999              -0.000004555               0.000056969               0.999999999              -0.000006856               0.000062009               0.999999999              -0.000009609               0.000067832               0.999999999              -0.000012852               0.000074215               0.999999999              -0.000016607               0.000081263               0.999999999              -0.000020925               0.000088922               0.999999999              -0.000025803               0.000097295               0.999999999              -0.000031195               0.000106044               0.999999999              -0.000037018               0.000114960               0.999999999              -0.000043177               0.000123909               0.999999999              -0.000049692               0.000133335               0.999999999              -0.000056537               0.000143267               0.999999999               0.000007809               0.000072530               0.999999999               0.000004105               0.000065170               0.999999999               0.000002154               0.000064054               0.999999999               0.000000398               0.000066223               0.999999999              -0.000001704               0.000070501               0.999999999              -0.000004298               0.000076200               0.999999999              -0.000007438               0.000083050               0.999999999              -0.000011139               0.000090759               0.999999999              -0.000015321               0.000099281               0.999999999              -0.000020069               0.000108637               0.999999999              -0.000025371               0.000118854               0.999999999              -0.000031194               0.000129847               0.999999999              -0.000037485               0.000141208               0.999999999              -0.000044039               0.000152664               0.999999999              -0.000050897               0.000164233               0.999999999              -0.000058095               0.000176344               0.999999999              -0.000065552               0.000188887               0.999999999               0.000007295               0.000089360               0.999999999               0.000005457               0.000080325               0.999999999               0.000003935               0.000079418               0.999999999               0.000001875               0.000082550               0.999999999              -0.000000939               0.000088186               0.999999999              -0.000004394               0.000095488               0.999999999              -0.000008496               0.000104118               0.999999999              -0.000013178               0.000113775               0.999999999              -0.000018434               0.000124529               0.999999999              -0.000024226               0.000136259               0.999999999              -0.000030556               0.000149089               0.999999999              -0.000037319               0.000162547               0.999999999              -0.000044324               0.000176310               0.999999999              -0.000051587               0.000190243               0.999999999              -0.000059170               0.000204476               0.999999999              -0.000067110               0.000219328               0.999999999              -0.000075401               0.000234628               0.999999999               0.000006757               0.000105339               0.999999999               0.000006929               0.000094856               0.999999999               0.000005647               0.000094348               0.999999999               0.000003077               0.000098569               0.999999999              -0.000000521               0.000105629               0.999999999              -0.000004930               0.000114633               0.999999999              -0.000009993               0.000125180               0.999999999              -0.000015725               0.000136963               0.999999999              -0.000021982               0.000149969               0.999999999              -0.000028749               0.000164208               0.999999999              -0.000036083               0.000179511               0.999999999              -0.000043664               0.000195307               0.999999999              -0.000051404               0.000211438               0.999999999              -0.000059451               0.000227966               0.999999999              -0.000067881               0.000245135               0.999999999              -0.000076723               0.000263033               0.999999999              -0.000085953               0.000281380               0.999999999               0.000006147               0.000120221               0.999999999               0.000008381               0.000108712               0.999999999               0.000007117               0.000108740               0.999999999               0.000003881               0.000114104               0.999999999              -0.000000599               0.000122684               0.999999999              -0.000005924               0.000133545               0.999999999              -0.000011899               0.000146064               0.999999999              -0.000018480               0.000160094               0.999999999              -0.000025653               0.000175538               0.999999999              -0.000033446               0.000192370               0.999999999              -0.000041587               0.000210207               0.999999999              -0.000049905               0.000228529               0.999999999              -0.000058455               0.000247282               0.999999999              -0.000067373               0.000266863               0.999999999              -0.000076758               0.000287328               0.999999999              -0.000086544               0.000308569               0.999999999              -0.000096683               0.000330375               0.999999999               0.000005423               0.000133753               0.999999999               0.000009713               0.000121842               0.999999999               0.000008176               0.000122448               0.999999999               0.000004186               0.000129019               0.999999999              -0.000001141               0.000139205               0.999999999              -0.000007262               0.000151929               0.999999999              -0.000014015               0.000166621               0.999999999              -0.000021370               0.000183091               0.999999999              -0.000029438               0.000201243               0.999999999              -0.000038084               0.000220760               0.999999999              -0.000046878               0.000241288               0.999999999              -0.000055837               0.000262470               0.999999999              -0.000065093               0.000284568               0.999999999              -0.000074778               0.000307820               0.999999999              -0.000084844               0.000332291               0.999999999              -0.000095232               0.000357782               0.999999999              -0.000105953               0.000383901               0.999999999               0.000004464               0.000146398               0.999999999               0.000010397               0.000135344               0.999999999               0.000009680               0.000134728               0.999999999               0.000006248               0.000139872               0.999999999               0.000001517               0.000148545               0.999999999              -0.000003946               0.000159728               0.999999999              -0.000009852               0.000172904               0.999999999              -0.000016222               0.000187750               0.999999999              -0.000023115               0.000204162               0.999999999              -0.000030686               0.000221993               0.999999999              -0.000038467               0.000240952               0.999999999              -0.000046328               0.000260730               0.999999999              -0.000054254               0.000281368               0.999999999              -0.000062194               0.000302978               0.999999999              -0.000070428               0.000325875               0.999999999              -0.000079247               0.000350022               0.999999999              -0.000088502               0.000375320               0.999999999               0.000003589               0.000157802               0.999999999               0.000010445               0.000148186               0.999999999               0.000010556               0.000147001               0.999999999               0.000007862               0.000150997               0.999999999               0.000003743               0.000158301               0.999999999              -0.000000993               0.000168107               0.999999999              -0.000006090               0.000179837               0.999999999              -0.000011520               0.000193224               0.999999999              -0.000017382               0.000208075               0.999999999              -0.000023742               0.000224235               0.999999999              -0.000030459               0.000241600               0.999999999              -0.000037146               0.000259963               0.999999999              -0.000043775               0.000279231               0.999999999              -0.000050366               0.000299404               0.999999999              -0.000057176               0.000320600               0.999999999              -0.000064433               0.000343082               0.999999999              -0.000072104               0.000366858               0.999999999               0.000002780               0.000167735               0.999999999               0.000009886               0.000160116               0.999999999               0.000010702               0.000158849               0.999999999               0.000008741               0.000161996               0.999999999               0.000005398               0.000168276               0.999999999               0.000001361               0.000176878               0.999999999              -0.000002912               0.000187354               0.999999999              -0.000007438               0.000199458               0.999999999              -0.000012221               0.000212934               0.999999999              -0.000017449               0.000227639               0.999999999              -0.000022965               0.000243490               0.999999999              -0.000028411               0.000260476               0.999999999              -0.000033908               0.000278391               0.999999999              -0.000039506               0.000297179               0.999999999              -0.000045046               0.000316964               0.999999999              -0.000050697               0.000337866               0.999999999              -0.000056484               0.000360102               0.999999999               0.000002063               0.000176068               0.999999999               0.000008709               0.000170668               0.999999999               0.000010016               0.000169738               0.999999999               0.000008751               0.000172437               0.999999999               0.000006179               0.000177976               0.999999999               0.000002945               0.000185688               0.999999999              -0.000000496               0.000195149               0.999999999              -0.000004093               0.000206205               0.999999999              -0.000007840               0.000218547               0.999999999              -0.000011911               0.000232046               0.999999999              -0.000016144               0.000246621               0.999999999              -0.000020548               0.000262229               0.999999999              -0.000025020               0.000278878               0.999999999              -0.000029518               0.000296546               0.999999999              -0.000033941               0.000315301               0.999999999              -0.000038030               0.000335079               0.999999999              -0.000041887               0.000356062               0.999999999               0.000001456               0.000182735               0.999999999               0.000007026               0.000179443               0.999999999               0.000008459               0.000179093               0.999999999               0.000007778               0.000181667               0.999999999               0.000005954               0.000186760               0.999999999               0.000003567               0.000193867               0.999999999               0.000000979               0.000202645               0.999999999              -0.000001673               0.000212844               0.999999999              -0.000004477               0.000224277               0.999999999              -0.000007457               0.000236856               0.999999999              -0.000010583               0.000250405               0.999999999              -0.000013860               0.000264987               0.999999999              -0.000017216               0.000280638               0.999999999              -0.000020537               0.000297421               0.999999999              -0.000023741               0.000315443               0.999999999              -0.000026546               0.000334565               0.999999999              -0.000028718               0.000354692               0.999999999               0.000000913               0.000187583               0.999999999               0.000004928               0.000186002               0.999999999               0.000006137               0.000186350               0.999999999               0.000005832               0.000188989               0.999999999               0.000004713               0.000193830               0.999999999               0.000003150               0.000200611               0.999999999               0.000001417               0.000208935               0.999999999              -0.000000314               0.000218571               0.999999999              -0.000002203               0.000229345               0.999999999              -0.000004194               0.000241169               0.999999999              -0.000006219               0.000254092               0.999999999              -0.000008309               0.000268155               0.999999999              -0.000010515               0.000283258               0.999999999              -0.000012766               0.000299505               0.999999999              -0.000014736               0.000317017               0.999999999              -0.000016397               0.000335789               0.999999999              -0.000017391               0.000355491               0.999999999               0.000000429               0.000190528               0.999999999               0.000002542               0.000190070               0.999999999               0.000003235               0.000190920               0.999999999               0.000003119               0.000193703               0.999999999               0.000002613               0.000198459               0.999999999               0.000001820               0.000205046               0.999999999               0.000000997               0.000213136               0.999999999               0.000000098               0.000222479               0.999999999              -0.000000836               0.000232912               0.999999999              -0.000001894               0.000244346               0.999999999              -0.000002800               0.000256884               0.999999999              -0.000003766               0.000270597               0.999999999              -0.000004894               0.000285546               0.999999999              -0.000006067               0.000301723               0.999999999              -0.000007101               0.000319012               0.999999999              -0.000007699               0.000337510               0.999999999              -0.000007942               0.000356975               0.999999999              -0.000000000               0.000191507               0.999999999              -0.000000000               0.000191455               0.999999999              -0.000000000               0.000192489               0.999999999              -0.000000000               0.000195333               0.999999999               0.000000000               0.000200086               0.999999999              -0.000000000               0.000206606               0.999999999               0.000000000               0.000214619               0.999999999               0.000000000               0.000223874               0.999999999               0.000000000               0.000234163               0.999999999               0.000000000               0.000245531               0.999999999               0.000000000               0.000257991               0.999999999              -0.000000000               0.000271533               0.999999999              -0.000000000               0.000286404               0.999999999              -0.000000000               0.000302642               0.999999999              -0.000000000               0.000320041               0.999999999              -0.000000000               0.000338301               0.999999999              -0.000000000               0.000357457               0.999999999               0.000008998              -0.000000000               0.999999999               0.000001569              -0.000000000               0.999999999              -0.000001865              -0.000000000               0.999999999              -0.000003594              -0.000000000               0.999999999              -0.000004656               0.000000000               0.999999999              -0.000005587              -0.000000000               0.999999999              -0.000006696               0.000000000               0.999999999              -0.000008164              -0.000000000               0.999999999              -0.000010006              -0.000000000               0.999999999              -0.000012323               0.000000000               0.999999999              -0.000015132               0.000000000               0.999999999              -0.000018410               0.000000000               0.999999999              -0.000022244               0.000000000               0.999999999              -0.000026682              -0.000000000               0.999999999              -0.000031598              -0.000000000               0.999999999              -0.000036872              -0.000000000               0.999999999              -0.000042565              -0.000000000               0.999999999               0.000008909              -0.000018541               0.999999999               0.000001712              -0.000016732               0.999999999              -0.000001588              -0.000016258               0.999999999              -0.000003281              -0.000016614               0.999999999              -0.000004389              -0.000017533               0.999999999              -0.000005424              -0.000018891               0.999999999              -0.000006659              -0.000020532               0.999999999              -0.000008257              -0.000022491               0.999999999              -0.000010283              -0.000024609               0.999999999              -0.000012760              -0.000026975               0.999999999              -0.000015744              -0.000029509               0.999999999              -0.000019249              -0.000032370               0.999999999              -0.000023308              -0.000035362               0.999999999              -0.000027877              -0.000038501               0.999999999              -0.000032882              -0.000041657               0.999999999              -0.000038328              -0.000044928               0.999999999              -0.000044188              -0.000048465               0.999999999               0.000008675              -0.000036948               0.999999999               0.000002170              -0.000033264               0.999999999              -0.000000771              -0.000032421               0.999999999              -0.000002417              -0.000033225               0.999999999              -0.000003681              -0.000035127               0.999999999              -0.000005003              -0.000037848               0.999999999              -0.000006649              -0.000041228               0.999999999              -0.000008700              -0.000045059               0.999999999              -0.000011169              -0.000049353               0.999999999              -0.000014157              -0.000054015               0.999999999              -0.000017675              -0.000059161               0.999999999              -0.000021732              -0.000064731               0.999999999              -0.000026335              -0.000070721               0.999999999              -0.000031422              -0.000076829               0.999999999              -0.000036959              -0.000082993               0.999999999              -0.000042841              -0.000089457               0.999999999              -0.000049077              -0.000096395               0.999999999               0.000008293              -0.000055014               0.999999999               0.000002971              -0.000049447               0.999999999               0.000000528              -0.000048371               0.999999999              -0.000001117              -0.000049770               0.999999999              -0.000002704              -0.000052771               0.999999999              -0.000004555              -0.000056969               0.999999999              -0.000006856              -0.000062009               0.999999999              -0.000009609              -0.000067832               0.999999999              -0.000012852              -0.000074215               0.999999999              -0.000016607              -0.000081263               0.999999999              -0.000020925              -0.000088922               0.999999999              -0.000025803              -0.000097295               0.999999999              -0.000031195              -0.000106044               0.999999999              -0.000037018              -0.000114960               0.999999999              -0.000043177              -0.000123909               0.999999999              -0.000049692              -0.000133335               0.999999999              -0.000056537              -0.000143267               0.999999999               0.000007809              -0.000072530               0.999999999               0.000004105              -0.000065170               0.999999999               0.000002154              -0.000064054               0.999999999               0.000000398              -0.000066223               0.999999999              -0.000001704              -0.000070501               0.999999999              -0.000004298              -0.000076200               0.999999999              -0.000007438              -0.000083050               0.999999999              -0.000011139              -0.000090759               0.999999999              -0.000015321              -0.000099281               0.999999999              -0.000020069              -0.000108637               0.999999999              -0.000025371              -0.000118854               0.999999999              -0.000031194              -0.000129847               0.999999999              -0.000037485              -0.000141208               0.999999999              -0.000044039              -0.000152664               0.999999999              -0.000050897              -0.000164233               0.999999999              -0.000058095              -0.000176344               0.999999999              -0.000065552              -0.000188887               0.999999999               0.000007295              -0.000089360               0.999999999               0.000005457              -0.000080325               0.999999999               0.000003935              -0.000079418               0.999999999               0.000001875              -0.000082550               0.999999999              -0.000000939              -0.000088186               0.999999999              -0.000004394              -0.000095488               0.999999999              -0.000008496              -0.000104118               0.999999999              -0.000013178              -0.000113775               0.999999999              -0.000018434              -0.000124529               0.999999999              -0.000024226              -0.000136259               0.999999999              -0.000030556              -0.000149089               0.999999999              -0.000037319              -0.000162547               0.999999999              -0.000044324              -0.000176310               0.999999999              -0.000051587              -0.000190243               0.999999999              -0.000059170              -0.000204476               0.999999999              -0.000067110              -0.000219328               0.999999999              -0.000075401              -0.000234628               0.999999999               0.000006757              -0.000105339               0.999999999               0.000006929              -0.000094856               0.999999999               0.000005647              -0.000094348               0.999999999               0.000003077              -0.000098569               0.999999999              -0.000000521              -0.000105629               0.999999999              -0.000004930              -0.000114633               0.999999999              -0.000009993              -0.000125180               0.999999999              -0.000015725              -0.000136963               0.999999999              -0.000021982              -0.000149969               0.999999999              -0.000028749              -0.000164208               0.999999999              -0.000036083              -0.000179511               0.999999999              -0.000043664              -0.000195307               0.999999999              -0.000051404              -0.000211438               0.999999999              -0.000059451              -0.000227966               0.999999999              -0.000067881              -0.000245135               0.999999999              -0.000076723              -0.000263033               0.999999999              -0.000085953              -0.000281380               0.999999999               0.000006147              -0.000120221               0.999999999               0.000008381              -0.000108712               0.999999999               0.000007117              -0.000108740               0.999999999               0.000003881              -0.000114104               0.999999999              -0.000000599              -0.000122684               0.999999999              -0.000005924              -0.000133545               0.999999999              -0.000011899              -0.000146064               0.999999999              -0.000018480              -0.000160094               0.999999999              -0.000025653              -0.000175538               0.999999999              -0.000033446              -0.000192370               0.999999999              -0.000041587              -0.000210207               0.999999999              -0.000049905              -0.000228529               0.999999999              -0.000058455              -0.000247282               0.999999999              -0.000067373              -0.000266863               0.999999999              -0.000076758              -0.000287328               0.999999999              -0.000086544              -0.000308569               0.999999999              -0.000096683              -0.000330375               0.999999999               0.000005423              -0.000133753               0.999999999               0.000009713              -0.000121842               0.999999999               0.000008176              -0.000122448               0.999999999               0.000004186              -0.000129019               0.999999999              -0.000001141              -0.000139205               0.999999999              -0.000007262              -0.000151929               0.999999999              -0.000014015              -0.000166621               0.999999999              -0.000021370              -0.000183091               0.999999999              -0.000029438              -0.000201243               0.999999999              -0.000038084              -0.000220760               0.999999999              -0.000046878              -0.000241288               0.999999999              -0.000055837              -0.000262470               0.999999999              -0.000065093              -0.000284568               0.999999999              -0.000074778              -0.000307820               0.999999999              -0.000084844              -0.000332291               0.999999999              -0.000095232              -0.000357782               0.999999999              -0.000105953              -0.000383901               0.999999999               0.000004464              -0.000146398               0.999999999               0.000010397              -0.000135344               0.999999999               0.000009680              -0.000134728               0.999999999               0.000006248              -0.000139872               0.999999999               0.000001517              -0.000148545               0.999999999              -0.000003946              -0.000159728               0.999999999              -0.000009852              -0.000172904               0.999999999              -0.000016222              -0.000187750               0.999999999              -0.000023115              -0.000204162               0.999999999              -0.000030686              -0.000221993               0.999999999              -0.000038467              -0.000240952               0.999999999              -0.000046328              -0.000260730               0.999999999              -0.000054254              -0.000281368               0.999999999              -0.000062194              -0.000302978               0.999999999              -0.000070428              -0.000325875               0.999999999              -0.000079247              -0.000350022               0.999999999              -0.000088502              -0.000375320               0.999999999               0.000003589              -0.000157802               0.999999999               0.000010445              -0.000148186               0.999999999               0.000010556              -0.000147001               0.999999999               0.000007862              -0.000150997               0.999999999               0.000003743              -0.000158301               0.999999999              -0.000000993              -0.000168107               0.999999999              -0.000006090              -0.000179837               0.999999999              -0.000011520              -0.000193224               0.999999999              -0.000017382              -0.000208075               0.999999999              -0.000023742              -0.000224235               0.999999999              -0.000030459              -0.000241600               0.999999999              -0.000037146              -0.000259963               0.999999999              -0.000043775              -0.000279231               0.999999999              -0.000050366              -0.000299404               0.999999999              -0.000057176              -0.000320600               0.999999999              -0.000064433              -0.000343082               0.999999999              -0.000072104              -0.000366858               0.999999999               0.000002780              -0.000167735               0.999999999               0.000009886              -0.000160116               0.999999999               0.000010702              -0.000158849               0.999999999               0.000008741              -0.000161996               0.999999999               0.000005398              -0.000168276               0.999999999               0.000001361              -0.000176878               0.999999999              -0.000002912              -0.000187354               0.999999999              -0.000007438              -0.000199458               0.999999999              -0.000012221              -0.000212934               0.999999999              -0.000017449              -0.000227639               0.999999999              -0.000022965              -0.000243490               0.999999999              -0.000028411              -0.000260476               0.999999999              -0.000033908              -0.000278391               0.999999999              -0.000039506              -0.000297179               0.999999999              -0.000045046              -0.000316964               0.999999999              -0.000050697              -0.000337866               0.999999999              -0.000056484              -0.000360102               0.999999999               0.000002063              -0.000176068               0.999999999               0.000008709              -0.000170668               0.999999999               0.000010016              -0.000169738               0.999999999               0.000008751              -0.000172437               0.999999999               0.000006179              -0.000177976               0.999999999               0.000002945              -0.000185688               0.999999999              -0.000000496              -0.000195149               0.999999999              -0.000004093              -0.000206205               0.999999999              -0.000007840              -0.000218547               0.999999999              -0.000011911              -0.000232046               0.999999999              -0.000016144              -0.000246621               0.999999999              -0.000020548              -0.000262229               0.999999999              -0.000025020              -0.000278878               0.999999999              -0.000029518              -0.000296546               0.999999999              -0.000033941              -0.000315301               0.999999999              -0.000038030              -0.000335079               0.999999999              -0.000041887              -0.000356062               0.999999999               0.000001456              -0.000182735               0.999999999               0.000007026              -0.000179443               0.999999999               0.000008459              -0.000179093               0.999999999               0.000007778              -0.000181667               0.999999999               0.000005954              -0.000186760               0.999999999               0.000003567              -0.000193867               0.999999999               0.000000979              -0.000202645               0.999999999              -0.000001673              -0.000212844               0.999999999              -0.000004477              -0.000224277               0.999999999              -0.000007457              -0.000236856               0.999999999              -0.000010583              -0.000250405               0.999999999              -0.000013860              -0.000264987               0.999999999              -0.000017216              -0.000280638               0.999999999              -0.000020537              -0.000297421               0.999999999              -0.000023741              -0.000315443               0.999999999              -0.000026546              -0.000334565               0.999999999              -0.000028718              -0.000354692               0.999999999               0.000000913              -0.000187583               0.999999999               0.000004928              -0.000186002               0.999999999               0.000006137              -0.000186350               0.999999999               0.000005832              -0.000188989               0.999999999               0.000004713              -0.000193830               0.999999999               0.000003150              -0.000200611               0.999999999               0.000001417              -0.000208935               0.999999999              -0.000000314              -0.000218571               0.999999999              -0.000002203              -0.000229345               0.999999999              -0.000004194              -0.000241169               0.999999999              -0.000006219              -0.000254092               0.999999999              -0.000008309              -0.000268155               0.999999999              -0.000010515              -0.000283258               0.999999999              -0.000012766              -0.000299505               0.999999999              -0.000014736              -0.000317017               0.999999999              -0.000016397              -0.000335789               0.999999999              -0.000017391              -0.000355491               0.999999999               0.000000429              -0.000190528               0.999999999               0.000002542              -0.000190070               0.999999999               0.000003235              -0.000190920               0.999999999               0.000003119              -0.000193703               0.999999999               0.000002613              -0.000198459               0.999999999               0.000001820              -0.000205046               0.999999999               0.000000997              -0.000213136               0.999999999               0.000000098              -0.000222479               0.999999999              -0.000000836              -0.000232912               0.999999999              -0.000001894              -0.000244346               0.999999999              -0.000002800              -0.000256884               0.999999999              -0.000003766              -0.000270597               0.999999999              -0.000004894              -0.000285546               0.999999999              -0.000006067              -0.000301723               0.999999999              -0.000007101              -0.000319012               0.999999999              -0.000007699              -0.000337510               0.999999999              -0.000007942              -0.000356975               0.999999999               0.000000000              -0.000191507               0.999999999              -0.000000000              -0.000191455               0.999999999              -0.000000000              -0.000192489               0.999999999               0.000000000              -0.000195333               0.999999999              -0.000000000              -0.000200086               0.999999999              -0.000000000              -0.000206606               0.999999999               0.000000000              -0.000214619               0.999999999              -0.000000000              -0.000223874               0.999999999               0.000000000              -0.000234163               0.999999999              -0.000000000              -0.000245531               0.999999999               0.000000000              -0.000257991               0.999999999               0.000000000              -0.000271533               0.999999999               0.000000000              -0.000286404               0.999999999              -0.000000000              -0.000302642               0.999999999              -0.000000000              -0.000320041               0.999999999              -0.000000000              -0.000338301               0.999999999               0.000000000              -0.000357457               0.999999999              -0.000008998               0.000000000               0.999999999              -0.000001569              -0.000000000               0.999999999               0.000001865               0.000000000               0.999999999               0.000003594               0.000000000               0.999999999               0.000004656               0.000000000               0.999999999               0.000005587               0.000000000               0.999999999               0.000006696               0.000000000               0.999999999               0.000008164               0.000000000               0.999999999               0.000010006               0.000000000               0.999999999               0.000012323               0.000000000               0.999999999               0.000015132               0.000000000               0.999999999               0.000018410               0.000000000               0.999999999               0.000022244               0.000000000               0.999999999               0.000026682               0.000000000               0.999999999               0.000031598               0.000000000               0.999999999               0.000036872               0.000000000               0.999999999               0.000042565               0.000000000               0.999999999              -0.000008909              -0.000018541               0.999999999              -0.000001712              -0.000016732               0.999999999               0.000001588              -0.000016258               0.999999999               0.000003281              -0.000016614               0.999999999               0.000004389              -0.000017533               0.999999999               0.000005424              -0.000018891               0.999999999               0.000006659              -0.000020532               0.999999999               0.000008257              -0.000022491               0.999999999               0.000010283              -0.000024609               0.999999999               0.000012760              -0.000026975               0.999999999               0.000015744              -0.000029509               0.999999999               0.000019249              -0.000032370               0.999999999               0.000023308              -0.000035362               0.999999999               0.000027877              -0.000038501               0.999999999               0.000032882              -0.000041657               0.999999999               0.000038328              -0.000044928               0.999999999               0.000044188              -0.000048465               0.999999999              -0.000008675              -0.000036948               0.999999999              -0.000002170              -0.000033264               0.999999999               0.000000771              -0.000032421               0.999999999               0.000002417              -0.000033225               0.999999999               0.000003681              -0.000035127               0.999999999               0.000005003              -0.000037848               0.999999999               0.000006649              -0.000041228               0.999999999               0.000008700              -0.000045059               0.999999999               0.000011169              -0.000049353               0.999999999               0.000014157              -0.000054015               0.999999999               0.000017675              -0.000059161               0.999999999               0.000021732              -0.000064731               0.999999999               0.000026335              -0.000070721               0.999999999               0.000031422              -0.000076829               0.999999999               0.000036959              -0.000082993               0.999999999               0.000042841              -0.000089457               0.999999999               0.000049077              -0.000096395               0.999999999              -0.000008293              -0.000055014               0.999999999              -0.000002971              -0.000049447               0.999999999              -0.000000528              -0.000048371               0.999999999               0.000001117              -0.000049770               0.999999999               0.000002704              -0.000052771               0.999999999               0.000004555              -0.000056969               0.999999999               0.000006856              -0.000062009               0.999999999               0.000009609              -0.000067832               0.999999999               0.000012852              -0.000074215               0.999999999               0.000016607              -0.000081263               0.999999999               0.000020925              -0.000088922               0.999999999               0.000025803              -0.000097295               0.999999999               0.000031195              -0.000106044               0.999999999               0.000037018              -0.000114960               0.999999999               0.000043177              -0.000123909               0.999999999               0.000049692              -0.000133335               0.999999999               0.000056537              -0.000143267               0.999999999              -0.000007809              -0.000072530               0.999999999              -0.000004105              -0.000065170               0.999999999              -0.000002154              -0.000064054               0.999999999              -0.000000398              -0.000066223               0.999999999               0.000001704              -0.000070501               0.999999999               0.000004298              -0.000076200               0.999999999               0.000007438              -0.000083050               0.999999999               0.000011139              -0.000090759               0.999999999               0.000015321              -0.000099281               0.999999999               0.000020069              -0.000108637               0.999999999               0.000025371              -0.000118854               0.999999999               0.000031194              -0.000129847               0.999999999               0.000037485              -0.000141208               0.999999999               0.000044039              -0.000152664               0.999999999               0.000050897              -0.000164233               0.999999999               0.000058095              -0.000176344               0.999999999               0.000065552              -0.000188887               0.999999999              -0.000007295              -0.000089360               0.999999999              -0.000005457              -0.000080325               0.999999999              -0.000003935              -0.000079418               0.999999999              -0.000001875              -0.000082550               0.999999999               0.000000939              -0.000088186               0.999999999               0.000004394              -0.000095488               0.999999999               0.000008496              -0.000104118               0.999999999               0.000013178              -0.000113775               0.999999999               0.000018434              -0.000124529               0.999999999               0.000024226              -0.000136259               0.999999999               0.000030556              -0.000149089               0.999999999               0.000037319              -0.000162547               0.999999999               0.000044324              -0.000176310               0.999999999               0.000051587              -0.000190243               0.999999999               0.000059170              -0.000204476               0.999999999               0.000067110              -0.000219328               0.999999999               0.000075401              -0.000234628               0.999999999              -0.000006757              -0.000105339               0.999999999              -0.000006929              -0.000094856               0.999999999              -0.000005647              -0.000094348               0.999999999              -0.000003077              -0.000098569               0.999999999               0.000000521              -0.000105629               0.999999999               0.000004930              -0.000114633               0.999999999               0.000009993              -0.000125180               0.999999999               0.000015725              -0.000136963               0.999999999               0.000021982              -0.000149969               0.999999999               0.000028749              -0.000164208               0.999999999               0.000036083              -0.000179511               0.999999999               0.000043664              -0.000195307               0.999999999               0.000051404              -0.000211438               0.999999999               0.000059451              -0.000227966               0.999999999               0.000067881              -0.000245135               0.999999999               0.000076723              -0.000263033               0.999999999               0.000085953              -0.000281380               0.999999999              -0.000006147              -0.000120221               0.999999999              -0.000008381              -0.000108712               0.999999999              -0.000007117              -0.000108740               0.999999999              -0.000003881              -0.000114104               0.999999999               0.000000599              -0.000122684               0.999999999               0.000005924              -0.000133545               0.999999999               0.000011899              -0.000146064               0.999999999               0.000018480              -0.000160094               0.999999999               0.000025653              -0.000175538               0.999999999               0.000033446              -0.000192370               0.999999999               0.000041587              -0.000210207               0.999999999               0.000049905              -0.000228529               0.999999999               0.000058455              -0.000247282               0.999999999               0.000067373              -0.000266863               0.999999999               0.000076758              -0.000287328               0.999999999               0.000086544              -0.000308569               0.999999999               0.000096683              -0.000330375               0.999999999              -0.000005423              -0.000133753               0.999999999              -0.000009713              -0.000121842               0.999999999              -0.000008176              -0.000122448               0.999999999              -0.000004186              -0.000129019               0.999999999               0.000001141              -0.000139205               0.999999999               0.000007262              -0.000151929               0.999999999               0.000014015              -0.000166621               0.999999999               0.000021370              -0.000183091               0.999999999               0.000029438              -0.000201243               0.999999999               0.000038084              -0.000220760               0.999999999               0.000046878              -0.000241288               0.999999999               0.000055837              -0.000262470               0.999999999               0.000065093              -0.000284568               0.999999999               0.000074778              -0.000307820               0.999999999               0.000084844              -0.000332291               0.999999999               0.000095232              -0.000357782               0.999999999               0.000105953              -0.000383901               0.999999999              -0.000004464              -0.000146398               0.999999999              -0.000010397              -0.000135344               0.999999999              -0.000009680              -0.000134728               0.999999999              -0.000006248              -0.000139872               0.999999999              -0.000001517              -0.000148545               0.999999999               0.000003946              -0.000159728               0.999999999               0.000009852              -0.000172904               0.999999999               0.000016222              -0.000187750               0.999999999               0.000023115              -0.000204162               0.999999999               0.000030686              -0.000221993               0.999999999               0.000038467              -0.000240952               0.999999999               0.000046328              -0.000260730               0.999999999               0.000054254              -0.000281368               0.999999999               0.000062194              -0.000302978               0.999999999               0.000070428              -0.000325875               0.999999999               0.000079247              -0.000350022               0.999999999               0.000088502              -0.000375320               0.999999999              -0.000003589              -0.000157802               0.999999999              -0.000010445              -0.000148186               0.999999999              -0.000010556              -0.000147001               0.999999999              -0.000007862              -0.000150997               0.999999999              -0.000003743              -0.000158301               0.999999999               0.000000993              -0.000168107               0.999999999               0.000006090              -0.000179837               0.999999999               0.000011520              -0.000193224               0.999999999               0.000017382              -0.000208075               0.999999999               0.000023742              -0.000224235               0.999999999               0.000030459              -0.000241600               0.999999999               0.000037146              -0.000259963               0.999999999               0.000043775              -0.000279231               0.999999999               0.000050366              -0.000299404               0.999999999               0.000057176              -0.000320600               0.999999999               0.000064433              -0.000343082               0.999999999               0.000072104              -0.000366858               0.999999999              -0.000002780              -0.000167735               0.999999999              -0.000009886              -0.000160116               0.999999999              -0.000010702              -0.000158849               0.999999999              -0.000008741              -0.000161996               0.999999999              -0.000005398              -0.000168276               0.999999999              -0.000001361              -0.000176878               0.999999999               0.000002912              -0.000187354               0.999999999               0.000007438              -0.000199458               0.999999999               0.000012221              -0.000212934               0.999999999               0.000017449              -0.000227639               0.999999999               0.000022965              -0.000243490               0.999999999               0.000028411              -0.000260476               0.999999999               0.000033908              -0.000278391               0.999999999               0.000039506              -0.000297179               0.999999999               0.000045046              -0.000316964               0.999999999               0.000050697              -0.000337866               0.999999999               0.000056484              -0.000360102               0.999999999              -0.000002063              -0.000176068               0.999999999              -0.000008709              -0.000170668               0.999999999              -0.000010016              -0.000169738               0.999999999              -0.000008751              -0.000172437               0.999999999              -0.000006179              -0.000177976               0.999999999              -0.000002945              -0.000185688               0.999999999               0.000000496              -0.000195149               0.999999999               0.000004093              -0.000206205               0.999999999               0.000007840              -0.000218547               0.999999999               0.000011911              -0.000232046               0.999999999               0.000016144              -0.000246621               0.999999999               0.000020548              -0.000262229               0.999999999               0.000025020              -0.000278878               0.999999999               0.000029518              -0.000296546               0.999999999               0.000033941              -0.000315301               0.999999999               0.000038030              -0.000335079               0.999999999               0.000041887              -0.000356062               0.999999999              -0.000001456              -0.000182735               0.999999999              -0.000007026              -0.000179443               0.999999999              -0.000008459              -0.000179093               0.999999999              -0.000007778              -0.000181667               0.999999999              -0.000005954              -0.000186760               0.999999999              -0.000003567              -0.000193867               0.999999999              -0.000000979              -0.000202645               0.999999999               0.000001673              -0.000212844               0.999999999               0.000004477              -0.000224277               0.999999999               0.000007457              -0.000236856               0.999999999               0.000010583              -0.000250405               0.999999999               0.000013860              -0.000264987               0.999999999               0.000017216              -0.000280638               0.999999999               0.000020537              -0.000297421               0.999999999               0.000023741              -0.000315443               0.999999999               0.000026546              -0.000334565               0.999999999               0.000028718              -0.000354692               0.999999999              -0.000000913              -0.000187583               0.999999999              -0.000004928              -0.000186002               0.999999999              -0.000006137              -0.000186350               0.999999999              -0.000005832              -0.000188989               0.999999999              -0.000004713              -0.000193830               0.999999999              -0.000003150              -0.000200611               0.999999999              -0.000001417              -0.000208935               0.999999999               0.000000314              -0.000218571               0.999999999               0.000002203              -0.000229345               0.999999999               0.000004194              -0.000241169               0.999999999               0.000006219              -0.000254092               0.999999999               0.000008309              -0.000268155               0.999999999               0.000010515              -0.000283258               0.999999999               0.000012766              -0.000299505               0.999999999               0.000014736              -0.000317017               0.999999999               0.000016397              -0.000335789               0.999999999               0.000017391              -0.000355491               0.999999999              -0.000000429              -0.000190528               0.999999999              -0.000002542              -0.000190070               0.999999999              -0.000003235              -0.000190920               0.999999999              -0.000003119              -0.000193703               0.999999999              -0.000002613              -0.000198459               0.999999999              -0.000001820              -0.000205046               0.999999999              -0.000000997              -0.000213136               0.999999999              -0.000000098              -0.000222479               0.999999999               0.000000836              -0.000232912               0.999999999               0.000001894              -0.000244346               0.999999999               0.000002800              -0.000256884               0.999999999               0.000003766              -0.000270597               0.999999999               0.000004894              -0.000285546               0.999999999               0.000006067              -0.000301723               0.999999999               0.000007101              -0.000319012               0.999999999               0.000007699              -0.000337510               0.999999999               0.000007942              -0.000356975               0.999999999               0.000000000              -0.000191507               0.999999999              -0.000000000              -0.000191455               0.999999999              -0.000000000              -0.000192489               0.999999999               0.000000000              -0.000195333               0.999999999              -0.000000000              -0.000200086               0.999999999              -0.000000000              -0.000206606               0.999999999               0.000000000              -0.000214619               0.999999999              -0.000000000              -0.000223874               0.999999999               0.000000000              -0.000234163               0.999999999              -0.000000000              -0.000245531               0.999999999               0.000000000              -0.000257991               0.999999999               0.000000000              -0.000271533               0.999999999               0.000000000              -0.000286404               0.999999999              -0.000000000              -0.000302642               0.999999999              -0.000000000              -0.000320041               0.999999999              -0.000000000              -0.000338301               0.999999999               0.000000000              -0.000357457               0.999999999              -0.000008998               0.000000000               0.999999999              -0.000001569              -0.000000000               0.999999999               0.000001865               0.000000000               0.999999999               0.000003594               0.000000000               0.999999999               0.000004656               0.000000000               0.999999999               0.000005587               0.000000000               0.999999999               0.000006696               0.000000000               0.999999999               0.000008164               0.000000000               0.999999999               0.000010006               0.000000000               0.999999999               0.000012323               0.000000000               0.999999999               0.000015132               0.000000000               0.999999999               0.000018410               0.000000000               0.999999999               0.000022244               0.000000000               0.999999999               0.000026682               0.000000000               0.999999999               0.000031598               0.000000000               0.999999999               0.000036872               0.000000000               0.999999999               0.000042565               0.000000000               0.999999999              -0.000008909               0.000018541               0.999999999              -0.000001712               0.000016732               0.999999999               0.000001588               0.000016258               0.999999999               0.000003281               0.000016614               0.999999999               0.000004389               0.000017533               0.999999999               0.000005424               0.000018891               0.999999999               0.000006659               0.000020532               0.999999999               0.000008257               0.000022491               0.999999999               0.000010283               0.000024609               0.999999999               0.000012760               0.000026975               0.999999999               0.000015744               0.000029509               0.999999999               0.000019249               0.000032370               0.999999999               0.000023308               0.000035362               0.999999999               0.000027877               0.000038501               0.999999999               0.000032882               0.000041657               0.999999999               0.000038328               0.000044928               0.999999999               0.000044188               0.000048465               0.999999999              -0.000008675               0.000036948               0.999999999              -0.000002170               0.000033264               0.999999999               0.000000771               0.000032421               0.999999999               0.000002417               0.000033225               0.999999999               0.000003681               0.000035127               0.999999999               0.000005003               0.000037848               0.999999999               0.000006649               0.000041228               0.999999999               0.000008700               0.000045059               0.999999999               0.000011169               0.000049353               0.999999999               0.000014157               0.000054015               0.999999999               0.000017675               0.000059161               0.999999999               0.000021732               0.000064731               0.999999999               0.000026335               0.000070721               0.999999999               0.000031422               0.000076829               0.999999999               0.000036959               0.000082993               0.999999999               0.000042841               0.000089457               0.999999999               0.000049077               0.000096395               0.999999999              -0.000008293               0.000055014               0.999999999              -0.000002971               0.000049447               0.999999999              -0.000000528               0.000048371               0.999999999               0.000001117               0.000049770               0.999999999               0.000002704               0.000052771               0.999999999               0.000004555               0.000056969               0.999999999               0.000006856               0.000062009               0.999999999               0.000009609               0.000067832               0.999999999               0.000012852               0.000074215               0.999999999               0.000016607               0.000081263               0.999999999               0.000020925               0.000088922               0.999999999               0.000025803               0.000097295               0.999999999               0.000031195               0.000106044               0.999999999               0.000037018               0.000114960               0.999999999               0.000043177               0.000123909               0.999999999               0.000049692               0.000133335               0.999999999               0.000056537               0.000143267               0.999999999              -0.000007809               0.000072530               0.999999999              -0.000004105               0.000065170               0.999999999              -0.000002154               0.000064054               0.999999999              -0.000000398               0.000066223               0.999999999               0.000001704               0.000070501               0.999999999               0.000004298               0.000076200               0.999999999               0.000007438               0.000083050               0.999999999               0.000011139               0.000090759               0.999999999               0.000015321               0.000099281               0.999999999               0.000020069               0.000108637               0.999999999               0.000025371               0.000118854               0.999999999               0.000031194               0.000129847               0.999999999               0.000037485               0.000141208               0.999999999               0.000044039               0.000152664               0.999999999               0.000050897               0.000164233               0.999999999               0.000058095               0.000176344               0.999999999               0.000065552               0.000188887               0.999999999              -0.000007295               0.000089360               0.999999999              -0.000005457               0.000080325               0.999999999              -0.000003935               0.000079418               0.999999999              -0.000001875               0.000082550               0.999999999               0.000000939               0.000088186               0.999999999               0.000004394               0.000095488               0.999999999               0.000008496               0.000104118               0.999999999               0.000013178               0.000113775               0.999999999               0.000018434               0.000124529               0.999999999               0.000024226               0.000136259               0.999999999               0.000030556               0.000149089               0.999999999               0.000037319               0.000162547               0.999999999               0.000044324               0.000176310               0.999999999               0.000051587               0.000190243               0.999999999               0.000059170               0.000204476               0.999999999               0.000067110               0.000219328               0.999999999               0.000075401               0.000234628               0.999999999              -0.000006757               0.000105339               0.999999999              -0.000006929               0.000094856               0.999999999              -0.000005647               0.000094348               0.999999999              -0.000003077               0.000098569               0.999999999               0.000000521               0.000105629               0.999999999               0.000004930               0.000114633               0.999999999               0.000009993               0.000125180               0.999999999               0.000015725               0.000136963               0.999999999               0.000021982               0.000149969               0.999999999               0.000028749               0.000164208               0.999999999               0.000036083               0.000179511               0.999999999               0.000043664               0.000195307               0.999999999               0.000051404               0.000211438               0.999999999               0.000059451               0.000227966               0.999999999               0.000067881               0.000245135               0.999999999               0.000076723               0.000263033               0.999999999               0.000085953               0.000281380               0.999999999              -0.000006147               0.000120221               0.999999999              -0.000008381               0.000108712               0.999999999              -0.000007117               0.000108740               0.999999999              -0.000003881               0.000114104               0.999999999               0.000000599               0.000122684               0.999999999               0.000005924               0.000133545               0.999999999               0.000011899               0.000146064               0.999999999               0.000018480               0.000160094               0.999999999               0.000025653               0.000175538               0.999999999               0.000033446               0.000192370               0.999999999               0.000041587               0.000210207               0.999999999               0.000049905               0.000228529               0.999999999               0.000058455               0.000247282               0.999999999               0.000067373               0.000266863               0.999999999               0.000076758               0.000287328               0.999999999               0.000086544               0.000308569               0.999999999               0.000096683               0.000330375               0.999999999              -0.000005423               0.000133753               0.999999999              -0.000009713               0.000121842               0.999999999              -0.000008176               0.000122448               0.999999999              -0.000004186               0.000129019               0.999999999               0.000001141               0.000139205               0.999999999               0.000007262               0.000151929               0.999999999               0.000014015               0.000166621               0.999999999               0.000021370               0.000183091               0.999999999               0.000029438               0.000201243               0.999999999               0.000038084               0.000220760               0.999999999               0.000046878               0.000241288               0.999999999               0.000055837               0.000262470               0.999999999               0.000065093               0.000284568               0.999999999               0.000074778               0.000307820               0.999999999               0.000084844               0.000332291               0.999999999               0.000095232               0.000357782               0.999999999               0.000105953               0.000383901               0.999999999              -0.000004464               0.000146398               0.999999999              -0.000010397               0.000135344               0.999999999              -0.000009680               0.000134728               0.999999999              -0.000006248               0.000139872               0.999999999              -0.000001517               0.000148545               0.999999999               0.000003946               0.000159728               0.999999999               0.000009852               0.000172904               0.999999999               0.000016222               0.000187750               0.999999999               0.000023115               0.000204162               0.999999999               0.000030686               0.000221993               0.999999999               0.000038467               0.000240952               0.999999999               0.000046328               0.000260730               0.999999999               0.000054254               0.000281368               0.999999999               0.000062194               0.000302978               0.999999999               0.000070428               0.000325875               0.999999999               0.000079247               0.000350022               0.999999999               0.000088502               0.000375320               0.999999999              -0.000003589               0.000157802               0.999999999              -0.000010445               0.000148186               0.999999999              -0.000010556               0.000147001               0.999999999              -0.000007862               0.000150997               0.999999999              -0.000003743               0.000158301               0.999999999               0.000000993               0.000168107               0.999999999               0.000006090               0.000179837               0.999999999               0.000011520               0.000193224               0.999999999               0.000017382               0.000208075               0.999999999               0.000023742               0.000224235               0.999999999               0.000030459               0.000241600               0.999999999               0.000037146               0.000259963               0.999999999               0.000043775               0.000279231               0.999999999               0.000050366               0.000299404               0.999999999               0.000057176               0.000320600               0.999999999               0.000064433               0.000343082               0.999999999               0.000072104               0.000366858               0.999999999              -0.000002780               0.000167735               0.999999999              -0.000009886               0.000160116               0.999999999              -0.000010702               0.000158849               0.999999999              -0.000008741               0.000161996               0.999999999              -0.000005398               0.000168276               0.999999999              -0.000001361               0.000176878               0.999999999               0.000002912               0.000187354               0.999999999               0.000007438               0.000199458               0.999999999               0.000012221               0.000212934               0.999999999               0.000017449               0.000227639               0.999999999               0.000022965               0.000243490               0.999999999               0.000028411               0.000260476               0.999999999               0.000033908               0.000278391               0.999999999               0.000039506               0.000297179               0.999999999               0.000045046               0.000316964               0.999999999               0.000050697               0.000337866               0.999999999               0.000056484               0.000360102               0.999999999              -0.000002063               0.000176068               0.999999999              -0.000008709               0.000170668               0.999999999              -0.000010016               0.000169738               0.999999999              -0.000008751               0.000172437               0.999999999              -0.000006179               0.000177976               0.999999999              -0.000002945               0.000185688               0.999999999               0.000000496               0.000195149               0.999999999               0.000004093               0.000206205               0.999999999               0.000007840               0.000218547               0.999999999               0.000011911               0.000232046               0.999999999               0.000016144               0.000246621               0.999999999               0.000020548               0.000262229               0.999999999               0.000025020               0.000278878               0.999999999               0.000029518               0.000296546               0.999999999               0.000033941               0.000315301               0.999999999               0.000038030               0.000335079               0.999999999               0.000041887               0.000356062               0.999999999              -0.000001456               0.000182735               0.999999999              -0.000007026               0.000179443               0.999999999              -0.000008459               0.000179093               0.999999999              -0.000007778               0.000181667               0.999999999              -0.000005954               0.000186760               0.999999999              -0.000003567               0.000193867               0.999999999              -0.000000979               0.000202645               0.999999999               0.000001673               0.000212844               0.999999999               0.000004477               0.000224277               0.999999999               0.000007457               0.000236856               0.999999999               0.000010583               0.000250405               0.999999999               0.000013860               0.000264987               0.999999999               0.000017216               0.000280638               0.999999999               0.000020537               0.000297421               0.999999999               0.000023741               0.000315443               0.999999999               0.000026546               0.000334565               0.999999999               0.000028718               0.000354692               0.999999999              -0.000000913               0.000187583               0.999999999              -0.000004928               0.000186002               0.999999999              -0.000006137               0.000186350               0.999999999              -0.000005832               0.000188989               0.999999999              -0.000004713               0.000193830               0.999999999              -0.000003150               0.000200611               0.999999999              -0.000001417               0.000208935               0.999999999               0.000000314               0.000218571               0.999999999               0.000002203               0.000229345               0.999999999               0.000004194               0.000241169               0.999999999               0.000006219               0.000254092               0.999999999               0.000008309               0.000268155               0.999999999               0.000010515               0.000283258               0.999999999               0.000012766               0.000299505               0.999999999               0.000014736               0.000317017               0.999999999               0.000016397               0.000335789               0.999999999               0.000017391               0.000355491               0.999999999              -0.000000429               0.000190528               0.999999999              -0.000002542               0.000190070               0.999999999              -0.000003235               0.000190920               0.999999999              -0.000003119               0.000193703               0.999999999              -0.000002613               0.000198459               0.999999999              -0.000001820               0.000205046               0.999999999              -0.000000997               0.000213136               0.999999999              -0.000000098               0.000222479               0.999999999               0.000000836               0.000232912               0.999999999               0.000001894               0.000244346               0.999999999               0.000002800               0.000256884               0.999999999               0.000003766               0.000270597               0.999999999               0.000004894               0.000285546               0.999999999               0.000006067               0.000301723               0.999999999               0.000007101               0.000319012               0.999999999               0.000007699               0.000337510               0.999999999               0.000007942               0.000356975               0.999999999              -0.000000000               0.000191507               0.999999999              -0.000000000               0.000191455               0.999999999              -0.000000000               0.000192489               0.999999999              -0.000000000               0.000195333               0.999999999               0.000000000               0.000200086               0.999999999              -0.000000000               0.000206606               0.999999999               0.000000000               0.000214619               0.999999999               0.000000000               0.000223874               0.999999999               0.000000000               0.000234163               0.999999999               0.000000000               0.000245531               0.999999999               0.000000000               0.000257991               0.999999999              -0.000000000               0.000271533               0.999999999              -0.000000000               0.000286404               0.999999999              -0.000000000               0.000302642               0.999999999              -0.000000000               0.000320041               0.999999999              -0.000000000               0.000338301               0.999999999              -0.000000000               0.000357457               0.999999999 </DataArray>
<DataArray type="Float64"                                    Name="defo"                                                      NumberOfComponents=" 3" format="ascii">
              0.000008998              -0.000000000               0.999999999               0.000001569              -0.000000000               0.999999999              -0.000001865              -0.000000000               0.999999999              -0.000003594              -0.000000000               0.999999999              -0.000004656               0.000000000               0.999999999              -0.000005587              -0.000000000               0.999999999              -0.000006696               0.000000000               0.999999999              -0.000008164              -0.000000000               0.999999999              -0.000010006              -0.000000000               0.999999999              -0.000012323               0.000000000               0.999999999              -0.000015132               0.000000000               0.999999999              -0.000018410               0.000000000               0.999999999              -0.000022244               0.000000000               0.999999999              -0.000026682              -0.000000000               0.999999999              -0.000031598              -0.000000000               0.999999999              -0.000036872              -0.000000000               0.999999999              -0.000042565              -0.000000000               0.999999999               0.000008909               0.000018541               0.999999999               0.000001712               0.000016732               0.999999999              -0.000001588               0.000016258               0.999999999              -0.000003281               0.000016614               0.999999999              -0.000004389               0.000017533               0.999999999              -0.000005424               0.000018891               0.999999999              -0.000006659               0.000020532               0.999999999              -0.000008257               0.000022491               0.999999999              -0.000010283               0.000024609               0.999999999              -0.000012760               0.000026975               0.999999999              -0.000015744               0.000029509               0.999999999              -0.000019249               0.000032370               0.999999999              -0.000023308               0.000035362               0.999999999              -0.000027877               0.000038501               0.999999999              -0.000032882               0.000041657               0.999999999              -0.000038328               0.000044928               0.999999999              -0.000044188               0.000048465               0.999999999               0.000008675               0.000036948               0.999999999               0.000002170               0.000033264               0.999999999              -0.000000771               0.000032421               0.999999999              -0.000002417               0.000033225               0.999999999              -0.000003681               0.000035127               0.999999999              -0.000005003               0.000037848               0.999999999              -0.000006649               0.000041228               0.999999999              -0.000008700               0.000045059               0.999999999              -0.000011169               0.000049353               0.999999999              -0.000014157               0.000054015               0.999999999              -0.000017675               0.000059161               0.999999999              -0.000021732               0.000064731               0.999999999              -0.000026335               0.000070721               0.999999999              -0.000031422               0.000076829               0.999999999              -0.000036959               0.000082993               0.999999999              -0.000042841               0.000089457               0.999999999              -0.000049077               0.000096395               0.999999999               0.000008293               0.000055014               0.999999999               0.000002971               0.000049447               0.999999999               0.000000528               0.000048371               0.999999999              -0.000001117               0.000049770               0.999999999              -0.000002704               0.000052771               0.999999999              -0.000004555               0.000056969               0.999999999              -0.000006856               0.000062009               0.999999999              -0.000009609               0.000067832               0.999999999              -0.000012852               0.000074215               0.999999999              -0.000016607               0.000081263               0.999999999              -0.000020925               0.000088922               0.999999999              -0.000025803               0.000097295               0.999999999              -0.000031195               0.000106044               0.999999999              -0.000037018               0.000114960               0.999999999              -0.000043177               0.000123909               0.999999999              -0.000049692               0.000133335               0.999999999              -0.000056537               0.000143267               0.999999999               0.000007809               0.000072530               0.999999999               0.000004105               0.000065170               0.999999999               0.000002154               0.000064054               0.999999999               0.000000398               0.000066223               0.999999999              -0.000001704               0.000070501               0.999999999              -0.000004298               0.000076200               0.999999999              -0.000007438               0.000083050               0.999999999              -0.000011139               0.000090759               0.999999999              -0.000015321               0.000099281               0.999999999              -0.000020069               0.000108637               0.999999999              -0.000025371               0.000118854               0.999999999              -0.000031194               0.000129847               0.999999999              -0.000037485               0.000141208               0.999999999              -0.000044039               0.000152664               0.999999999              -0.000050897               0.000164233               0.999999999              -0.000058095               0.000176344               0.999999999              -0.000065552               0.000188887               0.999999999               0.000007295               0.000089360               0.999999999               0.000005457               0.000080325               0.999999999               0.000003935               0.000079418               0.999999999               0.000001875               0.000082550               0.999999999              -0.000000939               0.000088186               0.999999999              -0.000004394               0.000095488               0.999999999              -0.000008496               0.000104118               0.999999999              -0.000013178               0.000113775               0.999999999              -0.000018434               0.000124529               0.999999999              -0.000024226               0.000136259               0.999999999              -0.000030556               0.000149089               0.999999999              -0.000037319               0.000162547               0.999999999              -0.000044324               0.000176310               0.999999999              -0.000051587               0.000190243               0.999999999              -0.000059170               0.000204476               0.999999999              -0.000067110               0.000219328               0.999999999              -0.000075401               0.000234628               0.999999999               0.000006757               0.000105339               0.999999999               0.000006929               0.000094856               0.999999999               0.000005647               0.000094348               0.999999999               0.000003077               0.000098569               0.999999999              -0.000000521               0.000105629               0.999999999              -0.000004930               0.000114633               0.999999999              -0.000009993               0.000125180               0.999999999              -0.000015725               0.000136963               0.999999999              -0.000021982               0.000149969               0.999999999              -0.000028749               0.000164208               0.999999999              -0.000036083               0.000179511               0.999999999              -0.000043664               0.000195307               0.999999999              -0.000051404               0.000211438               0.999999999              -0.000059451               0.000227966               0.999999999              -0.000067881               0.000245135               0.999999999              -0.000076723               0.000263033               0.999999999              -0.000085953               0.000281380               0.999999999               0.000006147               0.000120221               0.999999999               0.000008381               0.000108712               0.999999999               0.000007117               0.000108740               0.999999999               0.000003881               0.000114104               0.999999999              -0.000000599               0.000122684               0.999999999              -0.000005924               0.000133545               0.999999999              -0.000011899               0.000146064               0.999999999              -0.000018480               0.000160094               0.999999999              -0.000025653               0.000175538               0.999999999              -0.000033446               0.000192370               0.999999999              -0.000041587               0.000210207               0.999999999              -0.000049905               0.000228529               0.999999999              -0.000058455               0.000247282               0.999999999              -0.000067373               0.000266863               0.999999999              -0.000076758               0.000287328               0.999999999              -0.000086544               0.000308569               0.999999999              -0.000096683               0.000330375               0.999999999               0.000005423               0.000133753               0.999999999               0.000009713               0.000121842               0.999999999               0.000008176               0.000122448               0.999999999               0.000004186               0.000129019               0.999999999              -0.000001141               0.000139205               0.999999999              -0.000007262               0.000151929               0.999999999              -0.000014015               0.000166621               0.999999999              -0.000021370               0.000183091               0.999999999              -0.000029438               0.000201243               0.999999999              -0.000038084               0.000220760               0.999999999              -0.000046878               0.000241288               0.999999999              -0.000055837               0.000262470               0.999999999              -0.000065093               0.000284568               0.999999999              -0.000074778               0.000307820               0.999999999              -0.000084844               0.000332291               0.999999999              -0.000095232               0.000357782               0.999999999              -0.000105953               0.000383901               0.999999999               0.000004464               0.000146398               0.999999999               0.000010397               0.000135344               0.999999999               0.000009680               0.000134728               0.999999999               0.000006248               0.000139872               0.999999999               0.000001517               0.000148545               0.999999999              -0.000003946               0.000159728               0.999999999              -0.000009852               0.000172904               0.999999999              -0.000016222               0.000187750               0.999999999              -0.000023115               0.000204162               0.999999999              -0.000030686               0.000221993               0.999999999              -0.000038467               0.000240952               0.999999999              -0.000046328               0.000260730               0.999999999              -0.000054254               0.000281368               0.999999999              -0.000062194               0.000302978               0.999999999              -0.000070428               0.000325875               0.999999999              -0.000079247               0.000350022               0.999999999              -0.000088502               0.000375320               0.999999999               0.000003589               0.000157802               0.999999999               0.000010445               0.000148186               0.999999999               0.000010556               0.000147001               0.999999999               0.000007862               0.000150997               0.999999999               0.000003743               0.000158301               0.999999999              -0.000000993               0.000168107               0.999999999              -0.000006090               0.000179837               0.999999999              -0.000011520               0.000193224               0.999999999              -0.000017382               0.000208075               0.999999999              -0.000023742               0.000224235               0.999999999              -0.000030459               0.000241600               0.999999999              -0.000037146               0.000259963               0.999999999              -0.000043775               0.000279231               0.999999999              -0.000050366               0.000299404               0.999999999              -0.000057176               0.000320600               0.999999999              -0.000064433               0.000343082               0.999999999              -0.000072104               0.000366858               0.999999999               0.000002780               0.000167735               0.999999999               0.000009886               0.000160116               0.999999999               0.000010702               0.000158849               0.999999999               0.000008741               0.000161996               0.999999999               0.000005398               0.000168276               0.999999999               0.000001361               0.000176878               0.999999999              -0.000002912               0.000187354               0.999999999              -0.000007438               0.000199458               0.999999999              -0.000012221               0.000212934               0.999999999              -0.000017449               0.000227639               0.999999999              -0.000022965               0.000243490               0.999999999              -0.000028411               0.000260476               0.999999999              -0.000033908               0.000278391               0.999999999              -0.000039506               0.000297179               0.999999999              -0.000045046               0.000316964               0.999999999              -0.000050697               0.000337866               0.999999999              -0.000056484               0.000360102               0.999999999               0.000002063               0.000176068               0.999999999               0.000008709               0.000170668               0.999999999               0.000010016               0.000169738               0.999999999               0.000008751               0.000172437               0.999999999               0.000006179               0.000177976               0.999999999               0.000002945               0.000185688               0.999999999              -0.000000496               0.000195149               0.999999999              -0.000004093               0.000206205               0.999999999              -0.000007840               0.000218547               0.999999999              -0.000011911               0.000232046               0.999999999              -0.000016144               0.000246621               0.999999999              -0.000020548               0.000262229               0.999999999              -0.000025020               0.000278878               0.999999999              -0.000029518               0.000296546               0.999999999              -0.000033941               0.000315301               0.999999999              -0.000038030               0.000335079               0.999999999              -0.000041887               0.000356062               0.999999999               0.000001456               0.000182735               0.999999999               0.000007026               0.000179443               0.999999999               0.000008459               0.000179093               0.999999999               0.000007778               0.000181667               0.999999999               0.000005954               0.000186760               0.999999999               0.000003567               0.000193867               0.999999999               0.000000979               0.000202645               0.999999999              -0.000001673               0.000212844               0.999999999              -0.000004477               0.000224277               0.999999999              -0.000007457               0.000236856               0.999999999              -0.000010583               0.000250405               0.999999999              -0.000013860               0.000264987               0.999999999              -0.000017216               0.000280638               0.999999999              -0.000020537               0.000297421               0.999999999              -0.000023741               0.000315443               0.999999999              -0.000026546               0.000334565               0.999999999              -0.000028718               0.000354692               0.999999999               0.000000913               0.000187583               0.999999999               0.000004928               0.000186002               0.999999999               0.000006137               0.000186350               0.999999999               0.000005832               0.000188989               0.999999999               0.000004713               0.000193830               0.999999999               0.000003150               0.000200611               0.999999999               0.000001417               0.000208935               0.999999999              -0.000000314               0.000218571               0.999999999              -0.000002203               0.000229345               0.999999999              -0.000004194               0.000241169               0.999999999              -0.000006219               0.000254092               0.999999999              -0.000008309               0.000268155               0.999999999              -0.000010515               0.000283258               0.999999999              -0.000012766               0.000299505               0.999999999              -0.000014736               0.000317017               0.999999999              -0.000016397               0.000335789               0.999999999              -0.000017391               0.000355491               0.999999999               0.000000429               0.000190528               0.999999999               0.000002542               0.000190070               0.999999999               0.000003235               0.000190920               0.999999999               0.000003119               0.000193703               0.999999999               0.000002613               0.000198459               0.999999999               0.000001820               0.000205046               0.999999999               0.000000997               0.000213136               0.999999999               0.000000098               0.000222479               0.999999999              -0.000000836               0.000232912               0.999999999              -0.000001894               0.000244346               0.999999999              -0.000002800               0.000256884               0.999999999              -0.000003766               0.000270597               0.999999999              -0.000004894               0.000285546               0.999999999              -0.000006067               0.000301723               0.999999999              -0.000007101               0.000319012               0.999999999              -0.000007699               0.000337510               0.999999999              -0.000007942               0.000356975               0.999999999              -0.000000000               0.000191507               0.999999999              -0.000000000               0.000191455               0.999999999              -0.000000000               0.000192489               0.999999999              -0.000000000               0.000195333               0.999999999               0.000000000               0.000200086               0.999999999              -0.000000000               0.000206606               0.999999999               0.000000000               0.000214619               0.999999999               0.000000000               0.000223874               0.999999999               0.000000000               0.000234163               0.999999999               0.000000000               0.000245531               0.999999999               0.000000000               0.000257991               0.999999999              -0.000000000               0.000271533               0.999999999              -0.000000000               0.000286404               0.999999999              -0.000000000               0.000302642               0.999999999              -0.000000000               0.000320041               0.999999999              -0.000000000               0.000338301               0.999999999              -0.000000000               0.000357457               0.999999999               0.000008998              -0.000000000               0.999999999               0.000001569              -0.000000000               0.999999999              -0.000001865              -0.000000000               0.999999999              -0.000003594              -0.000000000               0.999999999              -0.000004656               0.000000000               0.999999999              -0.000005587              -0.000000000               0.999999999              -0.000006696               0.000000000               0.999999999              -0.000008164              -0.000000000               0.999999999              -0.000010006              -0.000000000               0.999999999              -0.000012323               0.000000000               0.999999999              -0.000015132               0.000000000               0.999999999              -0.000018410               0.000000000               0.999999999              -0.000022244               0.000000000               0.999999999              -0.000026682              -0.000000000               0.999999999              -0.000031598              -0.000000000               0.999999999              -0.000036872              -0.000000000               0.999999999              -0.000042565              -0.000000000               0.999999999               0.000008909              -0.000018541               0.999999999               0.000001712              -0.000016732               0.999999999              -0.000001588              -0.000016258               0.999999999              -0.000003281              -0.000016614               0.999999999              -0.000004389              -0.000017533               0.999999999              -0.000005424              -0.000018891               0.999999999              -0.000006659              -0.000020532               0.999999999              -0.000008257              -0.000022491               0.999999999              -0.000010283              -0.000024609               0.999999999              -0.000012760              -0.000026975               0.999999999              -0.000015744              -0.000029509               0.999999999              -0.000019249              -0.000032370               0.999999999              -0.000023308              -0.000035362               0.999999999              -0.000027877              -0.000038501               0.999999999              -0.000032882              -0.000041657               0.999999999              -0.000038328              -0.000044928               0.999999999              -0.000044188              -0.000048465               0.999999999               0.000008675              -0.000036948               0.999999999               0.000002170              -0.000033264               0.999999999              -0.000000771              -0.000032421               0.999999999              -0.000002417              -0.000033225               0.999999999              -0.000003681              -0.000035127               0.999999999              -0.000005003              -0.000037848               0.999999999              -0.000006649              -0.000041228               0.999999999              -0.000008700              -0.000045059               0.999999999              -0.000011169              -0.000049353               0.999999999              -0.000014157              -0.000054015               0.999999999              -0.000017675              -0.000059161               0.999999999              -0.000021732              -0.000064731               0.999999999              -0.000026335              -0.000070721               0.999999999              -0.000031422              -0.000076829               0.999999999              -0.000036959              -0.000082993               0.999999999              -0.000042841              -0.000089457               0.999999999              -0.000049077              -0.000096395               0.999999999               0.000008293              -0.000055014               0.999999999               0.000002971              -0.000049447               0.999999999               0.000000528              -0.000048371               0.999999999              -0.000001117              -0.000049770               0.999999999              -0.000002704              -0.000052771               0.999999999              -0.000004555              -0.000056969               0.999999999              -0.000006856              -0.000062009               0.999999999              -0.000009609              -0.000067832               0.999999999              -0.000012852              -0.000074215               0.999999999              -0.000016607              -0.000081263               0.999999999              -0.000020925              -0.000088922               0.999999999              -0.000025803              -0.000097295               0.999999999              -0.000031195              -0.000106044               0.999999999              -0.000037018              -0.000114960               0.999999999              -0.000043177              -0.000123909               0.999999999              -0.000049692              -0.000133335               0.999999999              -0.000056537              -0.000143267               0.999999999               0.000007809              -0.000072530               0.999999999               0.000004105              -0.000065170               0.999999999               0.000002154              -0.000064054               0.999999999               0.000000398              -0.000066223               0.999999999              -0.000001704              -0.000070501               0.999999999              -0.000004298              -0.000076200               0.999999999              -0.000007438              -0.000083050               0.999999999              -0.000011139              -0.000090759               0.999999999              -0.000015321              -0.000099281               0.999999999              -0.000020069              -0.000108637               0.999999999              -0.000025371              -0.000118854               0.999999999              -0.000031194              -0.000129847               0.999999999              -0.000037485              -0.000141208               0.999999999              -0.000044039              -0.000152664               0.999999999              -0.000050897              -0.000164233               0.999999999              -0.000058095              -0.000176344               0.999999999              -0.000065552              -0.000188887               0.999999999               0.000007295              -0.000089360               0.999999999               0.000005457              -0.000080325               0.999999999               0.000003935              -0.000079418               0.999999999               0.000001875              -0.000082550               0.999999999              -0.000000939              -0.000088186               0.999999999              -0.000004394              -0.000095488               0.999999999              -0.000008496              -0.000104118               0.999999999              -0.000013178              -0.000113775               0.999999999              -0.000018434              -0.000124529               0.999999999              -0.000024226              -0.000136259               0.999999999              -0.000030556              -0.000149089               0.999999999              -0.000037319              -0.000162547               0.999999999              -0.000044324              -0.000176310               0.999999999              -0.000051587              -0.000190243               0.999999999              -0.000059170              -0.000204476               0.999999999              -0.000067110              -0.000219328               0.999999999              -0.000075401              -0.000234628               0.999999999               0.000006757              -0.000105339               0.999999999               0.000006929              -0.000094856               0.999999999               0.000005647              -0.000094348               0.999999999               0.000003077              -0.000098569               0.999999999              -0.000000521              -0.000105629               0.999999999              -0.000004930              -0.000114633               0.999999999              -0.000009993              -0.000125180               0.999999999              -0.000015725              -0.000136963               0.999999999              -0.000021982              -0.000149969               0.999999999              -0.000028749              -0.000164208               0.999999999              -0.000036083              -0.000179511               0.999999999              -0.000043664              -0.000195307               0.999999999              -0.000051404              -0.000211438               0.999999999              -0.000059451              -0.000227966               0.999999999              -0.000067881              -0.000245135               0.999999999              -0.000076723              -0.000263033               0.999999999              -0.000085953              -0.000281380               0.999999999               0.000006147              -0.000120221               0.999999999               0.000008381              -0.000108712               0.999999999               0.000007117              -0.000108740               0.999999999               0.000003881              -0.000114104               0.999999999              -0.000000599              -0.000122684               0.999999999              -0.000005924              -0.000133545               0.999999999              -0.000011899              -0.000146064               0.999999999              -0.000018480              -0.000160094               0.999999999              -0.000025653              -0.000175538               0.999999999              -0.000033446              -0.000192370               0.999999999              -0.000041587              -0.000210207               0.999999999              -0.000049905              -0.000228529               0.999999999              -0.000058455              -0.000247282               0.999999999              -0.000067373              -0.000266863               0.999999999              -0.000076758              -0.000287328               0.999999999              -0.000086544              -0.000308569               0.999999999              -0.000096683              -0.000330375               0.999999999               0.000005423              -0.000133753               0.999999999               0.000009713              -0.000121842               0.999999999               0.000008176              -0.000122448               0.999999999               0.000004186              -0.000129019               0.999999999              -0.000001141              -0.000139205               0.999999999              -0.000007262              -0.000151929               0.999999999              -0.000014015              -0.000166621               0.999999999              -0.000021370              -0.000183091               0.999999999              -0.000029438              -0.000201243               0.999999999              -0.000038084              -0.000220760               0.999999999              -0.000046878              -0.000241288               0.999999999              -0.000055837              -0.000262470               0.999999999              -0.000065093              -0.000284568               0.999999999              -0.000074778              -0.000307820               0.999999999              -0.000084844              -0.000332291               0.999999999              -0.000095232              -0.000357782               0.999999999              -0.000105953              -0.000383901               0.999999999               0.000004464              -0.000146398               0.999999999               0.000010397              -0.000135344               0.999999999               0.000009680              -0.000134728               0.999999999               0.000006248              -0.000139872               0.999999999               0.000001517              -0.000148545               0.999999999              -0.000003946              -0.000159728               0.999999999              -0.000009852              -0.000172904               0.999999999              -0.000016222              -0.000187750               0.999999999              -0.000023115              -0.000204162               0.999999999              -0.000030686              -0.000221993               0.999999999              -0.000038467              -0.000240952               0.999999999              -0.000046328              -0.000260730               0.999999999              -0.000054254              -0.000281368               0.999999999              -0.000062194              -0.000302978               0.999999999              -0.000070428              -0.000325875               0.999999999              -0.000079247              -0.000350022               0.999999999              -0.000088502              -0.000375320               0.999999999               0.000003589              -0.000157802               0.999999999               0.000010445              -0.000148186               0.999999999               0.000010556              -0.000147001               0.999999999               0.000007862              -0.000150997               0.999999999               0.000003743              -0.000158301               0.999999999              -0.000000993              -0.000168107               0.999999999              -0.000006090              -0.000179837               0.999999999              -0.000011520              -0.000193224               0.999999999              -0.000017382              -0.000208075               0.999999999              -0.000023742              -0.000224235               0.999999999              -0.000030459              -0.000241600               0.999999999              -0.000037146              -0.000259963               0.999999999              -0.000043775              -0.000279231               0.999999999              -0.000050366              -0.000299404               0.999999999              -0.000057176              -0.000320600               0.999999999              -0.000064433              -0.000343082               0.999999999              -0.000072104              -0.000366858               0.999999999               0.000002780              -0.000167735               0.999999999               0.000009886              -0.000160116               0.999999999               0.000010702              -0.000158849               0.999999999               0.000008741              -0.000161996               0.999999999               0.000005398              -0.000168276               0.999999999               0.000001361              -0.000176878               0.999999999              -0.000002912              -0.000187354               0.999999999              -0.000007438              -0.000199458               0.999999999              -0.000012221              -0.000212934               0.999999999              -0.000017449              -0.000227639               0.999999999              -0.000022965              -0.000243490               0.999999999              -0.000028411              -0.000260476               0.999999999              -0.000033908              -0.000278391               0.999999999              -0.000039506              -0.000297179               0.999999999              -0.000045046              -0.000316964               0.999999999              -0.000050697              -0.000337866               0.999999999              -0.000056484              -0.000360102               0.999999999               0.000002063              -0.000176068               0.999999999               0.000008709              -0.000170668               0.999999999               0.000010016              -0.000169738               0.999999999               0.000008751              -0.000172437               0.999999999               0.000006179              -0.000177976               0.999999999               0.000002945              -0.000185688               0.999999999              -0.000000496              -0.000195149               0.999999999              -0.000004093              -0.000206205               0.999999999              -0.000007840              -0.000218547               0.999999999              -0.000011911              -0.000232046               0.999999999              -0.000016144              -0.000246621               0.999999999              -0.000020548              -0.000262229               0.999999999              -0.000025020              -0.000278878               0.999999999              -0.000029518              -0.000296546               0.999999999              -0.000033941              -0.000315301               0.999999999              -0.000038030              -0.000335079               0.999999999              -0.000041887              -0.000356062               0.999999999               0.000001456              -0.000182735               0.999999999               0.000007026              -0.000179443               0.999999999               0.000008459              -0.000179093               0.999999999               0.000007778              -0.000181667               0.999999999               0.000005954              -0.000186760               0.999999999               0.000003567              -0.000193867               0.999999999               0.000000979              -0.000202645               0.999999999              -0.000001673              -0.000212844               0.999999999              -0.000004477              -0.000224277               0.999999999              -0.000007457              -0.000236856               0.999999999              -0.000010583              -0.000250405               0.999999999              -0.000013860              -0.000264987               0.999999999              -0.000017216              -0.000280638               0.999999999              -0.000020537              -0.000297421               0.999999999              -0.000023741              -0.000315443               0.999999999              -0.000026546              -0.000334565               0.999999999              -0.000028718              -0.000354692               0.999999999               0.000000913              -0.000187583               0.999999999               0.000004928              -0.000186002               0.999999999               0.000006137              -0.000186350               0.999999999               0.000005832              -0.000188989               0.999999999               0.000004713              -0.000193830               0.999999999               0.000003150              -0.000200611               0.999999999               0.000001417              -0.000208935               0.999999999              -0.000000314              -0.000218571               0.999999999              -0.000002203              -0.000229345               0.999999999              -0.000004194              -0.000241169               0.999999999              -0.000006219              -0.000254092               0.999999999              -0.000008309              -0.000268155               0.999999999              -0.000010515              -0.000283258               0.999999999              -0.000012766              -0.000299505               0.999999999              -0.000014736              -0.000317017               0.999999999              -0.000016397              -0.000335789               0.999999999              -0.000017391              -0.000355491               0.999999999               0.000000429              -0.000190528               0.999999999               0.000002542              -0.000190070               0.999999999               0.000003235              -0.000190920               0.999999999               0.000003119              -0.000193703               0.999999999               0.000002613              -0.000198459               0.999999999               0.000001820              -0.000205046               0.999999999               0.000000997              -0.000213136               0.999999999               0.000000098              -0.000222479               0.999999999              -0.000000836              -0.000232912               0.999999999              -0.000001894              -0.000244346               0.999999999              -0.000002800              -0.000256884               0.999999999              -0.000003766              -0.000270597               0.999999999              -0.000004894              -0.000285546               0.999999999              -0.000006067              -0.000301723               0.999999999              -0.000007101              -0.000319012               0.999999999              -0.000007699              -0.000337510               0.999999999              -0.000007942              -0.000356975               0.999999999               0.000000000              -0.000191507               0.999999999              -0.000000000              -0.000191455               0.999999999              -0.000000000              -0.000192489               0.999999999               0.000000000              -0.000195333               0.999999999              -0.000000000              -0.000200086               0.999999999              -0.000000000              -0.000206606               0.999999999               0.000000000              -0.000214619               0.999999999              -0.000000000              -0.000223874               0.999999999               0.000000000              -0.000234163               0.999999999              -0.000000000              -0.000245531               0.999999999               0.000000000              -0.000257991               0.999999999               0.000000000              -0.000271533               0.999999999               0.000000000              -0.000286404               0.999999999              -0.000000000              -0.000302642               0.999999999              -0.000000000              -0.000320041               0.999999999              -0.000000000              -0.000338301               0.999999999               0.000000000              -0.000357457               0.999999999              -0.000008998               0.000000000               0.999999999              -0.000001569              -0.000000000               0.999999999               0.000001865               0.000000000               0.999999999               0.000003594               0.000000000               0.999999999               0.000004656               0.000000000               0.999999999               0.000005587               0.000000000               0.999999999               0.000006696               0.000000000               0.999999999               0.000008164               0.000000000               0.999999999               0.000010006               0.000000000               0.999999999               0.000012323               0.000000000               0.999999999               0.000015132               0.000000000               0.999999999               0.000018410               0.000000000               0.999999999               0.000022244               0.000000000               0.999999999               0.000026682               0.000000000               0.999999999               0.000031598               0.000000000               0.999999999               0.000036872               0.000000000               0.999999999               0.000042565               0.000000000               0.999999999              -0.000008909              -0.000018541               0.999999999              -0.000001712              -0.000016732               0.999999999               0.000001588              -0.000016258               0.999999999               0.000003281              -0.000016614               0.999999999               0.000004389              -0.000017533               0.999999999               0.000005424              -0.000018891               0.999999999               0.000006659              -0.000020532               0.999999999               0.000008257              -0.000022491               0.999999999               0.000010283              -0.000024609               0.999999999               0.000012760              -0.000026975               0.999999999               0.000015744              -0.000029509               0.999999999               0.000019249              -0.000032370               0.999999999               0.000023308              -0.000035362               0.999999999               0.000027877              -0.000038501               0.999999999               0.000032882              -0.000041657               0.999999999               0.000038328              -0.000044928               0.999999999               0.000044188              -0.000048465               0.999999999              -0.000008675              -0.000036948               0.999999999              -0.000002170              -0.000033264               0.999999999               0.000000771              -0.000032421               0.999999999               0.000002417              -0.000033225               0.999999999               0.000003681              -0.000035127               0.999999999               0.000005003              -0.000037848               0.999999999               0.000006649              -0.000041228               0.999999999               0.000008700              -0.000045059               0.999999999               0.000011169              -0.000049353               0.999999999               0.000014157              -0.000054015               0.999999999               0.000017675              -0.000059161               0.999999999               0.000021732              -0.000064731               0.999999999               0.000026335              -0.000070721               0.999999999               0.000031422              -0.000076829               0.999999999               0.000036959              -0.000082993               0.999999999               0.000042841              -0.000089457               0.999999999               0.000049077              -0.000096395               0.999999999              -0.000008293              -0.000055014               0.999999999              -0.000002971              -0.000049447               0.999999999              -0.000000528              -0.000048371               0.999999999               0.000001117              -0.000049770               0.999999999               0.000002704              -0.000052771               0.999999999               0.000004555              -0.000056969               0.999999999               0.000006856              -0.000062009               0.999999999               0.000009609              -0.000067832               0.999999999               0.000012852              -0.000074215               0.999999999               0.000016607              -0.000081263               0.999999999               0.000020925              -0.000088922               0.999999999               0.000025803              -0.000097295               0.999999999               0.000031195              -0.000106044               0.999999999               0.000037018              -0.000114960               0.999999999               0.000043177              -0.000123909               0.999999999               0.000049692              -0.000133335               0.999999999               0.000056537              -0.000143267               0.999999999              -0.000007809              -0.000072530               0.999999999              -0.000004105              -0.000065170               0.999999999              -0.000002154              -0.000064054               0.999999999              -0.000000398              -0.000066223               0.999999999               0.000001704              -0.000070501               0.999999999               0.000004298              -0.000076200               0.999999999               0.000007438              -0.000083050               0.999999999               0.000011139              -0.000090759               0.999999999               0.000015321              -0.000099281               0.999999999               0.000020069              -0.000108637               0.999999999               0.000025371              -0.000118854               0.999999999               0.000031194              -0.000129847               0.999999999               0.000037485              -0.000141208               0.999999999               0.000044039              -0.000152664               0.999999999               0.000050897              -0.000164233               0.999999999               0.000058095              -0.000176344               0.999999999               0.000065552              -0.000188887               0.999999999              -0.000007295              -0.000089360               0.999999999              -0.000005457              -0.000080325               0.999999999              -0.000003935              -0.000079418               0.999999999              -0.000001875              -0.000082550               0.999999999               0.000000939              -0.000088186               0.999999999               0.000004394              -0.000095488               0.999999999               0.000008496              -0.000104118               0.999999999               0.000013178              -0.000113775               0.999999999               0.000018434              -0.000124529               0.999999999               0.000024226              -0.000136259               0.999999999               0.000030556              -0.000149089               0.999999999               0.000037319              -0.000162547               0.999999999               0.000044324              -0.000176310               0.999999999               0.000051587              -0.000190243               0.999999999               0.000059170              -0.000204476               0.999999999               0.000067110              -0.000219328               0.999999999               0.000075401              -0.000234628               0.999999999              -0.000006757              -0.000105339               0.999999999              -0.000006929              -0.000094856               0.999999999              -0.000005647              -0.000094348               0.999999999              -0.000003077              -0.000098569               0.999999999               0.000000521              -0.000105629               0.999999999               0.000004930              -0.000114633               0.999999999               0.000009993              -0.000125180               0.999999999               0.000015725              -0.000136963               0.999999999               0.000021982              -0.000149969               0.999999999               0.000028749              -0.000164208               0.999999999               0.000036083              -0.000179511               0.999999999               0.000043664              -0.000195307               0.999999999               0.000051404              -0.000211438               0.999999999               0.000059451              -0.000227966               0.999999999               0.000067881              -0.000245135               0.999999999               0.000076723              -0.000263033               0.999999999               0.000085953              -0.000281380               0.999999999              -0.000006147              -0.000120221               0.999999999              -0.000008381              -0.000108712               0.999999999              -0.000007117              -0.000108740               0.999999999              -0.000003881              -0.000114104               0.999999999               0.000000599              -0.000122684               0.999999999               0.000005924              -0.000133545               0.999999999               0.000011899              -0.000146064               0.999999999               0.000018480              -0.000160094               0.999999999               0.000025653              -0.000175538               0.999999999               0.000033446              -0.000192370               0.999999999               0.000041587              -0.000210207               0.999999999               0.000049905              -0.000228529               0.999999999               0.000058455              -0.000247282               0.999999999               0.000067373              -0.000266863               0.999999999               0.000076758              -0.000287328               0.999999999               0.000086544              -0.000308569               0.999999999               0.000096683              -0.000330375               0.999999999              -0.000005423              -0.000133753               0.999999999              -0.000009713              -0.000121842               0.999999999              -0.000008176              -0.000122448               0.999999999              -0.000004186              -0.000129019               0.999999999               0.000001141              -0.000139205               0.999999999               0.000007262              -0.000151929               0.999999999               0.000014015              -0.000166621               0.999999999               0.000021370              -0.000183091               0.999999999               0.000029438              -0.000201243               0.999999999               0.000038084              -0.000220760               0.999999999               0.000046878              -0.000241288               0.999999999               0.000055837              -0.000262470               0.999999999               0.000065093              -0.000284568               0.999999999               0.000074778              -0.000307820               0.999999999               0.000084844              -0.000332291               0.999999999               0.000095232              -0.000357782               0.999999999               0.000105953              -0.000383901               0.999999999              -0.000004464              -0.000146398               0.999999999              -0.000010397              -0.000135344               0.999999999              -0.000009680              -0.000134728               0.999999999              -0.000006248              -0.000139872               0.999999999              -0.000001517              -0.000148545               0.999999999               0.000003946              -0.000159728               0.999999999               0.000009852              -0.000172904               0.999999999               0.000016222              -0.000187750               0.999999999               0.000023115              -0.000204162               0.999999999               0.000030686              -0.000221993               0.999999999               0.000038467              -0.000240952               0.999999999               0.000046328              -0.000260730               0.999999999               0.000054254              -0.000281368               0.999999999               0.000062194              -0.000302978               0.999999999               0.000070428              -0.000325875               0.999999999               0.000079247              -0.000350022               0.999999999               0.000088502              -0.000375320               0.999999999              -0.000003589              -0.000157802               0.999999999              -0.000010445              -0.000148186               0.999999999              -0.000010556              -0.000147001               0.999999999              -0.000007862              -0.000150997               0.999999999              -0.000003743              -0.000158301               0.999999999               0.000000993              -0.000168107               0.999999999               0.000006090              -0.000179837               0.999999999               0.000011520              -0.000193224               0.999999999               0.000017382              -0.000208075               0.999999999               0.000023742              -0.000224235               0.999999999               0.000030459              -0.000241600               0.999999999               0.000037146              -0.000259963               0.999999999               0.000043775              -0.000279231               0.999999999               0.000050366              -0.000299404               0.999999999               0.000057176              -0.000320600               0.999999999               0.000064433              -0.000343082               0.999999999               0.000072104              -0.000366858               0.999999999              -0.000002780              -0.000167735               0.999999999              -0.000009886              -0.000160116               0.999999999              -0.000010702              -0.000158849               0.999999999              -0.000008741              -0.000161996               0.999999999              -0.000005398              -0.000168276               0.999999999              -0.000001361              -0.000176878               0.999999999               0.000002912              -0.000187354               0.999999999               0.000007438              -0.000199458               0.999999999               0.000012221              -0.000212934               0.999999999               0.000017449              -0.000227639               0.999999999               0.000022965              -0.000243490               0.999999999               0.000028411              -0.000260476               0.999999999               0.000033908              -0.000278391               0.999999999               0.000039506              -0.000297179               0.999999999               0.000045046              -0.000316964               0.999999999               0.000050697              -0.000337866               0.999999999               0.000056484              -0.000360102               0.999999999              -0.000002063              -0.000176068               0.999999999              -0.000008709              -0.000170668               0.999999999              -0.000010016              -0.000169738               0.999999999              -0.000008751              -0.000172437               0.999999999              -0.000006179              -0.000177976               0.999999999              -0.000002945              -0.000185688               0.999999999               0.000000496              -0.000195149               0.999999999               0.000004093              -0.000206205               0.999999999               0.000007840              -0.000218547               0.999999999               0.000011911              -0.000232046               0.999999999               0.000016144              -0.000246621               0.999999999               0.000020548              -0.000262229               0.999999999               0.000025020              -0.000278878               0.999999999               0.000029518              -0.000296546               0.999999999               0.000033941              -0.000315301               0.999999999               0.000038030              -0.000335079               0.999999999               0.000041887              -0.000356062               0.999999999              -0.000001456              -0.000182735               0.999999999              -0.000007026              -0.000179443               0.999999999              -0.000008459              -0.000179093               0.999999999              -0.000007778              -0.000181667               0.999999999              -0.000005954              -0.000186760               0.999999999              -0.000003567              -0.000193867               0.999999999              -0.000000979              -0.000202645               0.999999999               0.000001673              -0.000212844               0.999999999               0.000004477              -0.000224277               0.999999999               0.000007457              -0.000236856               0.999999999               0.000010583              -0.000250405               0.999999999               0.000013860              -0.000264987               0.999999999               0.000017216              -0.000280638               0.999999999               0.000020537              -0.000297421               0.999999999               0.000023741              -0.000315443               0.999999999               0.000026546              -0.000334565               0.999999999               0.000028718              -0.000354692               0.999999999              -0.000000913              -0.000187583               0.999999999              -0.000004928              -0.000186002               0.999999999              -0.000006137              -0.000186350               0.999999999              -0.000005832              -0.000188989               0.999999999              -0.000004713              -0.000193830               0.999999999              -0.000003150              -0.000200611               0.999999999              -0.000001417              -0.000208935               0.999999999               0.000000314              -0.000218571               0.999999999               0.000002203              -0.000229345               0.999999999               0.000004194              -0.000241169               0.999999999               0.000006219              -0.000254092               0.999999999               0.000008309              -0.000268155               0.999999999               0.000010515              -0.000283258               0.999999999               0.000012766              -0.000299505               0.999999999               0.000014736              -0.000317017               0.999999999               0.000016397              -0.000335789               0.999999999               0.000017391              -0.000355491               0.999999999              -0.000000429              -0.000190528               0.999999999              -0.000002542              -0.000190070               0.999999999              -0.000003235              -0.000190920               0.999999999              -0.000003119              -0.000193703               0.999999999              -0.000002613              -0.000198459               0.999999999              -0.000001820              -0.000205046               0.999999999              -0.000000997              -0.000213136               0.999999999              -0.000000098              -0.000222479               0.999999999               0.000000836              -0.000232912               0.999999999               0.000001894              -0.000244346               0.999999999               0.000002800              -0.000256884               0.999999999               0.000003766              -0.000270597               0.999999999               0.000004894              -0.000285546               0.999999999               0.000006067              -0.000301723               0.999999999               0.000007101              -0.000319012               0.999999999               0.000007699              -0.000337510               0.999999999               0.000007942              -0.000356975               0.999999999               0.000000000              -0.000191507               0.999999999              -0.000000000              -0.000191455               0.999999999              -0.000000000              -0.000192489               0.999999999               0.000000000              -0.000195333               0.999999999              -0.000000000              -0.000200086               0.999999999              -0.000000000              -0.000206606               0.999999999               0.000000000              -0.000214619               0.999999999              -0.000000000              -0.000223874               0.999999999               0.000000000              -0.000234163               0.999999999              -0.000000000              -0.000245531               0.999999999               0.000000000              -0.000257991               0.999999999               0.000000000              -0.000271533               0.999999999               0.000000000              -0.000286404               0.999999999              -0.000000000              -0.000302642               0.999999999              -0.000000000              -0.000320041               0.999999999              -0.000000000              -0.000338301               0.999999999               0.000000000              -0.000357457               0.999999999              -0.000008998               0.000000000               0.999999999              -0.000001569              -0.000000000               0.999999999               0.000001865               0.000000000               0.999999999               0.000003594               0.000000000               0.999999999               0.000004656               0.000000000               0.999999999               0.000005587               0.000000000               0.999999999               0.000006696               0.000000000               0.999999999               0.000008164               0.000000000               0.999999999               0.000010006               0.000000000               0.999999999               0.000012323               0.000000000               0.999999999               0.000015132               0.000000000               0.999999999               0.000018410               0.000000000               0.999999999               0.000022244               0.000000000               0.999999999               0.000026682               0.000000000               0.999999999               0.000031598               0.000000000               0.999999999               0.000036872               0.000000000               0.999999999               0.000042565               0.000000000               0.999999999              -0.000008909               0.000018541               0.999999999              -0.000001712               0.000016732               0.999999999               0.000001588               0.000016258               0.999999999               0.000003281               0.000016614               0.999999999               0.000004389               0.000017533               0.999999999               0.000005424               0.000018891               0.999999999               0.000006659               0.000020532               0.999999999               0.000008257               0.000022491               0.999999999               0.000010283               0.000024609               0.999999999               0.000012760               0.000026975               0.999999999               0.000015744               0.000029509               0.999999999               0.000019249               0.000032370               0.999999999               0.000023308               0.000035362               0.999999999               0.000027877               0.000038501               0.999999999               0.000032882               0.000041657               0.999999999               0.000038328               0.000044928               0.999999999               0.000044188               0.000048465               0.999999999              -0.000008675               0.000036948               0.999999999              -0.000002170               0.000033264               0.999999999               0.000000771               0.000032421               0.999999999               0.000002417               0.000033225               0.999999999               0.000003681               0.000035127               0.999999999               0.000005003               0.000037848               0.999999999               0.000006649               0.000041228               0.999999999               0.000008700               0.000045059               0.999999999               0.000011169               0.000049353               0.999999999               0.000014157               0.000054015               0.999999999               0.000017675               0.000059161               0.999999999               0.000021732               0.000064731               0.999999999               0.000026335               0.000070721               0.999999999               0.000031422               0.000076829               0.999999999               0.000036959               0.000082993               0.999999999               0.000042841               0.000089457               0.999999999               0.000049077               0.000096395               0.999999999              -0.000008293               0.000055014               0.999999999              -0.000002971               0.000049447               0.999999999              -0.000000528               0.000048371               0.999999999               0.000001117               0.000049770               0.999999999               0.000002704               0.000052771               0.999999999               0.000004555               0.000056969               0.999999999               0.000006856               0.000062009               0.999999999               0.000009609               0.000067832               0.999999999               0.000012852               0.000074215               0.999999999               0.000016607               0.000081263               0.999999999               0.000020925               0.000088922               0.999999999               0.000025803               0.000097295               0.999999999               0.000031195               0.000106044               0.999999999               0.000037018               0.000114960               0.999999999               0.000043177               0.000123909               0.999999999               0.000049692               0.000133335               0.999999999               0.000056537               0.000143267               0.999999999              -0.000007809               0.000072530               0.999999999              -0.000004105               0.000065170               0.999999999              -0.000002154               0.000064054               0.999999999              -0.000000398               0.000066223               0.999999999               0.000001704               0.000070501               0.999999999               0.000004298               0.000076200               0.999999999               0.000007438               0.000083050               0.999999999               0.000011139               0.000090759               0.999999999               0.000015321               0.000099281               0.999999999               0.000020069               0.000108637               0.999999999               0.000025371               0.000118854               0.999999999               0.000031194               0.000129847               0.999999999               0.000037485               0.000141208               0.999999999               0.000044039               0.000152664               0.999999999               0.000050897               0.000164233               0.999999999               0.000058095               0.000176344               0.999999999               0.000065552               0.000188887               0.999999999              -0.000007295               0.000089360               0.999999999              -0.000005457               0.000080325               0.999999999              -0.000003935               0.000079418               0.999999999              -0.000001875               0.000082550               0.999999999               0.000000939               0.000088186               0.999999999               0.000004394               0.000095488               0.999999999               0.000008496               0.000104118               0.999999999               0.000013178               0.000113775               0.999999999               0.000018434               0.000124529               0.999999999               0.000024226               0.000136259               0.999999999               0.000030556               0.000149089               0.999999999               0.000037319               0.000162547               0.999999999               0.000044324               0.000176310               0.999999999               0.000051587               0.000190243               0.999999999               0.000059170               0.000204476               0.999999999               0.000067110               0.000219328               0.999999999               0.000075401               0.000234628               0.999999999              -0.000006757               0.000105339               0.999999999              -0.000006929               0.000094856               0.999999999              -0.000005647               0.000094348               0.999999999              -0.000003077               0.000098569               0.999999999               0.000000521               0.000105629               0.999999999               0.000004930               0.000114633               0.999999999               0.000009993               0.000125180               0.999999999               0.000015725               0.000136963               0.999999999               0.000021982               0.000149969               0.999999999               0.000028749               0.000164208               0.999999999               0.000036083               0.000179511               0.999999999               0.000043664               0.000195307               0.999999999               0.000051404               0.000211438               0.999999999               0.000059451               0.000227966               0.999999999               0.000067881               0.000245135               0.999999999               0.000076723               0.000263033               0.999999999               0.000085953               0.000281380               0.999999999              -0.000006147               0.000120221               0.999999999              -0.000008381               0.000108712               0.999999999              -0.000007117               0.000108740               0.999999999              -0.000003881               0.000114104               0.999999999               0.000000599               0.000122684               0.999999999               0.000005924               0.000133545               0.999999999               0.000011899               0.000146064               0.999999999               0.000018480               0.000160094               0.999999999               0.000025653               0.000175538               0.999999999               0.000033446               0.000192370               0.999999999               0.000041587               0.000210207               0.999999999               0.000049905               0.000228529               0.999999999               0.000058455               0.000247282               0.999999999               0.000067373               0.000266863               0.999999999               0.000076758               0.000287328               0.999999999               0.000086544               0.000308569               0.999999999               0.000096683               0.000330375               0.999999999              -0.000005423               0.000133753               0.999999999              -0.000009713               0.000121842               0.999999999              -0.000008176               0.000122448               0.999999999              -0.000004186               0.000129019               0.999999999               0.000001141               0.000139205               0.999999999               0.000007262               0.000151929               0.999999999               0.000014015               0.000166621               0.999999999               0.000021370               0.000183091               0.999999999               0.000029438               0.000201243               0.999999999               0.000038084               0.000220760               0.999999999               0.000046878               0.000241288               0.999999999               0.000055837               0.000262470               0.999999999               0.000065093               0.000284568               0.999999999               0.000074778               0.000307820               0.999999999               0.000084844               0.000332291               0.999999999               0.000095232               0.000357782               0.999999999               0.000105953               0.000383901               0.999999999              -0.000004464               0.000146398               0.999999999              -0.000010397               0.000135344               0.999999999              -0.000009680               0.000134728               0.999999999              -0.000006248               0.000139872               0.999999999              -0.000001517               0.000148545               0.999999999               0.000003946               0.000159728               0.999999999               0.000009852               0.000172904               0.999999999               0.000016222               0.000187750               0.999999999               0.000023115               0.000204162               0.999999999               0.000030686               0.000221993               0.999999999               0.000038467               0.000240952               0.999999999               0.000046328               0.000260730               0.999999999               0.000054254               0.000281368               0.999999999               0.000062194               0.000302978               0.999999999               0.000070428               0.000325875               0.999999999               0.000079247               0.000350022               0.999999999               0.000088502               0.000375320               0.999999999              -0.000003589               0.000157802               0.999999999              -0.000010445               0.000148186               0.999999999              -0.000010556               0.000147001               0.999999999              -0.000007862               0.000150997               0.999999999              -0.000003743               0.000158301               0.999999999               0.000000993               0.000168107               0.999999999               0.000006090               0.000179837               0.999999999               0.000011520               0.000193224               0.999999999               0.000017382               0.000208075               0.999999999               0.000023742               0.000224235               0.999999999               0.000030459               0.000241600               0.999999999               0.000037146               0.000259963               0.999999999               0.000043775               0.000279231               0.999999999               0.000050366               0.000299404               0.999999999               0.000057176               0.000320600               0.999999999               0.000064433               0.000343082               0.999999999               0.000072104               0.000366858               0.999999999              -0.000002780               0.000167735               0.999999999              -0.000009886               0.000160116               0.999999999              -0.000010702               0.000158849               0.999999999              -0.000008741               0.000161996               0.999999999              -0.000005398               0.000168276               0.999999999              -0.000001361               0.000176878               0.999999999               0.000002912               0.000187354               0.999999999               0.000007438               0.000199458               0.999999999               0.000012221               0.000212934               0.999999999               0.000017449               0.000227639               0.999999999               0.000022965               0.000243490               0.999999999               0.000028411               0.000260476               0.999999999               0.000033908               0.000278391               0.999999999               0.000039506               0.000297179               0.999999999               0.000045046               0.000316964               0.999999999               0.000050697               0.000337866               0.999999999               0.000056484               0.000360102               0.999999999              -0.000002063               0.000176068               0.999999999              -0.000008709               0.000170668               0.999999999              -0.000010016               0.000169738               0.999999999              -0.000008751               0.000172437               0.999999999              -0.000006179               0.000177976               0.999999999              -0.000002945               0.000185688               0.999999999               0.000000496               0.000195149               0.999999999               0.000004093               0.000206205               0.999999999               0.000007840               0.000218547               0.999999999               0.000011911               0.000232046               0.999999999               0.000016144               0.000246621               0.999999999               0.000020548               0.000262229               0.999999999               0.000025020               0.000278878               0.999999999               0.000029518               0.000296546               0.999999999               0.000033941               0.000315301               0.999999999               0.000038030               0.000335079               0.999999999               0.000041887               0.000356062               0.999999999              -0.000001456               0.000182735               0.999999999              -0.000007026               0.000179443               0.999999999              -0.000008459               0.000179093               0.999999999              -0.000007778               0.000181667               0.999999999              -0.000005954               0.000186760               0.999999999              -0.000003567               0.000193867               0.999999999              -0.000000979               0.000202645               0.999999999               0.000001673               0.000212844               0.999999999               0.000004477               0.000224277               0.999999999               0.000007457               0.000236856               0.999999999               0.000010583               0.000250405               0.999999999               0.000013860               0.000264987               0.999999999               0.000017216               0.000280638               0.999999999               0.000020537               0.000297421               0.999999999               0.000023741               0.000315443               0.999999999               0.000026546               0.000334565               0.999999999               0.000028718               0.000354692               0.999999999              -0.000000913               0.000187583               0.999999999              -0.000004928               0.000186002               0.999999999              -0.000006137               0.000186350               0.999999999              -0.000005832               0.000188989               0.999999999              -0.000004713               0.000193830               0.999999999              -0.000003150               0.000200611               0.999999999              -0.000001417               0.000208935               0.999999999               0.000000314               0.000218571               0.999999999               0.000002203               0.000229345               0.999999999               0.000004194               0.000241169               0.999999999               0.000006219               0.000254092               0.999999999               0.000008309               0.000268155               0.999999999               0.000010515               0.000283258               0.999999999               0.000012766               0.000299505               0.999999999               0.000014736               0.000317017               0.999999999               0.000016397               0.000335789               0.999999999               0.000017391               0.000355491               0.999999999              -0.000000429               0.000190528               0.999999999              -0.000002542               0.000190070               0.999999999              -0.000003235               0.000190920               0.999999999              -0.000003119               0.000193703               0.999999999              -0.000002613               0.000198459               0.999999999              -0.000001820               0.000205046               0.999999999              -0.000000997               0.000213136               0.999999999              -0.000000098               0.000222479               0.999999999               0.000000836               0.000232912               0.999999999               0.000001894               0.000244346               0.999999999               0.000002800               0.000256884               0.999999999               0.000003766               0.000270597               0.999999999               0.000004894               0.000285546               0.999999999               0.000006067               0.000301723               0.999999999               0.000007101               0.000319012               0.999999999               0.000007699               0.000337510               0.999999999               0.000007942               0.000356975               0.999999999              -0.000000000               0.000191507               0.999999999              -0.000000000               0.000191455               0.999999999              -0.000000000               0.000192489               0.999999999              -0.000000000               0.000195333               0.999999999               0.000000000               0.000200086               0.999999999              -0.000000000               0.000206606               0.999999999               0.000000000               0.000214619               0.999999999               0.000000000               0.000223874               0.999999999               0.000000000               0.000234163               0.999999999               0.000000000               0.000245531               0.999999999               0.000000000               0.000257991               0.999999999              -0.000000000               0.000271533               0.999999999              -0.000000000               0.000286404               0.999999999              -0.000000000               0.000302642               0.999999999              -0.000000000               0.000320041               0.999999999              -0.000000000               0.000338301               0.999999999              -0.000000000               0.000357457               0.999999999 </DataArray>
<DataArray type="Float64"                                    Name="stress"                                                      NumberOfComponents="10" format="ascii">
              0.000312535               0.003494839               0.000000000              -0.000319654               0.001271486               0.000951832               0.000000000               0.000000000               0.000000000               0.000000000               0.000363537               0.002918185               0.000000000              -0.000228446               0.001048867               0.000820421               0.000000000               0.000000000               0.000000000               0.000000000               0.000522716               0.002446164              -0.000000000              -0.000109752               0.000851964               0.000742212               0.000000000               0.000000000               0.000000000               0.000000000               0.000565980               0.002184140               0.000000000              -0.000060775               0.000748298               0.000687523               0.000000000               0.000000000               0.000000000               0.000000000               0.000558388               0.002033671              -0.000000000              -0.000044813               0.000692821               0.000648008               0.000000000               0.000000000               0.000000000               0.000000000               0.000525079               0.001947077              -0.000000000              -0.000046480               0.000664512               0.000618033               0.000000000               0.000000000               0.000000000               0.000000000               0.000476851               0.001896799              -0.000000000              -0.000058281               0.000651687               0.000593406               0.000000000               0.000000000               0.000000000               0.000000000               0.000425949               0.001873635              -0.000000000              -0.000074473               0.000649363               0.000574890               0.000000000               0.000000000               0.000000000               0.000000000               0.000373634               0.001865116               0.000000000              -0.000093027               0.000652708               0.000559681               0.000000000               0.000000000               0.000000000               0.000000000               0.000319309               0.001868895               0.000000000              -0.000113871               0.000660916               0.000547045               0.000000000               0.000000000               0.000000000               0.000000000               0.000267366               0.001883001              -0.000000000              -0.000135113               0.000672698               0.000537586               0.000000000               0.000000000               0.000000000               0.000000000               0.000215671               0.001908206               0.000000000              -0.000157649               0.000688612               0.000530963               0.000000000               0.000000000               0.000000000               0.000000000               0.000159610               0.001935557              -0.000000000              -0.000182090               0.000705876               0.000523786               0.000000000               0.000000000               0.000000000               0.000000000               0.000109766               0.001965763              -0.000000000              -0.000204558               0.000723433               0.000518876               0.000000000               0.000000000               0.000000000               0.000000000               0.000071085               0.001997174              -0.000000000              -0.000222989               0.000740048               0.000517058               0.000000000               0.000000000               0.000000000               0.000000000               0.000035736               0.002030640               0.000000000              -0.000240428               0.000757016               0.000516588               0.000000000               0.000000000               0.000000000               0.000000000               0.000021313               0.002058507              -0.000000000              -0.000249320               0.000769269               0.000519949               0.000000000               0.000000000               0.000000000               0.000000000               0.000333230               0.003442964              -0.000274397              -0.000305409               0.001249446               0.000944037               0.000000000               0.000000000               0.000000000               0.000000000               0.000371965               0.002879558              -0.000186647              -0.000220457               0.001033329               0.000812871               0.000000000               0.000000000               0.000000000               0.000000000               0.000517898               0.002426403              -0.000094163              -0.000109088               0.000845156               0.000736067               0.000000000               0.000000000               0.000000000               0.000000000               0.000553952               0.002175285              -0.000049240              -0.000064179               0.000746481               0.000682302               0.000000000               0.000000000               0.000000000               0.000000000               0.000542933               0.002030240              -0.000026549              -0.000050180               0.000693467               0.000643287               0.000000000               0.000000000               0.000000000               0.000000000               0.000508748               0.001946184              -0.000015723              -0.000052492               0.000666219               0.000613727               0.000000000               0.000000000               0.000000000               0.000000000               0.000462732               0.001899228              -0.000010645              -0.000063879               0.000654363               0.000590484               0.000000000               0.000000000               0.000000000               0.000000000               0.000412535               0.001874864              -0.000008586              -0.000079657               0.000651501               0.000571844               0.000000000               0.000000000               0.000000000               0.000000000               0.000361798               0.001867042              -0.000007792              -0.000097706               0.000654910               0.000557204               0.000000000               0.000000000               0.000000000               0.000000000               0.000309298               0.001870301              -0.000006709              -0.000117800               0.000662694               0.000544894               0.000000000               0.000000000               0.000000000               0.000000000               0.000257433               0.001884575              -0.000004239              -0.000139034               0.000674530               0.000535496               0.000000000               0.000000000               0.000000000               0.000000000               0.000205330               0.001906774              -0.000002634              -0.000161348               0.000689367               0.000528020               0.000000000               0.000000000               0.000000000               0.000000000               0.000154291               0.001934158              -0.000004000              -0.000183910               0.000706016               0.000522106               0.000000000               0.000000000               0.000000000               0.000000000               0.000109335               0.001962275              -0.000006770              -0.000204283               0.000722180               0.000517896               0.000000000               0.000000000               0.000000000               0.000000000               0.000070320               0.001990152              -0.000008324              -0.000222399               0.000737510               0.000515112               0.000000000               0.000000000               0.000000000               0.000000000               0.000034296               0.002021253              -0.000004347              -0.000239795               0.000753676               0.000513881               0.000000000               0.000000000               0.000000000               0.000000000               0.000020438               0.002047672              -0.000001542              -0.000248294               0.000765315               0.000517021               0.000000000               0.000000000               0.000000000               0.000000000               0.000389964               0.003288969              -0.000522972              -0.000264884               0.001184607               0.000919722               0.000000000               0.000000000               0.000000000               0.000000000               0.000393406               0.002768356              -0.000354207              -0.000198517               0.000988948               0.000790431               0.000000000               0.000000000               0.000000000               0.000000000               0.000500099               0.002367470              -0.000179576              -0.000108396               0.000825281               0.000716885               0.000000000               0.000000000               0.000000000               0.000000000               0.000517012               0.002146409              -0.000097869              -0.000074422               0.000740270               0.000665848               0.000000000               0.000000000               0.000000000               0.000000000               0.000499615               0.002018679              -0.000057379              -0.000064979               0.000694546               0.000629567               0.000000000               0.000000000               0.000000000               0.000000000               0.000463997               0.001943545              -0.000037080              -0.000068944               0.000670823               0.000601879               0.000000000               0.000000000               0.000000000               0.000000000               0.000420471               0.001900145              -0.000028013              -0.000079841               0.000659989               0.000580148               0.000000000               0.000000000               0.000000000               0.000000000               0.000376962               0.001878680              -0.000023832              -0.000093474               0.000657378               0.000563904               0.000000000               0.000000000               0.000000000               0.000000000               0.000331018               0.001871444              -0.000021153              -0.000109798               0.000660408               0.000550609               0.000000000               0.000000000               0.000000000               0.000000000               0.000281927               0.001875198              -0.000017636              -0.000128677               0.000667952               0.000539275               0.000000000               0.000000000               0.000000000               0.000000000               0.000233274               0.001888967              -0.000012524              -0.000148643               0.000679197               0.000530554               0.000000000               0.000000000               0.000000000               0.000000000               0.000185073               0.001909092              -0.000008634              -0.000169234               0.000692769               0.000523535               0.000000000               0.000000000               0.000000000               0.000000000               0.000139860               0.001931378              -0.000010135              -0.000188974               0.000706777               0.000517803               0.000000000               0.000000000               0.000000000               0.000000000               0.000099258               0.001951968              -0.000016332              -0.000206774               0.000719574               0.000512800               0.000000000               0.000000000               0.000000000               0.000000000               0.000064004               0.001972360              -0.000016865              -0.000222543               0.000731628               0.000509085               0.000000000               0.000000000               0.000000000               0.000000000               0.000033256               0.001997275              -0.000007758              -0.000237188               0.000744814               0.000507626               0.000000000               0.000000000               0.000000000               0.000000000               0.000020930               0.002017455              -0.000002462              -0.000244333               0.000753923               0.000509590               0.000000000               0.000000000               0.000000000               0.000000000               0.000472023               0.003046977              -0.000722455              -0.000203863               0.001083603               0.000879740               0.000000000               0.000000000               0.000000000               0.000000000               0.000421178               0.002599678              -0.000489611              -0.000167018               0.000922223               0.000755205               0.000000000               0.000000000               0.000000000               0.000000000               0.000468977               0.002278828              -0.000252877              -0.000108987               0.000795931               0.000686944               0.000000000               0.000000000               0.000000000               0.000000000               0.000460544               0.002101911              -0.000145775              -0.000090035               0.000730641               0.000640607               0.000000000               0.000000000               0.000000000               0.000000000               0.000435844               0.002000736              -0.000093746              -0.000086650               0.000695789               0.000609138               0.000000000               0.000000000               0.000000000               0.000000000               0.000401119               0.001938861              -0.000067880              -0.000091938               0.000676926               0.000584989               0.000000000               0.000000000               0.000000000               0.000000000               0.000363105               0.001902309              -0.000054226              -0.000101624               0.000667971               0.000566347               0.000000000               0.000000000               0.000000000               0.000000000               0.000326910               0.001883831              -0.000046779              -0.000112887               0.000665567               0.000552679               0.000000000               0.000000000               0.000000000               0.000000000               0.000288317               0.001877534              -0.000040578              -0.000126573               0.000668029               0.000541457               0.000000000               0.000000000               0.000000000               0.000000000               0.000246353               0.001882398              -0.000032832              -0.000142917               0.000675099               0.000532182               0.000000000               0.000000000               0.000000000               0.000000000               0.000202993               0.001895145              -0.000023333              -0.000160770               0.000685299               0.000524528               0.000000000               0.000000000               0.000000000               0.000000000               0.000160894               0.001911865              -0.000017457              -0.000178647               0.000696831               0.000518184               0.000000000               0.000000000               0.000000000               0.000000000               0.000122871               0.001925585              -0.000019602              -0.000194621               0.000706729               0.000512108               0.000000000               0.000000000               0.000000000               0.000000000               0.000090101               0.001937175              -0.000025180              -0.000208359               0.000715171               0.000506813               0.000000000               0.000000000               0.000000000               0.000000000               0.000058502               0.001948529              -0.000021746              -0.000221627               0.000723379               0.000501752               0.000000000               0.000000000               0.000000000               0.000000000               0.000028053               0.001961592              -0.000008305              -0.000234679               0.000732084               0.000497405               0.000000000               0.000000000               0.000000000               0.000000000               0.000015097               0.001971487              -0.000001831              -0.000240774               0.000737414               0.000496640               0.000000000               0.000000000               0.000000000               0.000000000               0.000560987               0.002745032              -0.000858609              -0.000132759               0.000959254               0.000826495               0.000000000               0.000000000               0.000000000               0.000000000               0.000447205               0.002393050              -0.000587336              -0.000131429               0.000841485               0.000710056               0.000000000               0.000000000               0.000000000               0.000000000               0.000428357               0.002174470              -0.000314371              -0.000111175               0.000761874               0.000650700               0.000000000               0.000000000               0.000000000               0.000000000               0.000396401               0.002050685              -0.000194208              -0.000107685               0.000719450               0.000611765               0.000000000               0.000000000               0.000000000               0.000000000               0.000365408               0.001977445              -0.000136444              -0.000110152               0.000695859               0.000585707               0.000000000               0.000000000               0.000000000               0.000000000               0.000333934               0.001930577              -0.000105307              -0.000116097               0.000682218               0.000566121               0.000000000               0.000000000               0.000000000               0.000000000               0.000301508               0.001902374              -0.000087007              -0.000124731               0.000675695               0.000550964               0.000000000               0.000000000               0.000000000               0.000000000               0.000271509               0.001886933              -0.000074278              -0.000134050               0.000673655               0.000539605               0.000000000               0.000000000               0.000000000               0.000000000               0.000241631               0.001886219              -0.000062325              -0.000145165               0.000677122               0.000531956               0.000000000               0.000000000               0.000000000               0.000000000               0.000207107               0.001893451              -0.000048359              -0.000159016               0.000684149               0.000525133               0.000000000               0.000000000               0.000000000               0.000000000               0.000172686               0.001907537              -0.000034499              -0.000173685               0.000693734               0.000520049               0.000000000               0.000000000               0.000000000               0.000000000               0.000137775               0.001916452              -0.000026633              -0.000187891               0.000701441               0.000513551               0.000000000               0.000000000               0.000000000               0.000000000               0.000108488               0.001921548              -0.000026730              -0.000199510               0.000707013               0.000507503               0.000000000               0.000000000               0.000000000               0.000000000               0.000082650               0.001926473              -0.000028772              -0.000209815               0.000712090               0.000502275               0.000000000               0.000000000               0.000000000               0.000000000               0.000053089               0.001933559              -0.000021410              -0.000221786               0.000718442               0.000496656               0.000000000               0.000000000               0.000000000               0.000000000               0.000024811               0.001942001              -0.000007234              -0.000233445               0.000725142               0.000491697               0.000000000               0.000000000               0.000000000               0.000000000               0.000014062               0.001948928              -0.000002002              -0.000238342               0.000729083               0.000490741               0.000000000               0.000000000               0.000000000               0.000000000               0.000635430               0.002409716              -0.000931987              -0.000062929               0.000824207               0.000761278               0.000000000               0.000000000               0.000000000               0.000000000               0.000465452               0.002167766              -0.000648493              -0.000096427               0.000754723               0.000658297               0.000000000               0.000000000               0.000000000               0.000000000               0.000384118               0.002061292              -0.000364604              -0.000113617               0.000724963               0.000611346               0.000000000               0.000000000               0.000000000               0.000000000               0.000333654               0.001990557              -0.000242349              -0.000123699               0.000704745               0.000581046               0.000000000               0.000000000               0.000000000               0.000000000               0.000299662               0.001943952              -0.000180822              -0.000130620               0.000691518               0.000560897               0.000000000               0.000000000               0.000000000               0.000000000               0.000273839               0.001915430              -0.000144935              -0.000136739               0.000684050               0.000547311               0.000000000               0.000000000               0.000000000               0.000000000               0.000247700               0.001898845              -0.000121103              -0.000144468               0.000681098               0.000536630               0.000000000               0.000000000               0.000000000               0.000000000               0.000223423               0.001894127              -0.000101486              -0.000152982               0.000682363               0.000529381               0.000000000               0.000000000               0.000000000               0.000000000               0.000199295               0.001900218              -0.000081698              -0.000162791               0.000687663               0.000524872               0.000000000               0.000000000               0.000000000               0.000000000               0.000171308               0.001912516              -0.000060478              -0.000174824               0.000695773               0.000520950               0.000000000               0.000000000               0.000000000               0.000000000               0.000144478               0.001923993              -0.000043568              -0.000186319               0.000703431               0.000517112               0.000000000               0.000000000               0.000000000               0.000000000               0.000122367               0.001926874              -0.000034832              -0.000194971               0.000707275               0.000512304               0.000000000               0.000000000               0.000000000               0.000000000               0.000101014               0.001926814              -0.000030618              -0.000202971               0.000709922               0.000506951               0.000000000               0.000000000               0.000000000               0.000000000               0.000076574               0.001931591              -0.000026964              -0.000212733               0.000714768               0.000502035               0.000000000               0.000000000               0.000000000               0.000000000               0.000049638               0.001944311              -0.000016579              -0.000224424               0.000722905               0.000498481               0.000000000               0.000000000               0.000000000               0.000000000               0.000022794               0.001959159              -0.000004461              -0.000236346               0.000731829               0.000495482               0.000000000               0.000000000               0.000000000               0.000000000               0.000013134               0.001970730              -0.000001952              -0.000241415               0.000737375               0.000495960               0.000000000               0.000000000               0.000000000               0.000000000               0.000687243               0.002062084              -0.000947719              -0.000000046               0.000687369               0.000687324               0.000000000               0.000000000               0.000000000               0.000000000               0.000474275               0.001940085              -0.000677815              -0.000064658               0.000668241               0.000603583               0.000000000               0.000000000               0.000000000               0.000000000               0.000341784               0.001943909              -0.000405681              -0.000114820               0.000686236               0.000571417               0.000000000               0.000000000               0.000000000               0.000000000               0.000282246               0.001921937              -0.000286983              -0.000134400               0.000685439               0.000551040               0.000000000               0.000000000               0.000000000               0.000000000               0.000250315               0.001904270              -0.000222358              -0.000144165               0.000682806               0.000538640               0.000000000               0.000000000               0.000000000               0.000000000               0.000230591               0.001897633              -0.000181046              -0.000150732               0.000682782               0.000532050               0.000000000               0.000000000               0.000000000               0.000000000               0.000208311               0.001895692              -0.000149953              -0.000158845               0.000684839               0.000525995               0.000000000               0.000000000               0.000000000               0.000000000               0.000186032               0.001903003              -0.000122986              -0.000168113               0.000690366               0.000522253               0.000000000               0.000000000               0.000000000               0.000000000               0.000165548               0.001917638              -0.000095396              -0.000177624               0.000698414               0.000520790               0.000000000               0.000000000               0.000000000               0.000000000               0.000141992               0.001934566              -0.000069923              -0.000188573               0.000707707               0.000519133               0.000000000               0.000000000               0.000000000               0.000000000               0.000121996               0.001944212              -0.000052290              -0.000197278               0.000713824               0.000516546               0.000000000               0.000000000               0.000000000               0.000000000               0.000110734               0.001948823              -0.000042965              -0.000202077               0.000716960               0.000514883               0.000000000               0.000000000               0.000000000               0.000000000               0.000095146               0.001954487              -0.000034892              -0.000208631               0.000721033               0.000512402               0.000000000               0.000000000               0.000000000               0.000000000               0.000072648               0.001970129              -0.000025000              -0.000219023               0.000729711               0.000510688               0.000000000               0.000000000               0.000000000               0.000000000               0.000048924               0.001994680              -0.000012311              -0.000230988               0.000741883               0.000510895               0.000000000               0.000000000               0.000000000               0.000000000               0.000025303               0.002019958              -0.000002800              -0.000243006               0.000754315               0.000511309               0.000000000               0.000000000               0.000000000               0.000000000               0.000017499               0.002038557              -0.000002585              -0.000248257               0.000762264               0.000514008               0.000000000               0.000000000               0.000000000               0.000000000               0.000716660               0.001724158              -0.000911446               0.000053226               0.000556971               0.000610197               0.000000000               0.000000000               0.000000000               0.000000000               0.000476256               0.001722969              -0.000680100              -0.000036776               0.000586576               0.000549800               0.000000000               0.000000000               0.000000000               0.000000000               0.000308947               0.001827452              -0.000439224              -0.000112576               0.000646670               0.000534094               0.000000000               0.000000000               0.000000000               0.000000000               0.000248562               0.001851378              -0.000325699              -0.000138212               0.000663190               0.000524979               0.000000000               0.000000000               0.000000000               0.000000000               0.000222262               0.001863506              -0.000256546              -0.000149590               0.000671026               0.000521436               0.000000000               0.000000000               0.000000000               0.000000000               0.000205189               0.001875543              -0.000207838              -0.000157497               0.000677674               0.000520177               0.000000000               0.000000000               0.000000000               0.000000000               0.000185850               0.001889674              -0.000169053              -0.000166515               0.000685390               0.000518875               0.000000000               0.000000000               0.000000000               0.000000000               0.000162266               0.001910932              -0.000134489              -0.000178017               0.000696310               0.000518293               0.000000000               0.000000000               0.000000000               0.000000000               0.000138672               0.001937085              -0.000103440              -0.000190133               0.000709066               0.000518933               0.000000000               0.000000000               0.000000000               0.000000000               0.000121341               0.001960236              -0.000076302              -0.000199526               0.000719914               0.000520388               0.000000000               0.000000000               0.000000000               0.000000000               0.000110663               0.001976476              -0.000057740              -0.000205561               0.000727339               0.000521778               0.000000000               0.000000000               0.000000000               0.000000000               0.000101482               0.001993030              -0.000047397              -0.000211072               0.000734694               0.000523622               0.000000000               0.000000000               0.000000000               0.000000000               0.000087113               0.002019304              -0.000035442              -0.000219745               0.000746343               0.000526598               0.000000000               0.000000000               0.000000000               0.000000000               0.000066439               0.002056748              -0.000020324              -0.000232178               0.000762969               0.000530790               0.000000000               0.000000000               0.000000000               0.000000000               0.000045297               0.002101145              -0.000006977              -0.000245656               0.000782260               0.000536604               0.000000000               0.000000000               0.000000000               0.000000000               0.000026010               0.002146735               0.000000429              -0.000258588               0.000801767               0.000543180               0.000000000               0.000000000               0.000000000               0.000000000               0.000020233               0.002178366              -0.000000988              -0.000264708               0.000814351               0.000549643               0.000000000               0.000000000               0.000000000               0.000000000               0.000729658               0.001424768              -0.000839655               0.000095524               0.000443076               0.000538600               0.000000000               0.000000000               0.000000000               0.000000000               0.000482771               0.001526009              -0.000667848              -0.000009713               0.000511902               0.000502189               0.000000000               0.000000000               0.000000000               0.000000000               0.000297605               0.001719416              -0.000474427              -0.000103325               0.000607575               0.000504249               0.000000000               0.000000000               0.000000000               0.000000000               0.000240538               0.001787729              -0.000364773              -0.000133264               0.000640325               0.000507061               0.000000000               0.000000000               0.000000000               0.000000000               0.000217533               0.001824552              -0.000289673              -0.000146494               0.000657009               0.000510516               0.000000000               0.000000000               0.000000000               0.000000000               0.000201880               0.001852514              -0.000232202              -0.000155859               0.000669452               0.000513593               0.000000000               0.000000000               0.000000000               0.000000000               0.000183792               0.001883872              -0.000186166              -0.000166562               0.000683472               0.000516910               0.000000000               0.000000000               0.000000000               0.000000000               0.000160678               0.001920769              -0.000147528              -0.000179841               0.000700197               0.000520356               0.000000000               0.000000000               0.000000000               0.000000000               0.000136084               0.001958344              -0.000115949              -0.000193761               0.000717362               0.000523601               0.000000000               0.000000000               0.000000000               0.000000000               0.000122694               0.001990310              -0.000088071              -0.000202778               0.000731023               0.000528245               0.000000000               0.000000000               0.000000000               0.000000000               0.000115199               0.002013548              -0.000065154              -0.000208493               0.000740674               0.000532180               0.000000000               0.000000000               0.000000000               0.000000000               0.000105482               0.002043062              -0.000048304              -0.000215827               0.000752956               0.000537130               0.000000000               0.000000000               0.000000000               0.000000000               0.000091965               0.002092221              -0.000031060              -0.000227040               0.000773080               0.000546040               0.000000000               0.000000000               0.000000000               0.000000000               0.000073268               0.002154634              -0.000011590              -0.000241853               0.000798822               0.000556969               0.000000000               0.000000000               0.000000000               0.000000000               0.000057433               0.002225941               0.000003272              -0.000256705               0.000827541               0.000570837               0.000000000               0.000000000               0.000000000               0.000000000               0.000047530               0.002296753               0.000007963              -0.000269270               0.000855333               0.000586064               0.000000000               0.000000000               0.000000000               0.000000000               0.000043929               0.002337229               0.000005817              -0.000275680               0.000870962               0.000595282               0.000000000               0.000000000               0.000000000               0.000000000               0.000721115               0.001129666              -0.000750608               0.000129208               0.000333482               0.000462690               0.000000000               0.000000000               0.000000000               0.000000000               0.000499949               0.001294484              -0.000649416               0.000025669               0.000422934               0.000448603               0.000000000               0.000000000               0.000000000               0.000000000               0.000315135               0.001554619              -0.000516988              -0.000076152               0.000543585               0.000467433               0.000000000               0.000000000               0.000000000               0.000000000               0.000254346               0.001668420              -0.000414564              -0.000113173               0.000593859               0.000480686               0.000000000               0.000000000               0.000000000               0.000000000               0.000230815               0.001731785              -0.000335418              -0.000129917               0.000620562               0.000490644               0.000000000               0.000000000               0.000000000               0.000000000               0.000216544               0.001781666              -0.000270759              -0.000141504               0.000641051               0.000499547               0.000000000               0.000000000               0.000000000               0.000000000               0.000200345               0.001828070              -0.000218033              -0.000153379               0.000660477               0.000507098               0.000000000               0.000000000               0.000000000               0.000000000               0.000180899               0.001876880              -0.000176200              -0.000166773               0.000681211               0.000514439               0.000000000               0.000000000               0.000000000               0.000000000               0.000158918               0.001926141              -0.000144004              -0.000181173               0.000702431               0.000521258               0.000000000               0.000000000               0.000000000               0.000000000               0.000141192               0.001970429              -0.000114664              -0.000193356               0.000721255               0.000527899               0.000000000               0.000000000               0.000000000               0.000000000               0.000130449               0.002006084              -0.000085803              -0.000201842               0.000735969               0.000534127               0.000000000               0.000000000               0.000000000               0.000000000               0.000120199               0.002045738              -0.000060882              -0.000210642               0.000752120               0.000541478               0.000000000               0.000000000               0.000000000               0.000000000               0.000108787               0.002100850              -0.000036620              -0.000221811               0.000774213               0.000552403               0.000000000               0.000000000               0.000000000               0.000000000               0.000097258               0.002176197              -0.000014829              -0.000235552               0.000803909               0.000568357               0.000000000               0.000000000               0.000000000               0.000000000               0.000091086               0.002268524              -0.000003183              -0.000249408               0.000839303               0.000589895               0.000000000               0.000000000               0.000000000               0.000000000               0.000092530               0.002366468              -0.000000341              -0.000261109               0.000875851               0.000614742               0.000000000               0.000000000               0.000000000               0.000000000               0.000090556               0.002413853               0.000001470              -0.000267772               0.000893867               0.000626095               0.000000000               0.000000000               0.000000000               0.000000000               0.000682390               0.000850232              -0.000644356               0.000149615               0.000233536               0.000383151               0.000000000               0.000000000               0.000000000               0.000000000               0.000518798               0.001062846              -0.000615068               0.000061692               0.000333714               0.000395406               0.000000000               0.000000000               0.000000000               0.000000000               0.000354484               0.001367090              -0.000547167              -0.000037955               0.000468344               0.000430388               0.000000000               0.000000000               0.000000000               0.000000000               0.000287822               0.001520761              -0.000461047              -0.000082162               0.000534303               0.000452140               0.000000000               0.000000000               0.000000000               0.000000000               0.000259267               0.001616568              -0.000383833              -0.000104846               0.000573799               0.000468953               0.000000000               0.000000000               0.000000000               0.000000000               0.000245571               0.001691337              -0.000315474              -0.000119328               0.000603549               0.000484221               0.000000000               0.000000000               0.000000000               0.000000000               0.000231600               0.001755365              -0.000258154              -0.000132570               0.000629306               0.000496735               0.000000000               0.000000000               0.000000000               0.000000000               0.000214957               0.001817058              -0.000213093              -0.000146523               0.000654521               0.000507998               0.000000000               0.000000000               0.000000000               0.000000000               0.000193656               0.001873735              -0.000178098              -0.000161596               0.000678437               0.000516842               0.000000000               0.000000000               0.000000000               0.000000000               0.000172067               0.001926459              -0.000146839              -0.000176282               0.000700907               0.000524625               0.000000000               0.000000000               0.000000000               0.000000000               0.000157146               0.001977218              -0.000113190              -0.000188222               0.000721807               0.000533585               0.000000000               0.000000000               0.000000000               0.000000000               0.000144971               0.002028426              -0.000080559              -0.000199189               0.000742531               0.000543343               0.000000000               0.000000000               0.000000000               0.000000000               0.000137451               0.002085563              -0.000053056              -0.000209151               0.000764897               0.000555747               0.000000000               0.000000000               0.000000000               0.000000000               0.000137316               0.002157472              -0.000032149              -0.000218190               0.000791880               0.000573690               0.000000000               0.000000000               0.000000000               0.000000000               0.000139002               0.002249156              -0.000018826              -0.000229018               0.000826050               0.000597032               0.000000000               0.000000000               0.000000000               0.000000000               0.000139103               0.002354957              -0.000008929              -0.000242205               0.000865713               0.000623508               0.000000000               0.000000000               0.000000000               0.000000000               0.000129977               0.002402400              -0.000000361              -0.000251558               0.000884645               0.000633087               0.000000000               0.000000000               0.000000000               0.000000000               0.000614782               0.000605982              -0.000521694               0.000154794               0.000150394               0.000305187               0.000000000               0.000000000               0.000000000               0.000000000               0.000525357               0.000839924              -0.000553883               0.000092017               0.000249299               0.000341316               0.000000000               0.000000000               0.000000000               0.000000000               0.000399976               0.001155883              -0.000545392               0.000005505               0.000383455               0.000388960               0.000000000               0.000000000               0.000000000               0.000000000               0.000337460               0.001345005              -0.000482348              -0.000041579               0.000462190               0.000420611               0.000000000               0.000000000               0.000000000               0.000000000               0.000302951               0.001474454              -0.000414335              -0.000070700               0.000515046               0.000444346               0.000000000               0.000000000               0.000000000               0.000000000               0.000284554               0.001573806              -0.000348519              -0.000090018               0.000554603               0.000464585               0.000000000               0.000000000               0.000000000               0.000000000               0.000270007               0.001660375              -0.000289882              -0.000106294               0.000588884               0.000482590               0.000000000               0.000000000               0.000000000               0.000000000               0.000252887               0.001737625              -0.000242390              -0.000122370               0.000619993               0.000497622               0.000000000               0.000000000               0.000000000               0.000000000               0.000229773               0.001803434              -0.000205382              -0.000139264               0.000647560               0.000508296               0.000000000               0.000000000               0.000000000               0.000000000               0.000206127               0.001865501              -0.000173791              -0.000155890               0.000673791               0.000517901               0.000000000               0.000000000               0.000000000               0.000000000               0.000187243               0.001929620              -0.000138103              -0.000170986               0.000700195               0.000529210               0.000000000               0.000000000               0.000000000               0.000000000               0.000177782               0.001994501              -0.000104678              -0.000182644               0.000725708               0.000543064               0.000000000               0.000000000               0.000000000               0.000000000               0.000175220               0.002059606              -0.000079669              -0.000191743               0.000750443               0.000558700               0.000000000               0.000000000               0.000000000               0.000000000               0.000180240               0.002138039              -0.000058258              -0.000199665               0.000779228               0.000579563               0.000000000               0.000000000               0.000000000               0.000000000               0.000185658               0.002233330              -0.000038602              -0.000209544               0.000814284               0.000604740               0.000000000               0.000000000               0.000000000               0.000000000               0.000183331               0.002343062              -0.000019170              -0.000224133               0.000855724               0.000631591               0.000000000               0.000000000               0.000000000               0.000000000               0.000169241               0.002394126              -0.000005019              -0.000235800               0.000876634               0.000640834               0.000000000               0.000000000               0.000000000               0.000000000               0.000523320               0.000408299              -0.000395971               0.000145206               0.000087696               0.000232902               0.000000000               0.000000000               0.000000000               0.000000000               0.000518298               0.000634391              -0.000468497               0.000115061               0.000173108               0.000288169               0.000000000               0.000000000               0.000000000               0.000000000               0.000450121               0.000939046              -0.000505463               0.000051414               0.000295874               0.000347288               0.000000000               0.000000000               0.000000000               0.000000000               0.000398703               0.001153533              -0.000468293               0.000005321               0.000382733               0.000388054               0.000000000               0.000000000               0.000000000               0.000000000               0.000361928               0.001312374              -0.000413919              -0.000028324               0.000446895               0.000418571               0.000000000               0.000000000               0.000000000               0.000000000               0.000334760               0.001435344              -0.000355917              -0.000053883               0.000496404               0.000442521               0.000000000               0.000000000               0.000000000               0.000000000               0.000315575               0.001543219              -0.000301209              -0.000074562               0.000539255               0.000464693               0.000000000               0.000000000               0.000000000               0.000000000               0.000295574               0.001635913              -0.000254410              -0.000093649               0.000576515               0.000482866               0.000000000               0.000000000               0.000000000               0.000000000               0.000273421               0.001714549              -0.000218048              -0.000111786               0.000608772               0.000496987               0.000000000               0.000000000               0.000000000               0.000000000               0.000249517               0.001787332              -0.000186915              -0.000129847               0.000639054               0.000509206               0.000000000               0.000000000               0.000000000               0.000000000               0.000229818               0.001859873              -0.000156043              -0.000146302               0.000668719               0.000522417               0.000000000               0.000000000               0.000000000               0.000000000               0.000221749               0.001938666              -0.000128154              -0.000159177               0.000699274               0.000540098               0.000000000               0.000000000               0.000000000               0.000000000               0.000221319               0.002024736              -0.000103939              -0.000170097               0.000731604               0.000561507               0.000000000               0.000000000               0.000000000               0.000000000               0.000226288               0.002123788              -0.000081789              -0.000180615               0.000768127               0.000587512               0.000000000               0.000000000               0.000000000               0.000000000               0.000233618               0.002231058              -0.000057072              -0.000191275               0.000807437               0.000616162               0.000000000               0.000000000               0.000000000               0.000000000               0.000234749               0.002343779              -0.000028835              -0.000204941               0.000849566               0.000644625               0.000000000               0.000000000               0.000000000               0.000000000               0.000221873               0.002395702              -0.000010791              -0.000216260               0.000870646               0.000654386               0.000000000               0.000000000               0.000000000               0.000000000               0.000422517               0.000257156              -0.000277523               0.000126298               0.000043618               0.000169916               0.000000000               0.000000000               0.000000000               0.000000000               0.000498941               0.000457627              -0.000364566               0.000129898               0.000109241               0.000239139               0.000000000               0.000000000               0.000000000               0.000000000               0.000498007               0.000737229              -0.000425845               0.000094598               0.000214208               0.000308806               0.000000000               0.000000000               0.000000000               0.000000000               0.000465184               0.000963866              -0.000410410               0.000053960               0.000303299               0.000357259               0.000000000               0.000000000               0.000000000               0.000000000               0.000427653               0.001144651              -0.000371145               0.000017288               0.000375784               0.000393072               0.000000000               0.000000000               0.000000000               0.000000000               0.000394319               0.001289958              -0.000325538              -0.000013375               0.000434440               0.000421065               0.000000000               0.000000000               0.000000000               0.000000000               0.000368004               0.001412691              -0.000279741              -0.000038585               0.000483754               0.000445169               0.000000000               0.000000000               0.000000000               0.000000000               0.000343209               0.001516652              -0.000239350              -0.000060878               0.000525838               0.000464960               0.000000000               0.000000000               0.000000000               0.000000000               0.000322094               0.001610040              -0.000207183              -0.000080470               0.000563498               0.000483028               0.000000000               0.000000000               0.000000000               0.000000000               0.000300906               0.001695701              -0.000179162              -0.000099123               0.000598269               0.000499146               0.000000000               0.000000000               0.000000000               0.000000000               0.000283053               0.001782659              -0.000155069              -0.000116687               0.000633109               0.000516422               0.000000000               0.000000000               0.000000000               0.000000000               0.000272211               0.001879128              -0.000134673              -0.000132812               0.000670640               0.000537829               0.000000000               0.000000000               0.000000000               0.000000000               0.000270703               0.001985835              -0.000114935              -0.000146716               0.000710844               0.000564128               0.000000000               0.000000000               0.000000000               0.000000000               0.000278531               0.002108347              -0.000094222              -0.000159094               0.000755807               0.000596713               0.000000000               0.000000000               0.000000000               0.000000000               0.000288270               0.002234895              -0.000069158              -0.000171260               0.000802044               0.000630784               0.000000000               0.000000000               0.000000000               0.000000000               0.000296208               0.002352567              -0.000037460              -0.000182992               0.000845178               0.000662186               0.000000000               0.000000000               0.000000000               0.000000000               0.000290142               0.002403242              -0.000017343              -0.000191601               0.000864940               0.000673338               0.000000000               0.000000000               0.000000000               0.000000000               0.000331352               0.000150233              -0.000171650               0.000105477               0.000014918               0.000120395               0.000000000               0.000000000               0.000000000               0.000000000               0.000476724               0.000323072              -0.000247624               0.000138386               0.000061561               0.000199947               0.000000000               0.000000000               0.000000000               0.000000000               0.000536544               0.000572256              -0.000308341               0.000129671               0.000147526               0.000277197               0.000000000               0.000000000               0.000000000               0.000000000               0.000524555               0.000798604              -0.000306502               0.000096882               0.000233905               0.000330786               0.000000000               0.000000000               0.000000000               0.000000000               0.000490175               0.000994945              -0.000282124               0.000059447               0.000311829               0.000371276               0.000000000               0.000000000               0.000000000               0.000000000               0.000453259               0.001157405              -0.000251185               0.000025296               0.000377366               0.000402662               0.000000000               0.000000000               0.000000000               0.000000000               0.000418739               0.001289657              -0.000218059              -0.000004180               0.000431275               0.000427095               0.000000000               0.000000000               0.000000000               0.000000000               0.000390359               0.001403126              -0.000189633              -0.000029006               0.000477373               0.000448367               0.000000000               0.000000000               0.000000000               0.000000000               0.000365715               0.001504988              -0.000166726              -0.000050980               0.000518651               0.000467671               0.000000000               0.000000000               0.000000000               0.000000000               0.000346771               0.001606957              -0.000144454              -0.000070830               0.000559257               0.000488427               0.000000000               0.000000000               0.000000000               0.000000000               0.000331362               0.001717340              -0.000125570              -0.000090407               0.000602577               0.000512170               0.000000000               0.000000000               0.000000000               0.000000000               0.000321507               0.001832320              -0.000113021              -0.000108474               0.000646925               0.000538451               0.000000000               0.000000000               0.000000000               0.000000000               0.000321442               0.001954516              -0.000103424              -0.000123773               0.000692757               0.000568983               0.000000000               0.000000000               0.000000000               0.000000000               0.000332597               0.002090877              -0.000088790              -0.000136635               0.000742497               0.000605862               0.000000000               0.000000000               0.000000000               0.000000000               0.000349507               0.002233687              -0.000066955              -0.000148145               0.000793937               0.000645791               0.000000000               0.000000000               0.000000000               0.000000000               0.000364429               0.002360204              -0.000038536              -0.000158364               0.000839515               0.000681151               0.000000000               0.000000000               0.000000000               0.000000000               0.000367459               0.002412909              -0.000021152              -0.000163816               0.000858900               0.000695084               0.000000000               0.000000000               0.000000000               0.000000000               0.000265280               0.000087785              -0.000080531               0.000088506              -0.000000241               0.000088265               0.000000000               0.000000000               0.000000000               0.000000000               0.000459233               0.000239049              -0.000124819               0.000142330               0.000032239               0.000174569               0.000000000               0.000000000               0.000000000               0.000000000               0.000562425               0.000463924              -0.000161908               0.000152917               0.000103667               0.000256584               0.000000000               0.000000000               0.000000000               0.000000000               0.000565446               0.000686388              -0.000164064               0.000126242               0.000186713               0.000312955               0.000000000               0.000000000               0.000000000               0.000000000               0.000535704               0.000889623              -0.000153273               0.000089685               0.000266643               0.000356328               0.000000000               0.000000000               0.000000000               0.000000000               0.000496158               0.001061915              -0.000137085               0.000053319               0.000336195               0.000389514               0.000000000               0.000000000               0.000000000               0.000000000               0.000457601               0.001202679              -0.000119999               0.000021265               0.000393801               0.000415066               0.000000000               0.000000000               0.000000000               0.000000000               0.000425109               0.001322223              -0.000105737              -0.000005862               0.000442691               0.000436829               0.000000000               0.000000000               0.000000000               0.000000000               0.000396162               0.001429991              -0.000094334              -0.000030188               0.000486722               0.000456534               0.000000000               0.000000000               0.000000000               0.000000000               0.000375349               0.001542123              -0.000081882              -0.000052009               0.000531372               0.000479363               0.000000000               0.000000000               0.000000000               0.000000000               0.000365073               0.001665923              -0.000070149              -0.000071338               0.000579082               0.000507744               0.000000000               0.000000000               0.000000000               0.000000000               0.000362923               0.001800001              -0.000064777              -0.000088904               0.000629629               0.000540725               0.000000000               0.000000000               0.000000000               0.000000000               0.000366724               0.001942146              -0.000062482              -0.000105247               0.000682458               0.000577211               0.000000000               0.000000000               0.000000000               0.000000000               0.000374893               0.002082147              -0.000056903              -0.000119683               0.000733937               0.000614253               0.000000000               0.000000000               0.000000000               0.000000000               0.000392276               0.002220559              -0.000042949              -0.000130466               0.000783668               0.000653201               0.000000000               0.000000000               0.000000000               0.000000000               0.000417575               0.002349500              -0.000022854              -0.000137096               0.000828858               0.000691761               0.000000000               0.000000000               0.000000000               0.000000000               0.000432465               0.002407616              -0.000012184              -0.000138777               0.000848790               0.000710012               0.000000000               0.000000000               0.000000000               0.000000000               0.000240775               0.000067989              -0.000000000               0.000081791              -0.000004601               0.000077190               0.000000000               0.000000000               0.000000000               0.000000000               0.000452872               0.000210815              -0.000000000               0.000143473               0.000022447               0.000165920               0.000000000               0.000000000               0.000000000               0.000000000               0.000572049               0.000426357              -0.000000000               0.000161222               0.000088377               0.000249599               0.000000000               0.000000000               0.000000000               0.000000000               0.000580006               0.000646969              -0.000000000               0.000136630               0.000170111               0.000306741               0.000000000               0.000000000               0.000000000               0.000000000               0.000552458               0.000851653              -0.000000000               0.000100714               0.000250310               0.000351024               0.000000000               0.000000000               0.000000000               0.000000000               0.000511473               0.001026675               0.000000000               0.000063467               0.000321066               0.000384533               0.000000000               0.000000000               0.000000000               0.000000000               0.000473164               0.001171518               0.000000000               0.000030997               0.000380170               0.000411167               0.000000000               0.000000000               0.000000000               0.000000000               0.000437335               0.001291764              -0.000000000               0.000002530               0.000429741               0.000432270               0.000000000               0.000000000               0.000000000               0.000000000               0.000406923               0.001403089              -0.000000000              -0.000022790               0.000475288               0.000452498               0.000000000               0.000000000               0.000000000               0.000000000               0.000384433               0.001519880               0.000000000              -0.000045822               0.000521896               0.000476073               0.000000000               0.000000000               0.000000000               0.000000000               0.000377829               0.001645476               0.000000000              -0.000063998               0.000569819               0.000505821               0.000000000               0.000000000               0.000000000               0.000000000               0.000380167               0.001785954              -0.000000000              -0.000080681               0.000622206               0.000541524               0.000000000               0.000000000               0.000000000               0.000000000               0.000385716               0.001939622              -0.000000000              -0.000097809               0.000679137               0.000581328               0.000000000               0.000000000               0.000000000               0.000000000               0.000392026               0.002084726              -0.000000000              -0.000113581               0.000732762               0.000619181               0.000000000               0.000000000               0.000000000               0.000000000               0.000404462               0.002211904              -0.000000000              -0.000124815               0.000778899               0.000654084               0.000000000               0.000000000               0.000000000               0.000000000               0.000434213               0.002331477               0.000000000              -0.000128604               0.000820019               0.000691415               0.000000000               0.000000000               0.000000000               0.000000000               0.000455943               0.002390893              -0.000000000              -0.000127882               0.000839584               0.000711701               0.000000000               0.000000000               0.000000000               0.000000000               0.000000000               0.000000000               0.000000000               0.000000000               0.000000000               0.000000000               0.000000000               0.000000000               0.000000000               0.000000000               0.000000000               0.000000000               0.000000000               0.000000000               0.000000000               0.000000000               0.000000000               0.000000000               0.000000000               0.000000000               0.000000000               0.000000000               0.000000000               0.000000000               0.000000000               0.000000000               0.000000000               0.000000000               0.000000000               0.000000000               0.000000000               0.000000000               0.000000000               0.000000000               0.000000000               0.000000000               0.000000000               0.000000000               0.000000000               0.000000000               0.000000000               0.000000000               0.000000000               0.000000000               0.000000000               0.000000000               0.000000000               0.000000000               0.000000000               0.000000000               0.000000000               0.000000000               0.000000000               0.000000000               0.000000000               0.000000000               0.000000000               0.000000000               0.000000000               0.000000000               0.000000000               0.000000000               0.000000000               0.000000000               0.000000000               0.000000000               0.000000000               0.000000000               0.000000000               0.000000000               0.000000000               0.000000000               0.000000000               0.000000000               0.000000000               0.000000000               0.000000000               0.000000000               0.000000000               0.000000000               0.000000000               0.000000000               0.000000000               0.000000000               0.000000000               0.000000000               0.000000000               0.000000000               0.000000000               0.000000000               0.000000000               0.000000000               0.000000000               0.000000000               0.000000000               0.000000000               0.000000000               0.000000000               0.000000000               0.000000000               0.000000000               0.000000000               0.000000000               0.000000000               0.000000000               0.000000000               0.000000000               0.000000000               0.000000000               0.000000000               0.000000000               0.000000000               0.000000000               0.000000000               0.000000000               0.000000000               0.000000000               0.000000000               0.000000000               0.000000000               0.000000000               0.000000000               0.000000000               0.000000000               0.000000000               0.000000000               0.000000000               0.000000000               0.000000000               0.000000000               0.000000000               0.000000000               0.000000000               0.000000000               0.000000000               0.000000000               0.000000000               0.000000000               0.000000000               0.000000000               0.000000000               0.000000000               0.000000000               0.000000000               0.000000000               0.000000000               0.000000000               0.000000000               0.000000000               0.000000000               0.000000000               0.000000000               0.000000000               0.000000000               0.000000000               0.000000000               0.000000000               0.000000000               0.000000000               0.000000000               0.000000000               0.000000000               0.000000000               0.000000000               0.000000000               0.000000000               0.000000000               0.000000000               0.000000000               0.000000000               0.000333230               0.003442964               0.000274397              -0.000305409               0.001249446               0.000944037               0.000000000               0.000000000               0.000000000               0.000000000               0.000371965               0.002879558               0.000186647              -0.000220457               0.001033329               0.000812871               0.000000000               0.000000000               0.000000000               0.000000000               0.000517898               0.002426403               0.000094163              -0.000109088               0.000845156               0.000736067               0.000000000               0.000000000               0.000000000               0.000000000               0.000553952               0.002175285               0.000049240              -0.000064179               0.000746481               0.000682302               0.000000000               0.000000000               0.000000000               0.000000000               0.000542933               0.002030240               0.000026549              -0.000050180               0.000693467               0.000643287               0.000000000               0.000000000               0.000000000               0.000000000               0.000508748               0.001946184               0.000015723              -0.000052492               0.000666219               0.000613727               0.000000000               0.000000000               0.000000000               0.000000000               0.000462732               0.001899228               0.000010645              -0.000063879               0.000654363               0.000590484               0.000000000               0.000000000               0.000000000               0.000000000               0.000412535               0.001874864               0.000008586              -0.000079657               0.000651501               0.000571844               0.000000000               0.000000000               0.000000000               0.000000000               0.000361798               0.001867042               0.000007792              -0.000097706               0.000654910               0.000557204               0.000000000               0.000000000               0.000000000               0.000000000               0.000309298               0.001870301               0.000006709              -0.000117800               0.000662694               0.000544894               0.000000000               0.000000000               0.000000000               0.000000000               0.000257433               0.001884575               0.000004239              -0.000139034               0.000674530               0.000535496               0.000000000               0.000000000               0.000000000               0.000000000               0.000205330               0.001906774               0.000002634              -0.000161348               0.000689367               0.000528020               0.000000000               0.000000000               0.000000000               0.000000000               0.000154291               0.001934158               0.000004000              -0.000183910               0.000706016               0.000522106               0.000000000               0.000000000               0.000000000               0.000000000               0.000109335               0.001962275               0.000006770              -0.000204283               0.000722180               0.000517896               0.000000000               0.000000000               0.000000000               0.000000000               0.000070320               0.001990152               0.000008324              -0.000222399               0.000737510               0.000515112               0.000000000               0.000000000               0.000000000               0.000000000               0.000034296               0.002021253               0.000004347              -0.000239795               0.000753676               0.000513881               0.000000000               0.000000000               0.000000000               0.000000000               0.000020438               0.002047672               0.000001542              -0.000248294               0.000765315               0.000517021               0.000000000               0.000000000               0.000000000               0.000000000               0.000389964               0.003288969               0.000522972              -0.000264884               0.001184607               0.000919722               0.000000000               0.000000000               0.000000000               0.000000000               0.000393406               0.002768356               0.000354207              -0.000198517               0.000988948               0.000790431               0.000000000               0.000000000               0.000000000               0.000000000               0.000500099               0.002367470               0.000179576              -0.000108396               0.000825281               0.000716885               0.000000000               0.000000000               0.000000000               0.000000000               0.000517012               0.002146409               0.000097869              -0.000074422               0.000740270               0.000665848               0.000000000               0.000000000               0.000000000               0.000000000               0.000499615               0.002018679               0.000057379              -0.000064979               0.000694546               0.000629567               0.000000000               0.000000000               0.000000000               0.000000000               0.000463997               0.001943545               0.000037080              -0.000068944               0.000670823               0.000601879               0.000000000               0.000000000               0.000000000               0.000000000               0.000420471               0.001900145               0.000028013              -0.000079841               0.000659989               0.000580148               0.000000000               0.000000000               0.000000000               0.000000000               0.000376962               0.001878680               0.000023832              -0.000093474               0.000657378               0.000563904               0.000000000               0.000000000               0.000000000               0.000000000               0.000331018               0.001871444               0.000021153              -0.000109798               0.000660408               0.000550609               0.000000000               0.000000000               0.000000000               0.000000000               0.000281927               0.001875198               0.000017636              -0.000128677               0.000667952               0.000539275               0.000000000               0.000000000               0.000000000               0.000000000               0.000233274               0.001888967               0.000012524              -0.000148643               0.000679197               0.000530554               0.000000000               0.000000000               0.000000000               0.000000000               0.000185073               0.001909092               0.000008634              -0.000169234               0.000692769               0.000523535               0.000000000               0.000000000               0.000000000               0.000000000               0.000139860               0.001931378               0.000010135              -0.000188974               0.000706777               0.000517803               0.000000000               0.000000000               0.000000000               0.000000000               0.000099258               0.001951968               0.000016332              -0.000206774               0.000719574               0.000512800               0.000000000               0.000000000               0.000000000               0.000000000               0.000064004               0.001972360               0.000016865              -0.000222543               0.000731628               0.000509085               0.000000000               0.000000000               0.000000000               0.000000000               0.000033256               0.001997275               0.000007758              -0.000237188               0.000744814               0.000507626               0.000000000               0.000000000               0.000000000               0.000000000               0.000020930               0.002017455               0.000002462              -0.000244333               0.000753923               0.000509590               0.000000000               0.000000000               0.000000000               0.000000000               0.000472023               0.003046977               0.000722455              -0.000203863               0.001083603               0.000879740               0.000000000               0.000000000               0.000000000               0.000000000               0.000421178               0.002599678               0.000489611              -0.000167018               0.000922223               0.000755205               0.000000000               0.000000000               0.000000000               0.000000000               0.000468977               0.002278828               0.000252877              -0.000108987               0.000795931               0.000686944               0.000000000               0.000000000               0.000000000               0.000000000               0.000460544               0.002101911               0.000145775              -0.000090035               0.000730641               0.000640607               0.000000000               0.000000000               0.000000000               0.000000000               0.000435844               0.002000736               0.000093746              -0.000086650               0.000695789               0.000609138               0.000000000               0.000000000               0.000000000               0.000000000               0.000401119               0.001938861               0.000067880              -0.000091938               0.000676926               0.000584989               0.000000000               0.000000000               0.000000000               0.000000000               0.000363105               0.001902309               0.000054226              -0.000101624               0.000667971               0.000566347               0.000000000               0.000000000               0.000000000               0.000000000               0.000326910               0.001883831               0.000046779              -0.000112887               0.000665567               0.000552679               0.000000000               0.000000000               0.000000000               0.000000000               0.000288317               0.001877534               0.000040578              -0.000126573               0.000668029               0.000541457               0.000000000               0.000000000               0.000000000               0.000000000               0.000246353               0.001882398               0.000032832              -0.000142917               0.000675099               0.000532182               0.000000000               0.000000000               0.000000000               0.000000000               0.000202993               0.001895145               0.000023333              -0.000160770               0.000685299               0.000524528               0.000000000               0.000000000               0.000000000               0.000000000               0.000160894               0.001911865               0.000017457              -0.000178647               0.000696831               0.000518184               0.000000000               0.000000000               0.000000000               0.000000000               0.000122871               0.001925585               0.000019602              -0.000194621               0.000706729               0.000512108               0.000000000               0.000000000               0.000000000               0.000000000               0.000090101               0.001937175               0.000025180              -0.000208359               0.000715171               0.000506813               0.000000000               0.000000000               0.000000000               0.000000000               0.000058502               0.001948529               0.000021746              -0.000221627               0.000723379               0.000501752               0.000000000               0.000000000               0.000000000               0.000000000               0.000028053               0.001961592               0.000008305              -0.000234679               0.000732084               0.000497405               0.000000000               0.000000000               0.000000000               0.000000000               0.000015097               0.001971487               0.000001831              -0.000240774               0.000737414               0.000496640               0.000000000               0.000000000               0.000000000               0.000000000               0.000560987               0.002745032               0.000858609              -0.000132759               0.000959254               0.000826495               0.000000000               0.000000000               0.000000000               0.000000000               0.000447205               0.002393050               0.000587336              -0.000131429               0.000841485               0.000710056               0.000000000               0.000000000               0.000000000               0.000000000               0.000428357               0.002174470               0.000314371              -0.000111175               0.000761874               0.000650700               0.000000000               0.000000000               0.000000000               0.000000000               0.000396401               0.002050685               0.000194208              -0.000107685               0.000719450               0.000611765               0.000000000               0.000000000               0.000000000               0.000000000               0.000365408               0.001977445               0.000136444              -0.000110152               0.000695859               0.000585707               0.000000000               0.000000000               0.000000000               0.000000000               0.000333934               0.001930577               0.000105307              -0.000116097               0.000682218               0.000566121               0.000000000               0.000000000               0.000000000               0.000000000               0.000301508               0.001902374               0.000087007              -0.000124731               0.000675695               0.000550964               0.000000000               0.000000000               0.000000000               0.000000000               0.000271509               0.001886933               0.000074278              -0.000134050               0.000673655               0.000539605               0.000000000               0.000000000               0.000000000               0.000000000               0.000241631               0.001886219               0.000062325              -0.000145165               0.000677122               0.000531956               0.000000000               0.000000000               0.000000000               0.000000000               0.000207107               0.001893451               0.000048359              -0.000159016               0.000684149               0.000525133               0.000000000               0.000000000               0.000000000               0.000000000               0.000172686               0.001907537               0.000034499              -0.000173685               0.000693734               0.000520049               0.000000000               0.000000000               0.000000000               0.000000000               0.000137775               0.001916452               0.000026633              -0.000187891               0.000701441               0.000513551               0.000000000               0.000000000               0.000000000               0.000000000               0.000108488               0.001921548               0.000026730              -0.000199510               0.000707013               0.000507503               0.000000000               0.000000000               0.000000000               0.000000000               0.000082650               0.001926473               0.000028772              -0.000209815               0.000712090               0.000502275               0.000000000               0.000000000               0.000000000               0.000000000               0.000053089               0.001933559               0.000021410              -0.000221786               0.000718442               0.000496656               0.000000000               0.000000000               0.000000000               0.000000000               0.000024811               0.001942001               0.000007234              -0.000233445               0.000725142               0.000491697               0.000000000               0.000000000               0.000000000               0.000000000               0.000014062               0.001948928               0.000002002              -0.000238342               0.000729083               0.000490741               0.000000000               0.000000000               0.000000000               0.000000000               0.000635430               0.002409716               0.000931987              -0.000062929               0.000824207               0.000761278               0.000000000               0.000000000               0.000000000               0.000000000               0.000465452               0.002167766               0.000648493              -0.000096427               0.000754723               0.000658297               0.000000000               0.000000000               0.000000000               0.000000000               0.000384118               0.002061292               0.000364604              -0.000113617               0.000724963               0.000611346               0.000000000               0.000000000               0.000000000               0.000000000               0.000333654               0.001990557               0.000242349              -0.000123699               0.000704745               0.000581046               0.000000000               0.000000000               0.000000000               0.000000000               0.000299662               0.001943952               0.000180822              -0.000130620               0.000691518               0.000560897               0.000000000               0.000000000               0.000000000               0.000000000               0.000273839               0.001915430               0.000144935              -0.000136739               0.000684050               0.000547311               0.000000000               0.000000000               0.000000000               0.000000000               0.000247700               0.001898845               0.000121103              -0.000144468               0.000681098               0.000536630               0.000000000               0.000000000               0.000000000               0.000000000               0.000223423               0.001894127               0.000101486              -0.000152982               0.000682363               0.000529381               0.000000000               0.000000000               0.000000000               0.000000000               0.000199295               0.001900218               0.000081698              -0.000162791               0.000687663               0.000524872               0.000000000               0.000000000               0.000000000               0.000000000               0.000171308               0.001912516               0.000060478              -0.000174824               0.000695773               0.000520950               0.000000000               0.000000000               0.000000000               0.000000000               0.000144478               0.001923993               0.000043568              -0.000186319               0.000703431               0.000517112               0.000000000               0.000000000               0.000000000               0.000000000               0.000122367               0.001926874               0.000034832              -0.000194971               0.000707275               0.000512304               0.000000000               0.000000000               0.000000000               0.000000000               0.000101014               0.001926814               0.000030618              -0.000202971               0.000709922               0.000506951               0.000000000               0.000000000               0.000000000               0.000000000               0.000076574               0.001931591               0.000026964              -0.000212733               0.000714768               0.000502035               0.000000000               0.000000000               0.000000000               0.000000000               0.000049638               0.001944311               0.000016579              -0.000224424               0.000722905               0.000498481               0.000000000               0.000000000               0.000000000               0.000000000               0.000022794               0.001959159               0.000004461              -0.000236346               0.000731829               0.000495482               0.000000000               0.000000000               0.000000000               0.000000000               0.000013134               0.001970730               0.000001952              -0.000241415               0.000737375               0.000495960               0.000000000               0.000000000               0.000000000               0.000000000               0.000687243               0.002062084               0.000947719              -0.000000046               0.000687369               0.000687324               0.000000000               0.000000000               0.000000000               0.000000000               0.000474275               0.001940085               0.000677815              -0.000064658               0.000668241               0.000603583               0.000000000               0.000000000               0.000000000               0.000000000               0.000341784               0.001943909               0.000405681              -0.000114820               0.000686236               0.000571417               0.000000000               0.000000000               0.000000000               0.000000000               0.000282246               0.001921937               0.000286983              -0.000134400               0.000685439               0.000551040               0.000000000               0.000000000               0.000000000               0.000000000               0.000250315               0.001904270               0.000222358              -0.000144165               0.000682806               0.000538640               0.000000000               0.000000000               0.000000000               0.000000000               0.000230591               0.001897633               0.000181046              -0.000150732               0.000682782               0.000532050               0.000000000               0.000000000               0.000000000               0.000000000               0.000208311               0.001895692               0.000149953              -0.000158845               0.000684839               0.000525995               0.000000000               0.000000000               0.000000000               0.000000000               0.000186032               0.001903003               0.000122986              -0.000168113               0.000690366               0.000522253               0.000000000               0.000000000               0.000000000               0.000000000               0.000165548               0.001917638               0.000095396              -0.000177624               0.000698414               0.000520790               0.000000000               0.000000000               0.000000000               0.000000000               0.000141992               0.001934566               0.000069923              -0.000188573               0.000707707               0.000519133               0.000000000               0.000000000               0.000000000               0.000000000               0.000121996               0.001944212               0.000052290              -0.000197278               0.000713824               0.000516546               0.000000000               0.000000000               0.000000000               0.000000000               0.000110734               0.001948823               0.000042965              -0.000202077               0.000716960               0.000514883               0.000000000               0.000000000               0.000000000               0.000000000               0.000095146               0.001954487               0.000034892              -0.000208631               0.000721033               0.000512402               0.000000000               0.000000000               0.000000000               0.000000000               0.000072648               0.001970129               0.000025000              -0.000219023               0.000729711               0.000510688               0.000000000               0.000000000               0.000000000               0.000000000               0.000048924               0.001994680               0.000012311              -0.000230988               0.000741883               0.000510895               0.000000000               0.000000000               0.000000000               0.000000000               0.000025303               0.002019958               0.000002800              -0.000243006               0.000754315               0.000511309               0.000000000               0.000000000               0.000000000               0.000000000               0.000017499               0.002038557               0.000002585              -0.000248257               0.000762264               0.000514008               0.000000000               0.000000000               0.000000000               0.000000000               0.000716660               0.001724158               0.000911446               0.000053226               0.000556971               0.000610197               0.000000000               0.000000000               0.000000000               0.000000000               0.000476256               0.001722969               0.000680100              -0.000036776               0.000586576               0.000549800               0.000000000               0.000000000               0.000000000               0.000000000               0.000308947               0.001827452               0.000439224              -0.000112576               0.000646670               0.000534094               0.000000000               0.000000000               0.000000000               0.000000000               0.000248562               0.001851378               0.000325699              -0.000138212               0.000663190               0.000524979               0.000000000               0.000000000               0.000000000               0.000000000               0.000222262               0.001863506               0.000256546              -0.000149590               0.000671026               0.000521436               0.000000000               0.000000000               0.000000000               0.000000000               0.000205189               0.001875543               0.000207838              -0.000157497               0.000677674               0.000520177               0.000000000               0.000000000               0.000000000               0.000000000               0.000185850               0.001889674               0.000169053              -0.000166515               0.000685390               0.000518875               0.000000000               0.000000000               0.000000000               0.000000000               0.000162266               0.001910932               0.000134489              -0.000178017               0.000696310               0.000518293               0.000000000               0.000000000               0.000000000               0.000000000               0.000138672               0.001937085               0.000103440              -0.000190133               0.000709066               0.000518933               0.000000000               0.000000000               0.000000000               0.000000000               0.000121341               0.001960236               0.000076302              -0.000199526               0.000719914               0.000520388               0.000000000               0.000000000               0.000000000               0.000000000               0.000110663               0.001976476               0.000057740              -0.000205561               0.000727339               0.000521778               0.000000000               0.000000000               0.000000000               0.000000000               0.000101482               0.001993030               0.000047397              -0.000211072               0.000734694               0.000523622               0.000000000               0.000000000               0.000000000               0.000000000               0.000087113               0.002019304               0.000035442              -0.000219745               0.000746343               0.000526598               0.000000000               0.000000000               0.000000000               0.000000000               0.000066439               0.002056748               0.000020324              -0.000232178               0.000762969               0.000530790               0.000000000               0.000000000               0.000000000               0.000000000               0.000045297               0.002101145               0.000006977              -0.000245656               0.000782260               0.000536604               0.000000000               0.000000000               0.000000000               0.000000000               0.000026010               0.002146735              -0.000000429              -0.000258588               0.000801767               0.000543180               0.000000000               0.000000000               0.000000000               0.000000000               0.000020233               0.002178366               0.000000988              -0.000264708               0.000814351               0.000549643               0.000000000               0.000000000               0.000000000               0.000000000               0.000729658               0.001424768               0.000839655               0.000095524               0.000443076               0.000538600               0.000000000               0.000000000               0.000000000               0.000000000               0.000482771               0.001526009               0.000667848              -0.000009713               0.000511902               0.000502189               0.000000000               0.000000000               0.000000000               0.000000000               0.000297605               0.001719416               0.000474427              -0.000103325               0.000607575               0.000504249               0.000000000               0.000000000               0.000000000               0.000000000               0.000240538               0.001787729               0.000364773              -0.000133264               0.000640325               0.000507061               0.000000000               0.000000000               0.000000000               0.000000000               0.000217533               0.001824552               0.000289673              -0.000146494               0.000657009               0.000510516               0.000000000               0.000000000               0.000000000               0.000000000               0.000201880               0.001852514               0.000232202              -0.000155859               0.000669452               0.000513593               0.000000000               0.000000000               0.000000000               0.000000000               0.000183792               0.001883872               0.000186166              -0.000166562               0.000683472               0.000516910               0.000000000               0.000000000               0.000000000               0.000000000               0.000160678               0.001920769               0.000147528              -0.000179841               0.000700197               0.000520356               0.000000000               0.000000000               0.000000000               0.000000000               0.000136084               0.001958344               0.000115949              -0.000193761               0.000717362               0.000523601               0.000000000               0.000000000               0.000000000               0.000000000               0.000122694               0.001990310               0.000088071              -0.000202778               0.000731023               0.000528245               0.000000000               0.000000000               0.000000000               0.000000000               0.000115199               0.002013548               0.000065154              -0.000208493               0.000740674               0.000532180               0.000000000               0.000000000               0.000000000               0.000000000               0.000105482               0.002043062               0.000048304              -0.000215827               0.000752956               0.000537130               0.000000000               0.000000000               0.000000000               0.000000000               0.000091965               0.002092221               0.000031060              -0.000227040               0.000773080               0.000546040               0.000000000               0.000000000               0.000000000               0.000000000               0.000073268               0.002154634               0.000011590              -0.000241853               0.000798822               0.000556969               0.000000000               0.000000000               0.000000000               0.000000000               0.000057433               0.002225941              -0.000003272              -0.000256705               0.000827541               0.000570837               0.000000000               0.000000000               0.000000000               0.000000000               0.000047530               0.002296753              -0.000007963              -0.000269270               0.000855333               0.000586064               0.000000000               0.000000000               0.000000000               0.000000000               0.000043929               0.002337229              -0.000005817              -0.000275680               0.000870962               0.000595282               0.000000000               0.000000000               0.000000000               0.000000000               0.000721115               0.001129666               0.000750608               0.000129208               0.000333482               0.000462690               0.000000000               0.000000000               0.000000000               0.000000000               0.000499949               0.001294484               0.000649416               0.000025669               0.000422934               0.000448603               0.000000000               0.000000000               0.000000000               0.000000000               0.000315135               0.001554619               0.000516988              -0.000076152               0.000543585               0.000467433               0.000000000               0.000000000               0.000000000               0.000000000               0.000254346               0.001668420               0.000414564              -0.000113173               0.000593859               0.000480686               0.000000000               0.000000000               0.000000000               0.000000000               0.000230815               0.001731785               0.000335418              -0.000129917               0.000620562               0.000490644               0.000000000               0.000000000               0.000000000               0.000000000               0.000216544               0.001781666               0.000270759              -0.000141504               0.000641051               0.000499547               0.000000000               0.000000000               0.000000000               0.000000000               0.000200345               0.001828070               0.000218033              -0.000153379               0.000660477               0.000507098               0.000000000               0.000000000               0.000000000               0.000000000               0.000180899               0.001876880               0.000176200              -0.000166773               0.000681211               0.000514439               0.000000000               0.000000000               0.000000000               0.000000000               0.000158918               0.001926141               0.000144004              -0.000181173               0.000702431               0.000521258               0.000000000               0.000000000               0.000000000               0.000000000               0.000141192               0.001970429               0.000114664              -0.000193356               0.000721255               0.000527899               0.000000000               0.000000000               0.000000000               0.000000000               0.000130449               0.002006084               0.000085803              -0.000201842               0.000735969               0.000534127               0.000000000               0.000000000               0.000000000               0.000000000               0.000120199               0.002045738               0.000060882              -0.000210642               0.000752120               0.000541478               0.000000000               0.000000000               0.000000000               0.000000000               0.000108787               0.002100850               0.000036620              -0.000221811               0.000774213               0.000552403               0.000000000               0.000000000               0.000000000               0.000000000               0.000097258               0.002176197               0.000014829              -0.000235552               0.000803909               0.000568357               0.000000000               0.000000000               0.000000000               0.000000000               0.000091086               0.002268524               0.000003183              -0.000249408               0.000839303               0.000589895               0.000000000               0.000000000               0.000000000               0.000000000               0.000092530               0.002366468               0.000000341              -0.000261109               0.000875851               0.000614742               0.000000000               0.000000000               0.000000000               0.000000000               0.000090556               0.002413853              -0.000001470              -0.000267772               0.000893867               0.000626095               0.000000000               0.000000000               0.000000000               0.000000000               0.000682390               0.000850232               0.000644356               0.000149615               0.000233536               0.000383151               0.000000000               0.000000000               0.000000000               0.000000000               0.000518798               0.001062846               0.000615068               0.000061692               0.000333714               0.000395406               0.000000000               0.000000000               0.000000000               0.000000000               0.000354484               0.001367090               0.000547167              -0.000037955               0.000468344               0.000430388               0.000000000               0.000000000               0.000000000               0.000000000               0.000287822               0.001520761               0.000461047              -0.000082162               0.000534303               0.000452140               0.000000000               0.000000000               0.000000000               0.000000000               0.000259267               0.001616568               0.000383833              -0.000104846               0.000573799               0.000468953               0.000000000               0.000000000               0.000000000               0.000000000               0.000245571               0.001691337               0.000315474              -0.000119328               0.000603549               0.000484221               0.000000000               0.000000000               0.000000000               0.000000000               0.000231600               0.001755365               0.000258154              -0.000132570               0.000629306               0.000496735               0.000000000               0.000000000               0.000000000               0.000000000               0.000214957               0.001817058               0.000213093              -0.000146523               0.000654521               0.000507998               0.000000000               0.000000000               0.000000000               0.000000000               0.000193656               0.001873735               0.000178098              -0.000161596               0.000678437               0.000516842               0.000000000               0.000000000               0.000000000               0.000000000               0.000172067               0.001926459               0.000146839              -0.000176282               0.000700907               0.000524625               0.000000000               0.000000000               0.000000000               0.000000000               0.000157146               0.001977218               0.000113190              -0.000188222               0.000721807               0.000533585               0.000000000               0.000000000               0.000000000               0.000000000               0.000144971               0.002028426               0.000080559              -0.000199189               0.000742531               0.000543343               0.000000000               0.000000000               0.000000000               0.000000000               0.000137451               0.002085563               0.000053056              -0.000209151               0.000764897               0.000555747               0.000000000               0.000000000               0.000000000               0.000000000               0.000137316               0.002157472               0.000032149              -0.000218190               0.000791880               0.000573690               0.000000000               0.000000000               0.000000000               0.000000000               0.000139002               0.002249156               0.000018826              -0.000229018               0.000826050               0.000597032               0.000000000               0.000000000               0.000000000               0.000000000               0.000139103               0.002354957               0.000008929              -0.000242205               0.000865713               0.000623508               0.000000000               0.000000000               0.000000000               0.000000000               0.000129977               0.002402400               0.000000361              -0.000251558               0.000884645               0.000633087               0.000000000               0.000000000               0.000000000               0.000000000               0.000614782               0.000605982               0.000521694               0.000154794               0.000150394               0.000305187               0.000000000               0.000000000               0.000000000               0.000000000               0.000525357               0.000839924               0.000553883               0.000092017               0.000249299               0.000341316               0.000000000               0.000000000               0.000000000               0.000000000               0.000399976               0.001155883               0.000545392               0.000005505               0.000383455               0.000388960               0.000000000               0.000000000               0.000000000               0.000000000               0.000337460               0.001345005               0.000482348              -0.000041579               0.000462190               0.000420611               0.000000000               0.000000000               0.000000000               0.000000000               0.000302951               0.001474454               0.000414335              -0.000070700               0.000515046               0.000444346               0.000000000               0.000000000               0.000000000               0.000000000               0.000284554               0.001573806               0.000348519              -0.000090018               0.000554603               0.000464585               0.000000000               0.000000000               0.000000000               0.000000000               0.000270007               0.001660375               0.000289882              -0.000106294               0.000588884               0.000482590               0.000000000               0.000000000               0.000000000               0.000000000               0.000252887               0.001737625               0.000242390              -0.000122370               0.000619993               0.000497622               0.000000000               0.000000000               0.000000000               0.000000000               0.000229773               0.001803434               0.000205382              -0.000139264               0.000647560               0.000508296               0.000000000               0.000000000               0.000000000               0.000000000               0.000206127               0.001865501               0.000173791              -0.000155890               0.000673791               0.000517901               0.000000000               0.000000000               0.000000000               0.000000000               0.000187243               0.001929620               0.000138103              -0.000170986               0.000700195               0.000529210               0.000000000               0.000000000               0.000000000               0.000000000               0.000177782               0.001994501               0.000104678              -0.000182644               0.000725708               0.000543064               0.000000000               0.000000000               0.000000000               0.000000000               0.000175220               0.002059606               0.000079669              -0.000191743               0.000750443               0.000558700               0.000000000               0.000000000               0.000000000               0.000000000               0.000180240               0.002138039               0.000058258              -0.000199665               0.000779228               0.000579563               0.000000000               0.000000000               0.000000000               0.000000000               0.000185658               0.002233330               0.000038602              -0.000209544               0.000814284               0.000604740               0.000000000               0.000000000               0.000000000               0.000000000               0.000183331               0.002343062               0.000019170              -0.000224133               0.000855724               0.000631591               0.000000000               0.000000000               0.000000000               0.000000000               0.000169241               0.002394126               0.000005019              -0.000235800               0.000876634               0.000640834               0.000000000               0.000000000               0.000000000               0.000000000               0.000523320               0.000408299               0.000395971               0.000145206               0.000087696               0.000232902               0.000000000               0.000000000               0.000000000               0.000000000               0.000518298               0.000634391               0.000468497               0.000115061               0.000173108               0.000288169               0.000000000               0.000000000               0.000000000               0.000000000               0.000450121               0.000939046               0.000505463               0.000051414               0.000295874               0.000347288               0.000000000               0.000000000               0.000000000               0.000000000               0.000398703               0.001153533               0.000468293               0.000005321               0.000382733               0.000388054               0.000000000               0.000000000               0.000000000               0.000000000               0.000361928               0.001312374               0.000413919              -0.000028324               0.000446895               0.000418571               0.000000000               0.000000000               0.000000000               0.000000000               0.000334760               0.001435344               0.000355917              -0.000053883               0.000496404               0.000442521               0.000000000               0.000000000               0.000000000               0.000000000               0.000315575               0.001543219               0.000301209              -0.000074562               0.000539255               0.000464693               0.000000000               0.000000000               0.000000000               0.000000000               0.000295574               0.001635913               0.000254410              -0.000093649               0.000576515               0.000482866               0.000000000               0.000000000               0.000000000               0.000000000               0.000273421               0.001714549               0.000218048              -0.000111786               0.000608772               0.000496987               0.000000000               0.000000000               0.000000000               0.000000000               0.000249517               0.001787332               0.000186915              -0.000129847               0.000639054               0.000509206               0.000000000               0.000000000               0.000000000               0.000000000               0.000229818               0.001859873               0.000156043              -0.000146302               0.000668719               0.000522417               0.000000000               0.000000000               0.000000000               0.000000000               0.000221749               0.001938666               0.000128154              -0.000159177               0.000699274               0.000540098               0.000000000               0.000000000               0.000000000               0.000000000               0.000221319               0.002024736               0.000103939              -0.000170097               0.000731604               0.000561507               0.000000000               0.000000000               0.000000000               0.000000000               0.000226288               0.002123788               0.000081789              -0.000180615               0.000768127               0.000587512               0.000000000               0.000000000               0.000000000               0.000000000               0.000233618               0.002231058               0.000057072              -0.000191275               0.000807437               0.000616162               0.000000000               0.000000000               0.000000000               0.000000000               0.000234749               0.002343779               0.000028835              -0.000204941               0.000849566               0.000644625               0.000000000               0.000000000               0.000000000               0.000000000               0.000221873               0.002395702               0.000010791              -0.000216260               0.000870646               0.000654386               0.000000000               0.000000000               0.000000000               0.000000000               0.000422517               0.000257156               0.000277523               0.000126298               0.000043618               0.000169916               0.000000000               0.000000000               0.000000000               0.000000000               0.000498941               0.000457627               0.000364566               0.000129898               0.000109241               0.000239139               0.000000000               0.000000000               0.000000000               0.000000000               0.000498007               0.000737229               0.000425845               0.000094598               0.000214208               0.000308806               0.000000000               0.000000000               0.000000000               0.000000000               0.000465184               0.000963866               0.000410410               0.000053960               0.000303299               0.000357259               0.000000000               0.000000000               0.000000000               0.000000000               0.000427653               0.001144651               0.000371145               0.000017288               0.000375784               0.000393072               0.000000000               0.000000000               0.000000000               0.000000000               0.000394319               0.001289958               0.000325538              -0.000013375               0.000434440               0.000421065               0.000000000               0.000000000               0.000000000               0.000000000               0.000368004               0.001412691               0.000279741              -0.000038585               0.000483754               0.000445169               0.000000000               0.000000000               0.000000000               0.000000000               0.000343209               0.001516652               0.000239350              -0.000060878               0.000525838               0.000464960               0.000000000               0.000000000               0.000000000               0.000000000               0.000322094               0.001610040               0.000207183              -0.000080470               0.000563498               0.000483028               0.000000000               0.000000000               0.000000000               0.000000000               0.000300906               0.001695701               0.000179162              -0.000099123               0.000598269               0.000499146               0.000000000               0.000000000               0.000000000               0.000000000               0.000283053               0.001782659               0.000155069              -0.000116687               0.000633109               0.000516422               0.000000000               0.000000000               0.000000000               0.000000000               0.000272211               0.001879128               0.000134673              -0.000132812               0.000670640               0.000537829               0.000000000               0.000000000               0.000000000               0.000000000               0.000270703               0.001985835               0.000114935              -0.000146716               0.000710844               0.000564128               0.000000000               0.000000000               0.000000000               0.000000000               0.000278531               0.002108347               0.000094222              -0.000159094               0.000755807               0.000596713               0.000000000               0.000000000               0.000000000               0.000000000               0.000288270               0.002234895               0.000069158              -0.000171260               0.000802044               0.000630784               0.000000000               0.000000000               0.000000000               0.000000000               0.000296208               0.002352567               0.000037460              -0.000182992               0.000845178               0.000662186               0.000000000               0.000000000               0.000000000               0.000000000               0.000290142               0.002403242               0.000017343              -0.000191601               0.000864940               0.000673338               0.000000000               0.000000000               0.000000000               0.000000000               0.000331352               0.000150233               0.000171650               0.000105477               0.000014918               0.000120395               0.000000000               0.000000000               0.000000000               0.000000000               0.000476724               0.000323072               0.000247624               0.000138386               0.000061561               0.000199947               0.000000000               0.000000000               0.000000000               0.000000000               0.000536544               0.000572256               0.000308341               0.000129671               0.000147526               0.000277197               0.000000000               0.000000000               0.000000000               0.000000000               0.000524555               0.000798604               0.000306502               0.000096882               0.000233905               0.000330786               0.000000000               0.000000000               0.000000000               0.000000000               0.000490175               0.000994945               0.000282124               0.000059447               0.000311829               0.000371276               0.000000000               0.000000000               0.000000000               0.000000000               0.000453259               0.001157405               0.000251185               0.000025296               0.000377366               0.000402662               0.000000000               0.000000000               0.000000000               0.000000000               0.000418739               0.001289657               0.000218059              -0.000004180               0.000431275               0.000427095               0.000000000               0.000000000               0.000000000               0.000000000               0.000390359               0.001403126               0.000189633              -0.000029006               0.000477373               0.000448367               0.000000000               0.000000000               0.000000000               0.000000000               0.000365715               0.001504988               0.000166726              -0.000050980               0.000518651               0.000467671               0.000000000               0.000000000               0.000000000               0.000000000               0.000346771               0.001606957               0.000144454              -0.000070830               0.000559257               0.000488427               0.000000000               0.000000000               0.000000000               0.000000000               0.000331362               0.001717340               0.000125570              -0.000090407               0.000602577               0.000512170               0.000000000               0.000000000               0.000000000               0.000000000               0.000321507               0.001832320               0.000113021              -0.000108474               0.000646925               0.000538451               0.000000000               0.000000000               0.000000000               0.000000000               0.000321442               0.001954516               0.000103424              -0.000123773               0.000692757               0.000568983               0.000000000               0.000000000               0.000000000               0.000000000               0.000332597               0.002090877               0.000088790              -0.000136635               0.000742497               0.000605862               0.000000000               0.000000000               0.000000000               0.000000000               0.000349507               0.002233687               0.000066955              -0.000148145               0.000793937               0.000645791               0.000000000               0.000000000               0.000000000               0.000000000               0.000364429               0.002360204               0.000038536              -0.000158364               0.000839515               0.000681151               0.000000000               0.000000000               0.000000000               0.000000000               0.000367459               0.002412909               0.000021152              -0.000163816               0.000858900               0.000695084               0.000000000               0.000000000               0.000000000               0.000000000               0.000265280               0.000087785               0.000080531               0.000088506              -0.000000241               0.000088265               0.000000000               0.000000000               0.000000000               0.000000000               0.000459233               0.000239049               0.000124819               0.000142330               0.000032239               0.000174569               0.000000000               0.000000000               0.000000000               0.000000000               0.000562425               0.000463924               0.000161908               0.000152917               0.000103667               0.000256584               0.000000000               0.000000000               0.000000000               0.000000000               0.000565446               0.000686388               0.000164064               0.000126242               0.000186713               0.000312955               0.000000000               0.000000000               0.000000000               0.000000000               0.000535704               0.000889623               0.000153273               0.000089685               0.000266643               0.000356328               0.000000000               0.000000000               0.000000000               0.000000000               0.000496158               0.001061915               0.000137085               0.000053319               0.000336195               0.000389514               0.000000000               0.000000000               0.000000000               0.000000000               0.000457601               0.001202679               0.000119999               0.000021265               0.000393801               0.000415066               0.000000000               0.000000000               0.000000000               0.000000000               0.000425109               0.001322223               0.000105737              -0.000005862               0.000442691               0.000436829               0.000000000               0.000000000               0.000000000               0.000000000               0.000396162               0.001429991               0.000094334              -0.000030188               0.000486722               0.000456534               0.000000000               0.000000000               0.000000000               0.000000000               0.000375349               0.001542123               0.000081882              -0.000052009               0.000531372               0.000479363               0.000000000               0.000000000               0.000000000               0.000000000               0.000365073               0.001665923               0.000070149              -0.000071338               0.000579082               0.000507744               0.000000000               0.000000000               0.000000000               0.000000000               0.000362923               0.001800001               0.000064777              -0.000088904               0.000629629               0.000540725               0.000000000               0.000000000               0.000000000               0.000000000               0.000366724               0.001942146               0.000062482              -0.000105247               0.000682458               0.000577211               0.000000000               0.000000000               0.000000000               0.000000000               0.000374893               0.002082147               0.000056903              -0.000119683               0.000733937               0.000614253               0.000000000               0.000000000               0.000000000               0.000000000               0.000392276               0.002220559               0.000042949              -0.000130466               0.000783668               0.000653201               0.000000000               0.000000000               0.000000000               0.000000000               0.000417575               0.002349500               0.000022854              -0.000137096               0.000828858               0.000691761               0.000000000               0.000000000               0.000000000               0.000000000               0.000432465               0.002407616               0.000012184              -0.000138777               0.000848790               0.000710012               0.000000000               0.000000000               0.000000000               0.000000000               0.000240775               0.000067989              -0.000000000               0.000081791              -0.000004601               0.000077190               0.000000000               0.000000000               0.000000000               0.000000000               0.000452872               0.000210815               0.000000000               0.000143473               0.000022447               0.000165920               0.000000000               0.000000000               0.000000000               0.000000000               0.000572049               0.000426357               0.000000000               0.000161222               0.000088377               0.000249599               0.000000000               0.000000000               0.000000000               0.000000000               0.000580006               0.000646969              -0.000000000               0.000136630               0.000170111               0.000306741               0.000000000               0.000000000               0.000000000               0.000000000               0.000552458               0.000851653               0.000000000               0.000100714               0.000250310               0.000351024               0.000000000               0.000000000               0.000000000               0.000000000               0.000511473               0.001026675               0.000000000               0.000063467               0.000321066               0.000384533               0.000000000               0.000000000               0.000000000               0.000000000               0.000473164               0.001171518               0.000000000               0.000030997               0.000380170               0.000411167               0.000000000               0.000000000               0.000000000               0.000000000               0.000437335               0.001291764              -0.000000000               0.000002530               0.000429741               0.000432270               0.000000000               0.000000000               0.000000000               0.000000000               0.000406923               0.001403089              -0.000000000              -0.000022790               0.000475288               0.000452498               0.000000000               0.000000000               0.000000000               0.000000000               0.000384433               0.001519880               0.000000000              -0.000045822               0.000521896               0.000476073               0.000000000               0.000000000               0.000000000               0.000000000               0.000377829               0.001645476              -0.000000000              -0.000063998               0.000569819               0.000505821               0.000000000               0.000000000               0.000000000               0.000000000               0.000380167               0.001785954              -0.000000000              -0.000080681               0.000622206               0.000541524               0.000000000               0.000000000               0.000000000               0.000000000               0.000385716               0.001939622              -0.000000000              -0.000097809               0.000679137               0.000581328               0.000000000               0.000000000               0.000000000               0.000000000               0.000392026               0.002084726              -0.000000000              -0.000113581               0.000732762               0.000619181               0.000000000               0.000000000               0.000000000               0.000000000               0.000404462               0.002211904              -0.000000000              -0.000124815               0.000778899               0.000654084               0.000000000               0.000000000               0.000000000               0.000000000               0.000434213               0.002331477              -0.000000000              -0.000128604               0.000820019               0.000691415               0.000000000               0.000000000               0.000000000               0.000000000               0.000455943               0.002390893               0.000000000              -0.000127882               0.000839584               0.000711701               0.000000000               0.000000000               0.000000000               0.000000000               0.000312535               0.003494839              -0.000000000              -0.000319654               0.001271486               0.000951832               0.000000000               0.000000000               0.000000000               0.000000000               0.000363537               0.002918185              -0.000000000              -0.000228446               0.001048867               0.000820421               0.000000000               0.000000000               0.000000000               0.000000000               0.000522716               0.002446164              -0.000000000              -0.000109752               0.000851964               0.000742212               0.000000000               0.000000000               0.000000000               0.000000000               0.000565980               0.002184140              -0.000000000              -0.000060775               0.000748298               0.000687523               0.000000000               0.000000000               0.000000000               0.000000000               0.000558388               0.002033671              -0.000000000              -0.000044813               0.000692821               0.000648008               0.000000000               0.000000000               0.000000000               0.000000000               0.000525079               0.001947077               0.000000000              -0.000046480               0.000664512               0.000618033               0.000000000               0.000000000               0.000000000               0.000000000               0.000476851               0.001896799               0.000000000              -0.000058281               0.000651687               0.000593406               0.000000000               0.000000000               0.000000000               0.000000000               0.000425949               0.001873635              -0.000000000              -0.000074473               0.000649363               0.000574890               0.000000000               0.000000000               0.000000000               0.000000000               0.000373634               0.001865116               0.000000000              -0.000093027               0.000652708               0.000559681               0.000000000               0.000000000               0.000000000               0.000000000               0.000319309               0.001868895               0.000000000              -0.000113871               0.000660916               0.000547045               0.000000000               0.000000000               0.000000000               0.000000000               0.000267366               0.001883001               0.000000000              -0.000135113               0.000672698               0.000537586               0.000000000               0.000000000               0.000000000               0.000000000               0.000215671               0.001908206               0.000000000              -0.000157649               0.000688612               0.000530963               0.000000000               0.000000000               0.000000000               0.000000000               0.000159610               0.001935557               0.000000000              -0.000182090               0.000705876               0.000523786               0.000000000               0.000000000               0.000000000               0.000000000               0.000109766               0.001965763               0.000000000              -0.000204558               0.000723433               0.000518876               0.000000000               0.000000000               0.000000000               0.000000000               0.000071085               0.001997174               0.000000000              -0.000222989               0.000740048               0.000517058               0.000000000               0.000000000               0.000000000               0.000000000               0.000035736               0.002030640               0.000000000              -0.000240428               0.000757016               0.000516588               0.000000000               0.000000000               0.000000000               0.000000000               0.000021313               0.002058507               0.000000000              -0.000249320               0.000769269               0.000519949               0.000000000               0.000000000               0.000000000               0.000000000               0.000333230               0.003442964              -0.000274397              -0.000305409               0.001249446               0.000944037               0.000000000               0.000000000               0.000000000               0.000000000               0.000371965               0.002879558              -0.000186647              -0.000220457               0.001033329               0.000812871               0.000000000               0.000000000               0.000000000               0.000000000               0.000517898               0.002426403              -0.000094163              -0.000109088               0.000845156               0.000736067               0.000000000               0.000000000               0.000000000               0.000000000               0.000553952               0.002175285              -0.000049240              -0.000064179               0.000746481               0.000682302               0.000000000               0.000000000               0.000000000               0.000000000               0.000542933               0.002030240              -0.000026549              -0.000050180               0.000693467               0.000643287               0.000000000               0.000000000               0.000000000               0.000000000               0.000508748               0.001946184              -0.000015723              -0.000052492               0.000666219               0.000613727               0.000000000               0.000000000               0.000000000               0.000000000               0.000462732               0.001899228              -0.000010645              -0.000063879               0.000654363               0.000590484               0.000000000               0.000000000               0.000000000               0.000000000               0.000412535               0.001874864              -0.000008586              -0.000079657               0.000651501               0.000571844               0.000000000               0.000000000               0.000000000               0.000000000               0.000361798               0.001867042              -0.000007792              -0.000097706               0.000654910               0.000557204               0.000000000               0.000000000               0.000000000               0.000000000               0.000309298               0.001870301              -0.000006709              -0.000117800               0.000662694               0.000544894               0.000000000               0.000000000               0.000000000               0.000000000               0.000257433               0.001884575              -0.000004239              -0.000139034               0.000674530               0.000535496               0.000000000               0.000000000               0.000000000               0.000000000               0.000205330               0.001906774              -0.000002634              -0.000161348               0.000689367               0.000528020               0.000000000               0.000000000               0.000000000               0.000000000               0.000154291               0.001934158              -0.000004000              -0.000183910               0.000706016               0.000522106               0.000000000               0.000000000               0.000000000               0.000000000               0.000109335               0.001962275              -0.000006770              -0.000204283               0.000722180               0.000517896               0.000000000               0.000000000               0.000000000               0.000000000               0.000070320               0.001990152              -0.000008324              -0.000222399               0.000737510               0.000515112               0.000000000               0.000000000               0.000000000               0.000000000               0.000034296               0.002021253              -0.000004347              -0.000239795               0.000753676               0.000513881               0.000000000               0.000000000               0.000000000               0.000000000               0.000020438               0.002047672              -0.000001542              -0.000248294               0.000765315               0.000517021               0.000000000               0.000000000               0.000000000               0.000000000               0.000389964               0.003288969              -0.000522972              -0.000264884               0.001184607               0.000919722               0.000000000               0.000000000               0.000000000               0.000000000               0.000393406               0.002768356              -0.000354207              -0.000198517               0.000988948               0.000790431               0.000000000               0.000000000               0.000000000               0.000000000               0.000500099               0.002367470              -0.000179576              -0.000108396               0.000825281               0.000716885               0.000000000               0.000000000               0.000000000               0.000000000               0.000517012               0.002146409              -0.000097869              -0.000074422               0.000740270               0.000665848               0.000000000               0.000000000               0.000000000               0.000000000               0.000499615               0.002018679              -0.000057379              -0.000064979               0.000694546               0.000629567               0.000000000               0.000000000               0.000000000               0.000000000               0.000463997               0.001943545              -0.000037080              -0.000068944               0.000670823               0.000601879               0.000000000               0.000000000               0.000000000               0.000000000               0.000420471               0.001900145              -0.000028013              -0.000079841               0.000659989               0.000580148               0.000000000               0.000000000               0.000000000               0.000000000               0.000376962               0.001878680              -0.000023832              -0.000093474               0.000657378               0.000563904               0.000000000               0.000000000               0.000000000               0.000000000               0.000331018               0.001871444              -0.000021153              -0.000109798               0.000660408               0.000550609               0.000000000               0.000000000               0.000000000               0.000000000               0.000281927               0.001875198              -0.000017636              -0.000128677               0.000667952               0.000539275               0.000000000               0.000000000               0.000000000               0.000000000               0.000233274               0.001888967              -0.000012524              -0.000148643               0.000679197               0.000530554               0.000000000               0.000000000               0.000000000               0.000000000               0.000185073               0.001909092              -0.000008634              -0.000169234               0.000692769               0.000523535               0.000000000               0.000000000               0.000000000               0.000000000               0.000139860               0.001931378              -0.000010135              -0.000188974               0.000706777               0.000517803               0.000000000               0.000000000               0.000000000               0.000000000               0.000099258               0.001951968              -0.000016332              -0.000206774               0.000719574               0.000512800               0.000000000               0.000000000               0.000000000               0.000000000               0.000064004               0.001972360              -0.000016865              -0.000222543               0.000731628               0.000509085               0.000000000               0.000000000               0.000000000               0.000000000               0.000033256               0.001997275              -0.000007758              -0.000237188               0.000744814               0.000507626               0.000000000               0.000000000               0.000000000               0.000000000               0.000020930               0.002017455              -0.000002462              -0.000244333               0.000753923               0.000509590               0.000000000               0.000000000               0.000000000               0.000000000               0.000472023               0.003046977              -0.000722455              -0.000203863               0.001083603               0.000879740               0.000000000               0.000000000               0.000000000               0.000000000               0.000421178               0.002599678              -0.000489611              -0.000167018               0.000922223               0.000755205               0.000000000               0.000000000               0.000000000               0.000000000               0.000468977               0.002278828              -0.000252877              -0.000108987               0.000795931               0.000686944               0.000000000               0.000000000               0.000000000               0.000000000               0.000460544               0.002101911              -0.000145775              -0.000090035               0.000730641               0.000640607               0.000000000               0.000000000               0.000000000               0.000000000               0.000435844               0.002000736              -0.000093746              -0.000086650               0.000695789               0.000609138               0.000000000               0.000000000               0.000000000               0.000000000               0.000401119               0.001938861              -0.000067880              -0.000091938               0.000676926               0.000584989               0.000000000               0.000000000               0.000000000               0.000000000               0.000363105               0.001902309              -0.000054226              -0.000101624               0.000667971               0.000566347               0.000000000               0.000000000               0.000000000               0.000000000               0.000326910               0.001883831              -0.000046779              -0.000112887               0.000665567               0.000552679               0.000000000               0.000000000               0.000000000               0.000000000               0.000288317               0.001877534              -0.000040578              -0.000126573               0.000668029               0.000541457               0.000000000               0.000000000               0.000000000               0.000000000               0.000246353               0.001882398              -0.000032832              -0.000142917               0.000675099               0.000532182               0.000000000               0.000000000               0.000000000               0.000000000               0.000202993               0.001895145              -0.000023333              -0.000160770               0.000685299               0.000524528               0.000000000               0.000000000               0.000000000               0.000000000               0.000160894               0.001911865              -0.000017457              -0.000178647               0.000696831               0.000518184               0.000000000               0.000000000               0.000000000               0.000000000               0.000122871               0.001925585              -0.000019602              -0.000194621               0.000706729               0.000512108               0.000000000               0.000000000               0.000000000               0.000000000               0.000090101               0.001937175              -0.000025180              -0.000208359               0.000715171               0.000506813               0.000000000               0.000000000               0.000000000               0.000000000               0.000058502               0.001948529              -0.000021746              -0.000221627               0.000723379               0.000501752               0.000000000               0.000000000               0.000000000               0.000000000               0.000028053               0.001961592              -0.000008305              -0.000234679               0.000732084               0.000497405               0.000000000               0.000000000               0.000000000               0.000000000               0.000015097               0.001971487              -0.000001831              -0.000240774               0.000737414               0.000496640               0.000000000               0.000000000               0.000000000               0.000000000               0.000560987               0.002745032              -0.000858609              -0.000132759               0.000959254               0.000826495               0.000000000               0.000000000               0.000000000               0.000000000               0.000447205               0.002393050              -0.000587336              -0.000131429               0.000841485               0.000710056               0.000000000               0.000000000               0.000000000               0.000000000               0.000428357               0.002174470              -0.000314371              -0.000111175               0.000761874               0.000650700               0.000000000               0.000000000               0.000000000               0.000000000               0.000396401               0.002050685              -0.000194208              -0.000107685               0.000719450               0.000611765               0.000000000               0.000000000               0.000000000               0.000000000               0.000365408               0.001977445              -0.000136444              -0.000110152               0.000695859               0.000585707               0.000000000               0.000000000               0.000000000               0.000000000               0.000333934               0.001930577              -0.000105307              -0.000116097               0.000682218               0.000566121               0.000000000               0.000000000               0.000000000               0.000000000               0.000301508               0.001902374              -0.000087007              -0.000124731               0.000675695               0.000550964               0.000000000               0.000000000               0.000000000               0.000000000               0.000271509               0.001886933              -0.000074278              -0.000134050               0.000673655               0.000539605               0.000000000               0.000000000               0.000000000               0.000000000               0.000241631               0.001886219              -0.000062325              -0.000145165               0.000677122               0.000531956               0.000000000               0.000000000               0.000000000               0.000000000               0.000207107               0.001893451              -0.000048359              -0.000159016               0.000684149               0.000525133               0.000000000               0.000000000               0.000000000               0.000000000               0.000172686               0.001907537              -0.000034499              -0.000173685               0.000693734               0.000520049               0.000000000               0.000000000               0.000000000               0.000000000               0.000137775               0.001916452              -0.000026633              -0.000187891               0.000701441               0.000513551               0.000000000               0.000000000               0.000000000               0.000000000               0.000108488               0.001921548              -0.000026730              -0.000199510               0.000707013               0.000507503               0.000000000               0.000000000               0.000000000               0.000000000               0.000082650               0.001926473              -0.000028772              -0.000209815               0.000712090               0.000502275               0.000000000               0.000000000               0.000000000               0.000000000               0.000053089               0.001933559              -0.000021410              -0.000221786               0.000718442               0.000496656               0.000000000               0.000000000               0.000000000               0.000000000               0.000024811               0.001942001              -0.000007234              -0.000233445               0.000725142               0.000491697               0.000000000               0.000000000               0.000000000               0.000000000               0.000014062               0.001948928              -0.000002002              -0.000238342               0.000729083               0.000490741               0.000000000               0.000000000               0.000000000               0.000000000               0.000635430               0.002409716              -0.000931987              -0.000062929               0.000824207               0.000761278               0.000000000               0.000000000               0.000000000               0.000000000               0.000465452               0.002167766              -0.000648493              -0.000096427               0.000754723               0.000658297               0.000000000               0.000000000               0.000000000               0.000000000               0.000384118               0.002061292              -0.000364604              -0.000113617               0.000724963               0.000611346               0.000000000               0.000000000               0.000000000               0.000000000               0.000333654               0.001990557              -0.000242349              -0.000123699               0.000704745               0.000581046               0.000000000               0.000000000               0.000000000               0.000000000               0.000299662               0.001943952              -0.000180822              -0.000130620               0.000691518               0.000560897               0.000000000               0.000000000               0.000000000               0.000000000               0.000273839               0.001915430              -0.000144935              -0.000136739               0.000684050               0.000547311               0.000000000               0.000000000               0.000000000               0.000000000               0.000247700               0.001898845              -0.000121103              -0.000144468               0.000681098               0.000536630               0.000000000               0.000000000               0.000000000               0.000000000               0.000223423               0.001894127              -0.000101486              -0.000152982               0.000682363               0.000529381               0.000000000               0.000000000               0.000000000               0.000000000               0.000199295               0.001900218              -0.000081698              -0.000162791               0.000687663               0.000524872               0.000000000               0.000000000               0.000000000               0.000000000               0.000171308               0.001912516              -0.000060478              -0.000174824               0.000695773               0.000520950               0.000000000               0.000000000               0.000000000               0.000000000               0.000144478               0.001923993              -0.000043568              -0.000186319               0.000703431               0.000517112               0.000000000               0.000000000               0.000000000               0.000000000               0.000122367               0.001926874              -0.000034832              -0.000194971               0.000707275               0.000512304               0.000000000               0.000000000               0.000000000               0.000000000               0.000101014               0.001926814              -0.000030618              -0.000202971               0.000709922               0.000506951               0.000000000               0.000000000               0.000000000               0.000000000               0.000076574               0.001931591              -0.000026964              -0.000212733               0.000714768               0.000502035               0.000000000               0.000000000               0.000000000               0.000000000               0.000049638               0.001944311              -0.000016579              -0.000224424               0.000722905               0.000498481               0.000000000               0.000000000               0.000000000               0.000000000               0.000022794               0.001959159              -0.000004461              -0.000236346               0.000731829               0.000495482               0.000000000               0.000000000               0.000000000               0.000000000               0.000013134               0.001970730              -0.000001952              -0.000241415               0.000737375               0.000495960               0.000000000               0.000000000               0.000000000               0.000000000               0.000687243               0.002062084              -0.000947719              -0.000000046               0.000687369               0.000687324               0.000000000               0.000000000               0.000000000               0.000000000               0.000474275               0.001940085              -0.000677815              -0.000064658               0.000668241               0.000603583               0.000000000               0.000000000               0.000000000               0.000000000               0.000341784               0.001943909              -0.000405681              -0.000114820               0.000686236               0.000571417               0.000000000               0.000000000               0.000000000               0.000000000               0.000282246               0.001921937              -0.000286983              -0.000134400               0.000685439               0.000551040               0.000000000               0.000000000               0.000000000               0.000000000               0.000250315               0.001904270              -0.000222358              -0.000144165               0.000682806               0.000538640               0.000000000               0.000000000               0.000000000               0.000000000               0.000230591               0.001897633              -0.000181046              -0.000150732               0.000682782               0.000532050               0.000000000               0.000000000               0.000000000               0.000000000               0.000208311               0.001895692              -0.000149953              -0.000158845               0.000684839               0.000525995               0.000000000               0.000000000               0.000000000               0.000000000               0.000186032               0.001903003              -0.000122986              -0.000168113               0.000690366               0.000522253               0.000000000               0.000000000               0.000000000               0.000000000               0.000165548               0.001917638              -0.000095396              -0.000177624               0.000698414               0.000520790               0.000000000               0.000000000               0.000000000               0.000000000               0.000141992               0.001934566              -0.000069923              -0.000188573               0.000707707               0.000519133               0.000000000               0.000000000               0.000000000               0.000000000               0.000121996               0.001944212              -0.000052290              -0.000197278               0.000713824               0.000516546               0.000000000               0.000000000               0.000000000               0.000000000               0.000110734               0.001948823              -0.000042965              -0.000202077               0.000716960               0.000514883               0.000000000               0.000000000               0.000000000               0.000000000               0.000095146               0.001954487              -0.000034892              -0.000208631               0.000721033               0.000512402               0.000000000               0.000000000               0.000000000               0.000000000               0.000072648               0.001970129              -0.000025000              -0.000219023               0.000729711               0.000510688               0.000000000               0.000000000               0.000000000               0.000000000               0.000048924               0.001994680              -0.000012311              -0.000230988               0.000741883               0.000510895               0.000000000               0.000000000               0.000000000               0.000000000               0.000025303               0.002019958              -0.000002800              -0.000243006               0.000754315               0.000511309               0.000000000               0.000000000               0.000000000               0.000000000               0.000017499               0.002038557              -0.000002585              -0.000248257               0.000762264               0.000514008               0.000000000               0.000000000               0.000000000               0.000000000               0.000716660               0.001724158              -0.000911446               0.000053226               0.000556971               0.000610197               0.000000000               0.000000000               0.000000000               0.000000000               0.000476256               0.001722969              -0.000680100              -0.000036776               0.000586576               0.000549800               0.000000000               0.000000000               0.000000000               0.000000000               0.000308947               0.001827452              -0.000439224              -0.000112576               0.000646670               0.000534094               0.000000000               0.000000000               0.000000000               0.000000000               0.000248562               0.001851378              -0.000325699              -0.000138212               0.000663190               0.000524979               0.000000000               0.000000000               0.000000000               0.000000000               0.000222262               0.001863506              -0.000256546              -0.000149590               0.000671026               0.000521436               0.000000000               0.000000000               0.000000000               0.000000000               0.000205189               0.001875543              -0.000207838              -0.000157497               0.000677674               0.000520177               0.000000000               0.000000000               0.000000000               0.000000000               0.000185850               0.001889674              -0.000169053              -0.000166515               0.000685390               0.000518875               0.000000000               0.000000000               0.000000000               0.000000000               0.000162266               0.001910932              -0.000134489              -0.000178017               0.000696310               0.000518293               0.000000000               0.000000000               0.000000000               0.000000000               0.000138672               0.001937085              -0.000103440              -0.000190133               0.000709066               0.000518933               0.000000000               0.000000000               0.000000000               0.000000000               0.000121341               0.001960236              -0.000076302              -0.000199526               0.000719914               0.000520388               0.000000000               0.000000000               0.000000000               0.000000000               0.000110663               0.001976476              -0.000057740              -0.000205561               0.000727339               0.000521778               0.000000000               0.000000000               0.000000000               0.000000000               0.000101482               0.001993030              -0.000047397              -0.000211072               0.000734694               0.000523622               0.000000000               0.000000000               0.000000000               0.000000000               0.000087113               0.002019304              -0.000035442              -0.000219745               0.000746343               0.000526598               0.000000000               0.000000000               0.000000000               0.000000000               0.000066439               0.002056748              -0.000020324              -0.000232178               0.000762969               0.000530790               0.000000000               0.000000000               0.000000000               0.000000000               0.000045297               0.002101145              -0.000006977              -0.000245656               0.000782260               0.000536604               0.000000000               0.000000000               0.000000000               0.000000000               0.000026010               0.002146735               0.000000429              -0.000258588               0.000801767               0.000543180               0.000000000               0.000000000               0.000000000               0.000000000               0.000020233               0.002178366              -0.000000988              -0.000264708               0.000814351               0.000549643               0.000000000               0.000000000               0.000000000               0.000000000               0.000729658               0.001424768              -0.000839655               0.000095524               0.000443076               0.000538600               0.000000000               0.000000000               0.000000000               0.000000000               0.000482771               0.001526009              -0.000667848              -0.000009713               0.000511902               0.000502189               0.000000000               0.000000000               0.000000000               0.000000000               0.000297605               0.001719416              -0.000474427              -0.000103325               0.000607575               0.000504249               0.000000000               0.000000000               0.000000000               0.000000000               0.000240538               0.001787729              -0.000364773              -0.000133264               0.000640325               0.000507061               0.000000000               0.000000000               0.000000000               0.000000000               0.000217533               0.001824552              -0.000289673              -0.000146494               0.000657009               0.000510516               0.000000000               0.000000000               0.000000000               0.000000000               0.000201880               0.001852514              -0.000232202              -0.000155859               0.000669452               0.000513593               0.000000000               0.000000000               0.000000000               0.000000000               0.000183792               0.001883872              -0.000186166              -0.000166562               0.000683472               0.000516910               0.000000000               0.000000000               0.000000000               0.000000000               0.000160678               0.001920769              -0.000147528              -0.000179841               0.000700197               0.000520356               0.000000000               0.000000000               0.000000000               0.000000000               0.000136084               0.001958344              -0.000115949              -0.000193761               0.000717362               0.000523601               0.000000000               0.000000000               0.000000000               0.000000000               0.000122694               0.001990310              -0.000088071              -0.000202778               0.000731023               0.000528245               0.000000000               0.000000000               0.000000000               0.000000000               0.000115199               0.002013548              -0.000065154              -0.000208493               0.000740674               0.000532180               0.000000000               0.000000000               0.000000000               0.000000000               0.000105482               0.002043062              -0.000048304              -0.000215827               0.000752956               0.000537130               0.000000000               0.000000000               0.000000000               0.000000000               0.000091965               0.002092221              -0.000031060              -0.000227040               0.000773080               0.000546040               0.000000000               0.000000000               0.000000000               0.000000000               0.000073268               0.002154634              -0.000011590              -0.000241853               0.000798822               0.000556969               0.000000000               0.000000000               0.000000000               0.000000000               0.000057433               0.002225941               0.000003272              -0.000256705               0.000827541               0.000570837               0.000000000               0.000000000               0.000000000               0.000000000               0.000047530               0.002296753               0.000007963              -0.000269270               0.000855333               0.000586064               0.000000000               0.000000000               0.000000000               0.000000000               0.000043929               0.002337229               0.000005817              -0.000275680               0.000870962               0.000595282               0.000000000               0.000000000               0.000000000               0.000000000               0.000721115               0.001129666              -0.000750608               0.000129208               0.000333482               0.000462690               0.000000000               0.000000000               0.000000000               0.000000000               0.000499949               0.001294484              -0.000649416               0.000025669               0.000422934               0.000448603               0.000000000               0.000000000               0.000000000               0.000000000               0.000315135               0.001554619              -0.000516988              -0.000076152               0.000543585               0.000467433               0.000000000               0.000000000               0.000000000               0.000000000               0.000254346               0.001668420              -0.000414564              -0.000113173               0.000593859               0.000480686               0.000000000               0.000000000               0.000000000               0.000000000               0.000230815               0.001731785              -0.000335418              -0.000129917               0.000620562               0.000490644               0.000000000               0.000000000               0.000000000               0.000000000               0.000216544               0.001781666              -0.000270759              -0.000141504               0.000641051               0.000499547               0.000000000               0.000000000               0.000000000               0.000000000               0.000200345               0.001828070              -0.000218033              -0.000153379               0.000660477               0.000507098               0.000000000               0.000000000               0.000000000               0.000000000               0.000180899               0.001876880              -0.000176200              -0.000166773               0.000681211               0.000514439               0.000000000               0.000000000               0.000000000               0.000000000               0.000158918               0.001926141              -0.000144004              -0.000181173               0.000702431               0.000521258               0.000000000               0.000000000               0.000000000               0.000000000               0.000141192               0.001970429              -0.000114664              -0.000193356               0.000721255               0.000527899               0.000000000               0.000000000               0.000000000               0.000000000               0.000130449               0.002006084              -0.000085803              -0.000201842               0.000735969               0.000534127               0.000000000               0.000000000               0.000000000               0.000000000               0.000120199               0.002045738              -0.000060882              -0.000210642               0.000752120               0.000541478               0.000000000               0.000000000               0.000000000               0.000000000               0.000108787               0.002100850              -0.000036620              -0.000221811               0.000774213               0.000552403               0.000000000               0.000000000               0.000000000               0.000000000               0.000097258               0.002176197              -0.000014829              -0.000235552               0.000803909               0.000568357               0.000000000               0.000000000               0.000000000               0.000000000               0.000091086               0.002268524              -0.000003183              -0.000249408               0.000839303               0.000589895               0.000000000               0.000000000               0.000000000               0.000000000               0.000092530               0.002366468              -0.000000341              -0.000261109               0.000875851               0.000614742               0.000000000               0.000000000               0.000000000               0.000000000               0.000090556               0.002413853               0.000001470              -0.000267772               0.000893867               0.000626095               0.000000000               0.000000000               0.000000000               0.000000000               0.000682390               0.000850232              -0.000644356               0.000149615               0.000233536               0.000383151               0.000000000               0.000000000               0.000000000               0.000000000               0.000518798               0.001062846              -0.000615068               0.000061692               0.000333714               0.000395406               0.000000000               0.000000000               0.000000000               0.000000000               0.000354484               0.001367090              -0.000547167              -0.000037955               0.000468344               0.000430388               0.000000000               0.000000000               0.000000000               0.000000000               0.000287822               0.001520761              -0.000461047              -0.000082162               0.000534303               0.000452140               0.000000000               0.000000000               0.000000000               0.000000000               0.000259267               0.001616568              -0.000383833              -0.000104846               0.000573799               0.000468953               0.000000000               0.000000000               0.000000000               0.000000000               0.000245571               0.001691337              -0.000315474              -0.000119328               0.000603549               0.000484221               0.000000000               0.000000000               0.000000000               0.000000000               0.000231600               0.001755365              -0.000258154              -0.000132570               0.000629306               0.000496735               0.000000000               0.000000000               0.000000000               0.000000000               0.000214957               0.001817058              -0.000213093              -0.000146523               0.000654521               0.000507998               0.000000000               0.000000000               0.000000000               0.000000000               0.000193656               0.001873735              -0.000178098              -0.000161596               0.000678437               0.000516842               0.000000000               0.000000000               0.000000000               0.000000000               0.000172067               0.001926459              -0.000146839              -0.000176282               0.000700907               0.000524625               0.000000000               0.000000000               0.000000000               0.000000000               0.000157146               0.001977218              -0.000113190              -0.000188222               0.000721807               0.000533585               0.000000000               0.000000000               0.000000000               0.000000000               0.000144971               0.002028426              -0.000080559              -0.000199189               0.000742531               0.000543343               0.000000000               0.000000000               0.000000000               0.000000000               0.000137451               0.002085563              -0.000053056              -0.000209151               0.000764897               0.000555747               0.000000000               0.000000000               0.000000000               0.000000000               0.000137316               0.002157472              -0.000032149              -0.000218190               0.000791880               0.000573690               0.000000000               0.000000000               0.000000000               0.000000000               0.000139002               0.002249156              -0.000018826              -0.000229018               0.000826050               0.000597032               0.000000000               0.000000000               0.000000000               0.000000000               0.000139103               0.002354957              -0.000008929              -0.000242205               0.000865713               0.000623508               0.000000000               0.000000000               0.000000000               0.000000000               0.000129977               0.002402400              -0.000000361              -0.000251558               0.000884645               0.000633087               0.000000000               0.000000000               0.000000000               0.000000000               0.000614782               0.000605982              -0.000521694               0.000154794               0.000150394               0.000305187               0.000000000               0.000000000               0.000000000               0.000000000               0.000525357               0.000839924              -0.000553883               0.000092017               0.000249299               0.000341316               0.000000000               0.000000000               0.000000000               0.000000000               0.000399976               0.001155883              -0.000545392               0.000005505               0.000383455               0.000388960               0.000000000               0.000000000               0.000000000               0.000000000               0.000337460               0.001345005              -0.000482348              -0.000041579               0.000462190               0.000420611               0.000000000               0.000000000               0.000000000               0.000000000               0.000302951               0.001474454              -0.000414335              -0.000070700               0.000515046               0.000444346               0.000000000               0.000000000               0.000000000               0.000000000               0.000284554               0.001573806              -0.000348519              -0.000090018               0.000554603               0.000464585               0.000000000               0.000000000               0.000000000               0.000000000               0.000270007               0.001660375              -0.000289882              -0.000106294               0.000588884               0.000482590               0.000000000               0.000000000               0.000000000               0.000000000               0.000252887               0.001737625              -0.000242390              -0.000122370               0.000619993               0.000497622               0.000000000               0.000000000               0.000000000               0.000000000               0.000229773               0.001803434              -0.000205382              -0.000139264               0.000647560               0.000508296               0.000000000               0.000000000               0.000000000               0.000000000               0.000206127               0.001865501              -0.000173791              -0.000155890               0.000673791               0.000517901               0.000000000               0.000000000               0.000000000               0.000000000               0.000187243               0.001929620              -0.000138103              -0.000170986               0.000700195               0.000529210               0.000000000               0.000000000               0.000000000               0.000000000               0.000177782               0.001994501              -0.000104678              -0.000182644               0.000725708               0.000543064               0.000000000               0.000000000               0.000000000               0.000000000               0.000175220               0.002059606              -0.000079669              -0.000191743               0.000750443               0.000558700               0.000000000               0.000000000               0.000000000               0.000000000               0.000180240               0.002138039              -0.000058258              -0.000199665               0.000779228               0.000579563               0.000000000               0.000000000               0.000000000               0.000000000               0.000185658               0.002233330              -0.000038602              -0.000209544               0.000814284               0.000604740               0.000000000               0.000000000               0.000000000               0.000000000               0.000183331               0.002343062              -0.000019170              -0.000224133               0.000855724               0.000631591               0.000000000               0.000000000               0.000000000               0.000000000               0.000169241               0.002394126              -0.000005019              -0.000235800               0.000876634               0.000640834               0.000000000               0.000000000               0.000000000               0.000000000               0.000523320               0.000408299              -0.000395971               0.000145206               0.000087696               0.000232902               0.000000000               0.000000000               0.000000000               0.000000000               0.000518298               0.000634391              -0.000468497               0.000115061               0.000173108               0.000288169               0.000000000               0.000000000               0.000000000               0.000000000               0.000450121               0.000939046              -0.000505463               0.000051414               0.000295874               0.000347288               0.000000000               0.000000000               0.000000000               0.000000000               0.000398703               0.001153533              -0.000468293               0.000005321               0.000382733               0.000388054               0.000000000               0.000000000               0.000000000               0.000000000               0.000361928               0.001312374              -0.000413919              -0.000028324               0.000446895               0.000418571               0.000000000               0.000000000               0.000000000               0.000000000               0.000334760               0.001435344              -0.000355917              -0.000053883               0.000496404               0.000442521               0.000000000               0.000000000               0.000000000               0.000000000               0.000315575               0.001543219              -0.000301209              -0.000074562               0.000539255               0.000464693               0.000000000               0.000000000               0.000000000               0.000000000               0.000295574               0.001635913              -0.000254410              -0.000093649               0.000576515               0.000482866               0.000000000               0.000000000               0.000000000               0.000000000               0.000273421               0.001714549              -0.000218048              -0.000111786               0.000608772               0.000496987               0.000000000               0.000000000               0.000000000               0.000000000               0.000249517               0.001787332              -0.000186915              -0.000129847               0.000639054               0.000509206               0.000000000               0.000000000               0.000000000               0.000000000               0.000229818               0.001859873              -0.000156043              -0.000146302               0.000668719               0.000522417               0.000000000               0.000000000               0.000000000               0.000000000               0.000221749               0.001938666              -0.000128154              -0.000159177               0.000699274               0.000540098               0.000000000               0.000000000               0.000000000               0.000000000               0.000221319               0.002024736              -0.000103939              -0.000170097               0.000731604               0.000561507               0.000000000               0.000000000               0.000000000               0.000000000               0.000226288               0.002123788              -0.000081789              -0.000180615               0.000768127               0.000587512               0.000000000               0.000000000               0.000000000               0.000000000               0.000233618               0.002231058              -0.000057072              -0.000191275               0.000807437               0.000616162               0.000000000               0.000000000               0.000000000               0.000000000               0.000234749               0.002343779              -0.000028835              -0.000204941               0.000849566               0.000644625               0.000000000               0.000000000               0.000000000               0.000000000               0.000221873               0.002395702              -0.000010791              -0.000216260               0.000870646               0.000654386               0.000000000               0.000000000               0.000000000               0.000000000               0.000422517               0.000257156              -0.000277523               0.000126298               0.000043618               0.000169916               0.000000000               0.000000000               0.000000000               0.000000000               0.000498941               0.000457627              -0.000364566               0.000129898               0.000109241               0.000239139               0.000000000               0.000000000               0.000000000               0.000000000               0.000498007               0.000737229              -0.000425845               0.000094598               0.000214208               0.000308806               0.000000000               0.000000000               0.000000000               0.000000000               0.000465184               0.000963866              -0.000410410               0.000053960               0.000303299               0.000357259               0.000000000               0.000000000               0.000000000               0.000000000               0.000427653               0.001144651              -0.000371145               0.000017288               0.000375784               0.000393072               0.000000000               0.000000000               0.000000000               0.000000000               0.000394319               0.001289958              -0.000325538              -0.000013375               0.000434440               0.000421065               0.000000000               0.000000000               0.000000000               0.000000000               0.000368004               0.001412691              -0.000279741              -0.000038585               0.000483754               0.000445169               0.000000000               0.000000000               0.000000000               0.000000000               0.000343209               0.001516652              -0.000239350              -0.000060878               0.000525838               0.000464960               0.000000000               0.000000000               0.000000000               0.000000000               0.000322094               0.001610040              -0.000207183              -0.000080470               0.000563498               0.000483028               0.000000000               0.000000000               0.000000000               0.000000000               0.000300906               0.001695701              -0.000179162              -0.000099123               0.000598269               0.000499146               0.000000000               0.000000000               0.000000000               0.000000000               0.000283053               0.001782659              -0.000155069              -0.000116687               0.000633109               0.000516422               0.000000000               0.000000000               0.000000000               0.000000000               0.000272211               0.001879128              -0.000134673              -0.000132812               0.000670640               0.000537829               0.000000000               0.000000000               0.000000000               0.000000000               0.000270703               0.001985835              -0.000114935              -0.000146716               0.000710844               0.000564128               0.000000000               0.000000000               0.000000000               0.000000000               0.000278531               0.002108347              -0.000094222              -0.000159094               0.000755807               0.000596713               0.000000000               0.000000000               0.000000000               0.000000000               0.000288270               0.002234895              -0.000069158              -0.000171260               0.000802044               0.000630784               0.000000000               0.000000000               0.000000000               0.000000000               0.000296208               0.002352567              -0.000037460              -0.000182992               0.000845178               0.000662186               0.000000000               0.000000000               0.000000000               0.000000000               0.000290142               0.002403242              -0.000017343              -0.000191601               0.000864940               0.000673338               0.000000000               0.000000000               0.000000000               0.000000000               0.000331352               0.000150233              -0.000171650               0.000105477               0.000014918               0.000120395               0.000000000               0.000000000               0.000000000               0.000000000               0.000476724               0.000323072              -0.000247624               0.000138386               0.000061561               0.000199947               0.000000000               0.000000000               0.000000000               0.000000000               0.000536544               0.000572256              -0.000308341               0.000129671               0.000147526               0.000277197               0.000000000               0.000000000               0.000000000               0.000000000               0.000524555               0.000798604              -0.000306502               0.000096882               0.000233905               0.000330786               0.000000000               0.000000000               0.000000000               0.000000000               0.000490175               0.000994945              -0.000282124               0.000059447               0.000311829               0.000371276               0.000000000               0.000000000               0.000000000               0.000000000               0.000453259               0.001157405              -0.000251185               0.000025296               0.000377366               0.000402662               0.000000000               0.000000000               0.000000000               0.000000000               0.000418739               0.001289657              -0.000218059              -0.000004180               0.000431275               0.000427095               0.000000000               0.000000000               0.000000000               0.000000000               0.000390359               0.001403126              -0.000189633              -0.000029006               0.000477373               0.000448367               0.000000000               0.000000000               0.000000000               0.000000000               0.000365715               0.001504988              -0.000166726              -0.000050980               0.000518651               0.000467671               0.000000000               0.000000000               0.000000000               0.000000000               0.000346771               0.001606957              -0.000144454              -0.000070830               0.000559257               0.000488427               0.000000000               0.000000000               0.000000000               0.000000000               0.000331362               0.001717340              -0.000125570              -0.000090407               0.000602577               0.000512170               0.000000000               0.000000000               0.000000000               0.000000000               0.000321507               0.001832320              -0.000113021              -0.000108474               0.000646925               0.000538451               0.000000000               0.000000000               0.000000000               0.000000000               0.000321442               0.001954516              -0.000103424              -0.000123773               0.000692757               0.000568983               0.000000000               0.000000000               0.000000000               0.000000000               0.000332597               0.002090877              -0.000088790              -0.000136635               0.000742497               0.000605862               0.000000000               0.000000000               0.000000000               0.000000000               0.000349507               0.002233687              -0.000066955              -0.000148145               0.000793937               0.000645791               0.000000000               0.000000000               0.000000000               0.000000000               0.000364429               0.002360204              -0.000038536              -0.000158364               0.000839515               0.000681151               0.000000000               0.000000000               0.000000000               0.000000000               0.000367459               0.002412909              -0.000021152              -0.000163816               0.000858900               0.000695084               0.000000000               0.000000000               0.000000000               0.000000000               0.000265280               0.000087785              -0.000080531               0.000088506              -0.000000241               0.000088265               0.000000000               0.000000000               0.000000000               0.000000000               0.000459233               0.000239049              -0.000124819               0.000142330               0.000032239               0.000174569               0.000000000               0.000000000               0.000000000               0.000000000               0.000562425               0.000463924              -0.000161908               0.000152917               0.000103667               0.000256584               0.000000000               0.000000000               0.000000000               0.000000000               0.000565446               0.000686388              -0.000164064               0.000126242               0.000186713               0.000312955               0.000000000               0.000000000               0.000000000               0.000000000               0.000535704               0.000889623              -0.000153273               0.000089685               0.000266643               0.000356328               0.000000000               0.000000000               0.000000000               0.000000000               0.000496158               0.001061915              -0.000137085               0.000053319               0.000336195               0.000389514               0.000000000               0.000000000               0.000000000               0.000000000               0.000457601               0.001202679              -0.000119999               0.000021265               0.000393801               0.000415066               0.000000000               0.000000000               0.000000000               0.000000000               0.000425109               0.001322223              -0.000105737              -0.000005862               0.000442691               0.000436829               0.000000000               0.000000000               0.000000000               0.000000000               0.000396162               0.001429991              -0.000094334              -0.000030188               0.000486722               0.000456534               0.000000000               0.000000000               0.000000000               0.000000000               0.000375349               0.001542123              -0.000081882              -0.000052009               0.000531372               0.000479363               0.000000000               0.000000000               0.000000000               0.000000000               0.000365073               0.001665923              -0.000070149              -0.000071338               0.000579082               0.000507744               0.000000000               0.000000000               0.000000000               0.000000000               0.000362923               0.001800001              -0.000064777              -0.000088904               0.000629629               0.000540725               0.000000000               0.000000000               0.000000000               0.000000000               0.000366724               0.001942146              -0.000062482              -0.000105247               0.000682458               0.000577211               0.000000000               0.000000000               0.000000000               0.000000000               0.000374893               0.002082147              -0.000056903              -0.000119683               0.000733937               0.000614253               0.000000000               0.000000000               0.000000000               0.000000000               0.000392276               0.002220559              -0.000042949              -0.000130466               0.000783668               0.000653201               0.000000000               0.000000000               0.000000000               0.000000000               0.000417575               0.002349500              -0.000022854              -0.000137096               0.000828858               0.000691761               0.000000000               0.000000000               0.000000000               0.000000000               0.000432465               0.002407616              -0.000012184              -0.000138777               0.000848790               0.000710012               0.000000000               0.000000000               0.000000000               0.000000000               0.000000000               0.000000000               0.000000000               0.000000000               0.000000000               0.000000000               0.000000000               0.000000000               0.000000000               0.000000000               0.000000000               0.000000000               0.000000000               0.000000000               0.000000000               0.000000000               0.000000000               0.000000000               0.000000000               0.000000000               0.000000000               0.000000000               0.000000000               0.000000000               0.000000000               0.000000000               0.000000000               0.000000000               0.000000000               0.000000000               0.000000000               0.000000000               0.000000000               0.000000000               0.000000000               0.000000000               0.000000000               0.000000000               0.000000000               0.000000000               0.000000000               0.000000000               0.000000000               0.000000000               0.000000000               0.000000000               0.000000000               0.000000000               0.000000000               0.000000000               0.000000000               0.000000000               0.000000000               0.000000000               0.000000000               0.000000000               0.000000000               0.000000000               0.000000000               0.000000000               0.000000000               0.000000000               0.000000000               0.000000000               0.000000000               0.000000000               0.000000000               0.000000000               0.000000000               0.000000000               0.000000000               0.000000000               0.000000000               0.000000000               0.000000000               0.000000000               0.000000000               0.000000000               0.000000000               0.000000000               0.000000000               0.000000000               0.000000000               0.000000000               0.000000000               0.000000000               0.000000000               0.000000000               0.000000000               0.000000000               0.000000000               0.000000000               0.000000000               0.000000000               0.000000000               0.000000000               0.000000000               0.000000000               0.000000000               0.000000000               0.000000000               0.000000000               0.000000000               0.000000000               0.000000000               0.000000000               0.000000000               0.000000000               0.000000000               0.000000000               0.000000000               0.000000000               0.000000000               0.000000000               0.000000000               0.000000000               0.000000000               0.000000000               0.000000000               0.000000000               0.000000000               0.000000000               0.000000000               0.000000000               0.000000000               0.000000000               0.000000000               0.000000000               0.000000000               0.000000000               0.000000000               0.000000000               0.000000000               0.000000000               0.000000000               0.000000000               0.000000000               0.000000000               0.000000000               0.000000000               0.000000000               0.000000000               0.000000000               0.000000000               0.000000000               0.000000000               0.000000000               0.000000000               0.000000000               0.000000000               0.000000000               0.000000000               0.000000000               0.000000000               0.000000000               0.000000000               0.000000000               0.000000000               0.000000000               0.000000000               0.000000000               0.000000000               0.000000000               0.000000000               0.000000000               0.000000000               0.000000000               0.000000000               0.000000000               0.000000000               0.000000000               0.000000000               0.000000000               0.000000000               0.000000000               0.000000000               0.000000000               0.000000000               0.000000000               0.000000000               0.000000000               0.000000000               0.000000000               0.000000000               0.000000000               0.000000000               0.000000000               0.000000000               0.000000000               0.000000000               0.000000000               0.000000000               0.000000000               0.000000000               0.000000000               0.000000000               0.000000000               0.000000000               0.000000000               0.000000000               0.000000000               0.000000000               0.000000000               0.000000000               0.000000000               0.000000000               0.000000000               0.000000000               0.000000000               0.000000000               0.000000000               0.000000000               0.000000000               0.000000000               0.000000000               0.000000000               0.000000000               0.000000000               0.000000000               0.000000000               0.000000000               0.000000000               0.000000000               0.000000000               0.000000000               0.000000000               0.000000000               0.000000000               0.000000000               0.000000000               0.000000000               0.000000000               0.000000000               0.000000000               0.000000000               0.000000000               0.000000000               0.000000000               0.000000000               0.000000000               0.000000000               0.000000000               0.000000000               0.000000000               0.000000000               0.000000000               0.000000000               0.000000000               0.000000000               0.000000000               0.000000000               0.000000000               0.000000000               0.000000000               0.000000000               0.000000000               0.000000000               0.000000000               0.000000000               0.000000000               0.000000000               0.000000000               0.000000000               0.000000000               0.000000000               0.000000000               0.000000000               0.000000000               0.000000000               0.000000000               0.000000000               0.000000000               0.000000000               0.000000000               0.000000000               0.000000000               0.000000000               0.000000000               0.000000000               0.000000000               0.000000000               0.000000000               0.000000000               0.000000000               0.000000000               0.000000000               0.000000000               0.000000000               0.000000000               0.000000000               0.000000000               0.000000000               0.000000000               0.000000000               0.000000000               0.000000000               0.000000000               0.000000000               0.000000000               0.000000000               0.000000000               0.000000000               0.000000000               0.000000000               0.000000000               0.000000000               0.000000000               0.000000000               0.000000000               0.000000000               0.000000000               0.000000000               0.000000000               0.000000000               0.000000000               0.000000000               0.000000000               0.000000000               0.000000000               0.000000000               0.000000000               0.000000000               0.000000000               0.000000000               0.000000000               0.000000000               0.000000000               0.000000000               0.000000000               0.000000000               0.000000000               0.000000000               0.000000000               0.000000000               0.000000000               0.000000000               0.000000000               0.000000000               0.000000000               0.000000000               0.000333230               0.003442964               0.000274397              -0.000305409               0.001249446               0.000944037               0.000000000               0.000000000               0.000000000               0.000000000               0.000371965               0.002879558               0.000186647              -0.000220457               0.001033329               0.000812871               0.000000000               0.000000000               0.000000000               0.000000000               0.000517898               0.002426403               0.000094163              -0.000109088               0.000845156               0.000736067               0.000000000               0.000000000               0.000000000               0.000000000               0.000553952               0.002175285               0.000049240              -0.000064179               0.000746481               0.000682302               0.000000000               0.000000000               0.000000000               0.000000000               0.000542933               0.002030240               0.000026549              -0.000050180               0.000693467               0.000643287               0.000000000               0.000000000               0.000000000               0.000000000               0.000508748               0.001946184               0.000015723              -0.000052492               0.000666219               0.000613727               0.000000000               0.000000000               0.000000000               0.000000000               0.000462732               0.001899228               0.000010645              -0.000063879               0.000654363               0.000590484               0.000000000               0.000000000               0.000000000               0.000000000               0.000412535               0.001874864               0.000008586              -0.000079657               0.000651501               0.000571844               0.000000000               0.000000000               0.000000000               0.000000000               0.000361798               0.001867042               0.000007792              -0.000097706               0.000654910               0.000557204               0.000000000               0.000000000               0.000000000               0.000000000               0.000309298               0.001870301               0.000006709              -0.000117800               0.000662694               0.000544894               0.000000000               0.000000000               0.000000000               0.000000000               0.000257433               0.001884575               0.000004239              -0.000139034               0.000674530               0.000535496               0.000000000               0.000000000               0.000000000               0.000000000               0.000205330               0.001906774               0.000002634              -0.000161348               0.000689367               0.000528020               0.000000000               0.000000000               0.000000000               0.000000000               0.000154291               0.001934158               0.000004000              -0.000183910               0.000706016               0.000522106               0.000000000               0.000000000               0.000000000               0.000000000               0.000109335               0.001962275               0.000006770              -0.000204283               0.000722180               0.000517896               0.000000000               0.000000000               0.000000000               0.000000000               0.000070320               0.001990152               0.000008324              -0.000222399               0.000737510               0.000515112               0.000000000               0.000000000               0.000000000               0.000000000               0.000034296               0.002021253               0.000004347              -0.000239795               0.000753676               0.000513881               0.000000000               0.000000000               0.000000000               0.000000000               0.000020438               0.002047672               0.000001542              -0.000248294               0.000765315               0.000517021               0.000000000               0.000000000               0.000000000               0.000000000               0.000389964               0.003288969               0.000522972              -0.000264884               0.001184607               0.000919722               0.000000000               0.000000000               0.000000000               0.000000000               0.000393406               0.002768356               0.000354207              -0.000198517               0.000988948               0.000790431               0.000000000               0.000000000               0.000000000               0.000000000               0.000500099               0.002367470               0.000179576              -0.000108396               0.000825281               0.000716885               0.000000000               0.000000000               0.000000000               0.000000000               0.000517012               0.002146409               0.000097869              -0.000074422               0.000740270               0.000665848               0.000000000               0.000000000               0.000000000               0.000000000               0.000499615               0.002018679               0.000057379              -0.000064979               0.000694546               0.000629567               0.000000000               0.000000000               0.000000000               0.000000000               0.000463997               0.001943545               0.000037080              -0.000068944               0.000670823               0.000601879               0.000000000               0.000000000               0.000000000               0.000000000               0.000420471               0.001900145               0.000028013              -0.000079841               0.000659989               0.000580148               0.000000000               0.000000000               0.000000000               0.000000000               0.000376962               0.001878680               0.000023832              -0.000093474               0.000657378               0.000563904               0.000000000               0.000000000               0.000000000               0.000000000               0.000331018               0.001871444               0.000021153              -0.000109798               0.000660408               0.000550609               0.000000000               0.000000000               0.000000000               0.000000000               0.000281927               0.001875198               0.000017636              -0.000128677               0.000667952               0.000539275               0.000000000               0.000000000               0.000000000               0.000000000               0.000233274               0.001888967               0.000012524              -0.000148643               0.000679197               0.000530554               0.000000000               0.000000000               0.000000000               0.000000000               0.000185073               0.001909092               0.000008634              -0.000169234               0.000692769               0.000523535               0.000000000               0.000000000               0.000000000               0.000000000               0.000139860               0.001931378               0.000010135              -0.000188974               0.000706777               0.000517803               0.000000000               0.000000000               0.000000000               0.000000000               0.000099258               0.001951968               0.000016332              -0.000206774               0.000719574               0.000512800               0.000000000               0.000000000               0.000000000               0.000000000               0.000064004               0.001972360               0.000016865              -0.000222543               0.000731628               0.000509085               0.000000000               0.000000000               0.000000000               0.000000000               0.000033256               0.001997275               0.000007758              -0.000237188               0.000744814               0.000507626               0.000000000               0.000000000               0.000000000               0.000000000               0.000020930               0.002017455               0.000002462              -0.000244333               0.000753923               0.000509590               0.000000000               0.000000000               0.000000000               0.000000000               0.000472023               0.003046977               0.000722455              -0.000203863               0.001083603               0.000879740               0.000000000               0.000000000               0.000000000               0.000000000               0.000421178               0.002599678               0.000489611              -0.000167018               0.000922223               0.000755205               0.000000000               0.000000000               0.000000000               0.000000000               0.000468977               0.002278828               0.000252877              -0.000108987               0.000795931               0.000686944               0.000000000               0.000000000               0.000000000               0.000000000               0.000460544               0.002101911               0.000145775              -0.000090035               0.000730641               0.000640607               0.000000000               0.000000000               0.000000000               0.000000000               0.000435844               0.002000736               0.000093746              -0.000086650               0.000695789               0.000609138               0.000000000               0.000000000               0.000000000               0.000000000               0.000401119               0.001938861               0.000067880              -0.000091938               0.000676926               0.000584989               0.000000000               0.000000000               0.000000000               0.000000000               0.000363105               0.001902309               0.000054226              -0.000101624               0.000667971               0.000566347               0.000000000               0.000000000               0.000000000               0.000000000               0.000326910               0.001883831               0.000046779              -0.000112887               0.000665567               0.000552679               0.000000000               0.000000000               0.000000000               0.000000000               0.000288317               0.001877534               0.000040578              -0.000126573               0.000668029               0.000541457               0.000000000               0.000000000               0.000000000               0.000000000               0.000246353               0.001882398               0.000032832              -0.000142917               0.000675099               0.000532182               0.000000000               0.000000000               0.000000000               0.000000000               0.000202993               0.001895145               0.000023333              -0.000160770               0.000685299               0.000524528               0.000000000               0.000000000               0.000000000               0.000000000               0.000160894               0.001911865               0.000017457              -0.000178647               0.000696831               0.000518184               0.000000000               0.000000000               0.000000000               0.000000000               0.000122871               0.001925585               0.000019602              -0.000194621               0.000706729               0.000512108               0.000000000               0.000000000               0.000000000               0.000000000               0.000090101               0.001937175               0.000025180              -0.000208359               0.000715171               0.000506813               0.000000000               0.000000000               0.000000000               0.000000000               0.000058502               0.001948529               0.000021746              -0.000221627               0.000723379               0.000501752               0.000000000               0.000000000               0.000000000               0.000000000               0.000028053               0.001961592               0.000008305              -0.000234679               0.000732084               0.000497405               0.000000000               0.000000000               0.000000000               0.000000000               0.000015097               0.001971487               0.000001831              -0.000240774               0.000737414               0.000496640               0.000000000               0.000000000               0.000000000               0.000000000               0.000560987               0.002745032               0.000858609              -0.000132759               0.000959254               0.000826495               0.000000000               0.000000000               0.000000000               0.000000000               0.000447205               0.002393050               0.000587336              -0.000131429               0.000841485               0.000710056               0.000000000               0.000000000               0.000000000               0.000000000               0.000428357               0.002174470               0.000314371              -0.000111175               0.000761874               0.000650700               0.000000000               0.000000000               0.000000000               0.000000000               0.000396401               0.002050685               0.000194208              -0.000107685               0.000719450               0.000611765               0.000000000               0.000000000               0.000000000               0.000000000               0.000365408               0.001977445               0.000136444              -0.000110152               0.000695859               0.000585707               0.000000000               0.000000000               0.000000000               0.000000000               0.000333934               0.001930577               0.000105307              -0.000116097               0.000682218               0.000566121               0.000000000               0.000000000               0.000000000               0.000000000               0.000301508               0.001902374               0.000087007              -0.000124731               0.000675695               0.000550964               0.000000000               0.000000000               0.000000000               0.000000000               0.000271509               0.001886933               0.000074278              -0.000134050               0.000673655               0.000539605               0.000000000               0.000000000               0.000000000               0.000000000               0.000241631               0.001886219               0.000062325              -0.000145165               0.000677122               0.000531956               0.000000000               0.000000000               0.000000000               0.000000000               0.000207107               0.001893451               0.000048359              -0.000159016               0.000684149               0.000525133               0.000000000               0.000000000               0.000000000               0.000000000               0.000172686               0.001907537               0.000034499              -0.000173685               0.000693734               0.000520049               0.000000000               0.000000000               0.000000000               0.000000000               0.000137775               0.001916452               0.000026633              -0.000187891               0.000701441               0.000513551               0.000000000               0.000000000               0.000000000               0.000000000               0.000108488               0.001921548               0.000026730              -0.000199510               0.000707013               0.000507503               0.000000000               0.000000000               0.000000000               0.000000000               0.000082650               0.001926473               0.000028772              -0.000209815               0.000712090               0.000502275               0.000000000               0.000000000               0.000000000               0.000000000               0.000053089               0.001933559               0.000021410              -0.000221786               0.000718442               0.000496656               0.000000000               0.000000000               0.000000000               0.000000000               0.000024811               0.001942001               0.000007234              -0.000233445               0.000725142               0.000491697               0.000000000               0.000000000               0.000000000               0.000000000               0.000014062               0.001948928               0.000002002              -0.000238342               0.000729083               0.000490741               0.000000000               0.000000000               0.000000000               0.000000000               0.000635430               0.002409716               0.000931987              -0.000062929               0.000824207               0.000761278               0.000000000               0.000000000               0.000000000               0.000000000               0.000465452               0.002167766               0.000648493              -0.000096427               0.000754723               0.000658297               0.000000000               0.000000000               0.000000000               0.000000000               0.000384118               0.002061292               0.000364604              -0.000113617               0.000724963               0.000611346               0.000000000               0.000000000               0.000000000               0.000000000               0.000333654               0.001990557               0.000242349              -0.000123699               0.000704745               0.000581046               0.000000000               0.000000000               0.000000000               0.000000000               0.000299662               0.001943952               0.000180822              -0.000130620               0.000691518               0.000560897               0.000000000               0.000000000               0.000000000               0.000000000               0.000273839               0.001915430               0.000144935              -0.000136739               0.000684050               0.000547311               0.000000000               0.000000000               0.000000000               0.000000000               0.000247700               0.001898845               0.000121103              -0.000144468               0.000681098               0.000536630               0.000000000               0.000000000               0.000000000               0.000000000               0.000223423               0.001894127               0.000101486              -0.000152982               0.000682363               0.000529381               0.000000000               0.000000000               0.000000000               0.000000000               0.000199295               0.001900218               0.000081698              -0.000162791               0.000687663               0.000524872               0.000000000               0.000000000               0.000000000               0.000000000               0.000171308               0.001912516               0.000060478              -0.000174824               0.000695773               0.000520950               0.000000000               0.000000000               0.000000000               0.000000000               0.000144478               0.001923993               0.000043568              -0.000186319               0.000703431               0.000517112               0.000000000               0.000000000               0.000000000               0.000000000               0.000122367               0.001926874               0.000034832              -0.000194971               0.000707275               0.000512304               0.000000000               0.000000000               0.000000000               0.000000000               0.000101014               0.001926814               0.000030618              -0.000202971               0.000709922               0.000506951               0.000000000               0.000000000               0.000000000               0.000000000               0.000076574               0.001931591               0.000026964              -0.000212733               0.000714768               0.000502035               0.000000000               0.000000000               0.000000000               0.000000000               0.000049638               0.001944311               0.000016579              -0.000224424               0.000722905               0.000498481               0.000000000               0.000000000               0.000000000               0.000000000               0.000022794               0.001959159               0.000004461              -0.000236346               0.000731829               0.000495482               0.000000000               0.000000000               0.000000000               0.000000000               0.000013134               0.001970730               0.000001952              -0.000241415               0.000737375               0.000495960               0.000000000               0.000000000               0.000000000               0.000000000               0.000687243               0.002062084               0.000947719              -0.000000046               0.000687369               0.000687324               0.000000000               0.000000000               0.000000000               0.000000000               0.000474275               0.001940085               0.000677815              -0.000064658               0.000668241               0.000603583               0.000000000               0.000000000               0.000000000               0.000000000               0.000341784               0.001943909               0.000405681              -0.000114820               0.000686236               0.000571417               0.000000000               0.000000000               0.000000000               0.000000000               0.000282246               0.001921937               0.000286983              -0.000134400               0.000685439               0.000551040               0.000000000               0.000000000               0.000000000               0.000000000               0.000250315               0.001904270               0.000222358              -0.000144165               0.000682806               0.000538640               0.000000000               0.000000000               0.000000000               0.000000000               0.000230591               0.001897633               0.000181046              -0.000150732               0.000682782               0.000532050               0.000000000               0.000000000               0.000000000               0.000000000               0.000208311               0.001895692               0.000149953              -0.000158845               0.000684839               0.000525995               0.000000000               0.000000000               0.000000000               0.000000000               0.000186032               0.001903003               0.000122986              -0.000168113               0.000690366               0.000522253               0.000000000               0.000000000               0.000000000               0.000000000               0.000165548               0.001917638               0.000095396              -0.000177624               0.000698414               0.000520790               0.000000000               0.000000000               0.000000000               0.000000000               0.000141992               0.001934566               0.000069923              -0.000188573               0.000707707               0.000519133               0.000000000               0.000000000               0.000000000               0.000000000               0.000121996               0.001944212               0.000052290              -0.000197278               0.000713824               0.000516546               0.000000000               0.000000000               0.000000000               0.000000000               0.000110734               0.001948823               0.000042965              -0.000202077               0.000716960               0.000514883               0.000000000               0.000000000               0.000000000               0.000000000               0.000095146               0.001954487               0.000034892              -0.000208631               0.000721033               0.000512402               0.000000000               0.000000000               0.000000000               0.000000000               0.000072648               0.001970129               0.000025000              -0.000219023               0.000729711               0.000510688               0.000000000               0.000000000               0.000000000               0.000000000               0.000048924               0.001994680               0.000012311              -0.000230988               0.000741883               0.000510895               0.000000000               0.000000000               0.000000000               0.000000000               0.000025303               0.002019958               0.000002800              -0.000243006               0.000754315               0.000511309               0.000000000               0.000000000               0.000000000               0.000000000               0.000017499               0.002038557               0.000002585              -0.000248257               0.000762264               0.000514008               0.000000000               0.000000000               0.000000000               0.000000000               0.000716660               0.001724158               0.000911446               0.000053226               0.000556971               0.000610197               0.000000000               0.000000000               0.000000000               0.000000000               0.000476256               0.001722969               0.000680100              -0.000036776               0.000586576               0.000549800               0.000000000               0.000000000               0.000000000               0.000000000               0.000308947               0.001827452               0.000439224              -0.000112576               0.000646670               0.000534094               0.000000000               0.000000000               0.000000000               0.000000000               0.000248562               0.001851378               0.000325699              -0.000138212               0.000663190               0.000524979               0.000000000               0.000000000               0.000000000               0.000000000               0.000222262               0.001863506               0.000256546              -0.000149590               0.000671026               0.000521436               0.000000000               0.000000000               0.000000000               0.000000000               0.000205189               0.001875543               0.000207838              -0.000157497               0.000677674               0.000520177               0.000000000               0.000000000               0.000000000               0.000000000               0.000185850               0.001889674               0.000169053              -0.000166515               0.000685390               0.000518875               0.000000000               0.000000000               0.000000000               0.000000000               0.000162266               0.001910932               0.000134489              -0.000178017               0.000696310               0.000518293               0.000000000               0.000000000               0.000000000               0.000000000               0.000138672               0.001937085               0.000103440              -0.000190133               0.000709066               0.000518933               0.000000000               0.000000000               0.000000000               0.000000000               0.000121341               0.001960236               0.000076302              -0.000199526               0.000719914               0.000520388               0.000000000               0.000000000               0.000000000               0.000000000               0.000110663               0.001976476               0.000057740              -0.000205561               0.000727339               0.000521778               0.000000000               0.000000000               0.000000000               0.000000000               0.000101482               0.001993030               0.000047397              -0.000211072               0.000734694               0.000523622               0.000000000               0.000000000               0.000000000               0.000000000               0.000087113               0.002019304               0.000035442              -0.000219745               0.000746343               0.000526598               0.000000000               0.000000000               0.000000000               0.000000000               0.000066439               0.002056748               0.000020324              -0.000232178               0.000762969               0.000530790               0.000000000               0.000000000               0.000000000               0.000000000               0.000045297               0.002101145               0.000006977              -0.000245656               0.000782260               0.000536604               0.000000000               0.000000000               0.000000000               0.000000000               0.000026010               0.002146735              -0.000000429              -0.000258588               0.000801767               0.000543180               0.000000000               0.000000000               0.000000000               0.000000000               0.000020233               0.002178366               0.000000988              -0.000264708               0.000814351               0.000549643               0.000000000               0.000000000               0.000000000               0.000000000               0.000729658               0.001424768               0.000839655               0.000095524               0.000443076               0.000538600               0.000000000               0.000000000               0.000000000               0.000000000               0.000482771               0.001526009               0.000667848              -0.000009713               0.000511902               0.000502189               0.000000000               0.000000000               0.000000000               0.000000000               0.000297605               0.001719416               0.000474427              -0.000103325               0.000607575               0.000504249               0.000000000               0.000000000               0.000000000               0.000000000               0.000240538               0.001787729               0.000364773              -0.000133264               0.000640325               0.000507061               0.000000000               0.000000000               0.000000000               0.000000000               0.000217533               0.001824552               0.000289673              -0.000146494               0.000657009               0.000510516               0.000000000               0.000000000               0.000000000               0.000000000               0.000201880               0.001852514               0.000232202              -0.000155859               0.000669452               0.000513593               0.000000000               0.000000000               0.000000000               0.000000000               0.000183792               0.001883872               0.000186166              -0.000166562               0.000683472               0.000516910               0.000000000               0.000000000               0.000000000               0.000000000               0.000160678               0.001920769               0.000147528              -0.000179841               0.000700197               0.000520356               0.000000000               0.000000000               0.000000000               0.000000000               0.000136084               0.001958344               0.000115949              -0.000193761               0.000717362               0.000523601               0.000000000               0.000000000               0.000000000               0.000000000               0.000122694               0.001990310               0.000088071              -0.000202778               0.000731023               0.000528245               0.000000000               0.000000000               0.000000000               0.000000000               0.000115199               0.002013548               0.000065154              -0.000208493               0.000740674               0.000532180               0.000000000               0.000000000               0.000000000               0.000000000               0.000105482               0.002043062               0.000048304              -0.000215827               0.000752956               0.000537130               0.000000000               0.000000000               0.000000000               0.000000000               0.000091965               0.002092221               0.000031060              -0.000227040               0.000773080               0.000546040               0.000000000               0.000000000               0.000000000               0.000000000               0.000073268               0.002154634               0.000011590              -0.000241853               0.000798822               0.000556969               0.000000000               0.000000000               0.000000000               0.000000000               0.000057433               0.002225941              -0.000003272              -0.000256705               0.000827541               0.000570837               0.000000000               0.000000000               0.000000000               0.000000000               0.000047530               0.002296753              -0.000007963              -0.000269270               0.000855333               0.000586064               0.000000000               0.000000000               0.000000000               0.000000000               0.000043929               0.002337229              -0.000005817              -0.000275680               0.000870962               0.000595282               0.000000000               0.000000000               0.000000000               0.000000000               0.000721115               0.001129666               0.000750608               0.000129208               0.000333482               0.000462690               0.000000000               0.000000000               0.000000000               0.000000000               0.000499949               0.001294484               0.000649416               0.000025669               0.000422934               0.000448603               0.000000000               0.000000000               0.000000000               0.000000000               0.000315135               0.001554619               0.000516988              -0.000076152               0.000543585               0.000467433               0.000000000               0.000000000               0.000000000               0.000000000               0.000254346               0.001668420               0.000414564              -0.000113173               0.000593859               0.000480686               0.000000000               0.000000000               0.000000000               0.000000000               0.000230815               0.001731785               0.000335418              -0.000129917               0.000620562               0.000490644               0.000000000               0.000000000               0.000000000               0.000000000               0.000216544               0.001781666               0.000270759              -0.000141504               0.000641051               0.000499547               0.000000000               0.000000000               0.000000000               0.000000000               0.000200345               0.001828070               0.000218033              -0.000153379               0.000660477               0.000507098               0.000000000               0.000000000               0.000000000               0.000000000               0.000180899               0.001876880               0.000176200              -0.000166773               0.000681211               0.000514439               0.000000000               0.000000000               0.000000000               0.000000000               0.000158918               0.001926141               0.000144004              -0.000181173               0.000702431               0.000521258               0.000000000               0.000000000               0.000000000               0.000000000               0.000141192               0.001970429               0.000114664              -0.000193356               0.000721255               0.000527899               0.000000000               0.000000000               0.000000000               0.000000000               0.000130449               0.002006084               0.000085803              -0.000201842               0.000735969               0.000534127               0.000000000               0.000000000               0.000000000               0.000000000               0.000120199               0.002045738               0.000060882              -0.000210642               0.000752120               0.000541478               0.000000000               0.000000000               0.000000000               0.000000000               0.000108787               0.002100850               0.000036620              -0.000221811               0.000774213               0.000552403               0.000000000               0.000000000               0.000000000               0.000000000               0.000097258               0.002176197               0.000014829              -0.000235552               0.000803909               0.000568357               0.000000000               0.000000000               0.000000000               0.000000000               0.000091086               0.002268524               0.000003183              -0.000249408               0.000839303               0.000589895               0.000000000               0.000000000               0.000000000               0.000000000               0.000092530               0.002366468               0.000000341              -0.000261109               0.000875851               0.000614742               0.000000000               0.000000000               0.000000000               0.000000000               0.000090556               0.002413853              -0.000001470              -0.000267772               0.000893867               0.000626095               0.000000000               0.000000000               0.000000000               0.000000000               0.000682390               0.000850232               0.000644356               0.000149615               0.000233536               0.000383151               0.000000000               0.000000000               0.000000000               0.000000000               0.000518798               0.001062846               0.000615068               0.000061692               0.000333714               0.000395406               0.000000000               0.000000000               0.000000000               0.000000000               0.000354484               0.001367090               0.000547167              -0.000037955               0.000468344               0.000430388               0.000000000               0.000000000               0.000000000               0.000000000               0.000287822               0.001520761               0.000461047              -0.000082162               0.000534303               0.000452140               0.000000000               0.000000000               0.000000000               0.000000000               0.000259267               0.001616568               0.000383833              -0.000104846               0.000573799               0.000468953               0.000000000               0.000000000               0.000000000               0.000000000               0.000245571               0.001691337               0.000315474              -0.000119328               0.000603549               0.000484221               0.000000000               0.000000000               0.000000000               0.000000000               0.000231600               0.001755365               0.000258154              -0.000132570               0.000629306               0.000496735               0.000000000               0.000000000               0.000000000               0.000000000               0.000214957               0.001817058               0.000213093              -0.000146523               0.000654521               0.000507998               0.000000000               0.000000000               0.000000000               0.000000000               0.000193656               0.001873735               0.000178098              -0.000161596               0.000678437               0.000516842               0.000000000               0.000000000               0.000000000               0.000000000               0.000172067               0.001926459               0.000146839              -0.000176282               0.000700907               0.000524625               0.000000000               0.000000000               0.000000000               0.000000000               0.000157146               0.001977218               0.000113190              -0.000188222               0.000721807               0.000533585               0.000000000               0.000000000               0.000000000               0.000000000               0.000144971               0.002028426               0.000080559              -0.000199189               0.000742531               0.000543343               0.000000000               0.000000000               0.000000000               0.000000000               0.000137451               0.002085563               0.000053056              -0.000209151               0.000764897               0.000555747               0.000000000               0.000000000               0.000000000               0.000000000               0.000137316               0.002157472               0.000032149              -0.000218190               0.000791880               0.000573690               0.000000000               0.000000000               0.000000000               0.000000000               0.000139002               0.002249156               0.000018826              -0.000229018               0.000826050               0.000597032               0.000000000               0.000000000               0.000000000               0.000000000               0.000139103               0.002354957               0.000008929              -0.000242205               0.000865713               0.000623508               0.000000000               0.000000000               0.000000000               0.000000000               0.000129977               0.002402400               0.000000361              -0.000251558               0.000884645               0.000633087               0.000000000               0.000000000               0.000000000               0.000000000               0.000614782               0.000605982               0.000521694               0.000154794               0.000150394               0.000305187               0.000000000               0.000000000               0.000000000               0.000000000               0.000525357               0.000839924               0.000553883               0.000092017               0.000249299               0.000341316               0.000000000               0.000000000               0.000000000               0.000000000               0.000399976               0.001155883               0.000545392               0.000005505               0.000383455               0.000388960               0.000000000               0.000000000               0.000000000               0.000000000               0.000337460               0.001345005               0.000482348              -0.000041579               0.000462190               0.000420611               0.000000000               0.000000000               0.000000000               0.000000000               0.000302951               0.001474454               0.000414335              -0.000070700               0.000515046               0.000444346               0.000000000               0.000000000               0.000000000               0.000000000               0.000284554               0.001573806               0.000348519              -0.000090018               0.000554603               0.000464585               0.000000000               0.000000000               0.000000000               0.000000000               0.000270007               0.001660375               0.000289882              -0.000106294               0.000588884               0.000482590               0.000000000               0.000000000               0.000000000               0.000000000               0.000252887               0.001737625               0.000242390              -0.000122370               0.000619993               0.000497622               0.000000000               0.000000000               0.000000000               0.000000000               0.000229773               0.001803434               0.000205382              -0.000139264               0.000647560               0.000508296               0.000000000               0.000000000               0.000000000               0.000000000               0.000206127               0.001865501               0.000173791              -0.000155890               0.000673791               0.000517901               0.000000000               0.000000000               0.000000000               0.000000000               0.000187243               0.001929620               0.000138103              -0.000170986               0.000700195               0.000529210               0.000000000               0.000000000               0.000000000               0.000000000               0.000177782               0.001994501               0.000104678              -0.000182644               0.000725708               0.000543064               0.000000000               0.000000000               0.000000000               0.000000000               0.000175220               0.002059606               0.000079669              -0.000191743               0.000750443               0.000558700               0.000000000               0.000000000               0.000000000               0.000000000               0.000180240               0.002138039               0.000058258              -0.000199665               0.000779228               0.000579563               0.000000000               0.000000000               0.000000000               0.000000000               0.000185658               0.002233330               0.000038602              -0.000209544               0.000814284               0.000604740               0.000000000               0.000000000               0.000000000               0.000000000               0.000183331               0.002343062               0.000019170              -0.000224133               0.000855724               0.000631591               0.000000000               0.000000000               0.000000000               0.000000000               0.000169241               0.002394126               0.000005019              -0.000235800               0.000876634               0.000640834               0.000000000               0.000000000               0.000000000               0.000000000               0.000523320               0.000408299               0.000395971               0.000145206               0.000087696               0.000232902               0.000000000               0.000000000               0.000000000               0.000000000               0.000518298               0.000634391               0.000468497               0.000115061               0.000173108               0.000288169               0.000000000               0.000000000               0.000000000               0.000000000               0.000450121               0.000939046               0.000505463               0.000051414               0.000295874               0.000347288               0.000000000               0.000000000               0.000000000               0.000000000               0.000398703               0.001153533               0.000468293               0.000005321               0.000382733               0.000388054               0.000000000               0.000000000               0.000000000               0.000000000               0.000361928               0.001312374               0.000413919              -0.000028324               0.000446895               0.000418571               0.000000000               0.000000000               0.000000000               0.000000000               0.000334760               0.001435344               0.000355917              -0.000053883               0.000496404               0.000442521               0.000000000               0.000000000               0.000000000               0.000000000               0.000315575               0.001543219               0.000301209              -0.000074562               0.000539255               0.000464693               0.000000000               0.000000000               0.000000000               0.000000000               0.000295574               0.001635913               0.000254410              -0.000093649               0.000576515               0.000482866               0.000000000               0.000000000               0.000000000               0.000000000               0.000273421               0.001714549               0.000218048              -0.000111786               0.000608772               0.000496987               0.000000000               0.000000000               0.000000000               0.000000000               0.000249517               0.001787332               0.000186915              -0.000129847               0.000639054               0.000509206               0.000000000               0.000000000               0.000000000               0.000000000               0.000229818               0.001859873               0.000156043              -0.000146302               0.000668719               0.000522417               0.000000000               0.000000000               0.000000000               0.000000000               0.000221749               0.001938666               0.000128154              -0.000159177               0.000699274               0.000540098               0.000000000               0.000000000               0.000000000               0.000000000               0.000221319               0.002024736               0.000103939              -0.000170097               0.000731604               0.000561507               0.000000000               0.000000000               0.000000000               0.000000000               0.000226288               0.002123788               0.000081789              -0.000180615               0.000768127               0.000587512               0.000000000               0.000000000               0.000000000               0.000000000               0.000233618               0.002231058               0.000057072              -0.000191275               0.000807437               0.000616162               0.000000000               0.000000000               0.000000000               0.000000000               0.000234749               0.002343779               0.000028835              -0.000204941               0.000849566               0.000644625               0.000000000               0.000000000               0.000000000               0.000000000               0.000221873               0.002395702               0.000010791              -0.000216260               0.000870646               0.000654386               0.000000000               0.000000000               0.000000000               0.000000000               0.000422517               0.000257156               0.000277523               0.000126298               0.000043618               0.000169916               0.000000000               0.000000000               0.000000000               0.000000000               0.000498941               0.000457627               0.000364566               0.000129898               0.000109241               0.000239139               0.000000000               0.000000000               0.000000000               0.000000000               0.000498007               0.000737229               0.000425845               0.000094598               0.000214208               0.000308806               0.000000000               0.000000000               0.000000000               0.000000000               0.000465184               0.000963866               0.000410410               0.000053960               0.000303299               0.000357259               0.000000000               0.000000000               0.000000000               0.000000000               0.000427653               0.001144651               0.000371145               0.000017288               0.000375784               0.000393072               0.000000000               0.000000000               0.000000000               0.000000000               0.000394319               0.001289958               0.000325538              -0.000013375               0.000434440               0.000421065               0.000000000               0.000000000               0.000000000               0.000000000               0.000368004               0.001412691               0.000279741              -0.000038585               0.000483754               0.000445169               0.000000000               0.000000000               0.000000000               0.000000000               0.000343209               0.001516652               0.000239350              -0.000060878               0.000525838               0.000464960               0.000000000               0.000000000               0.000000000               0.000000000               0.000322094               0.001610040               0.000207183              -0.000080470               0.000563498               0.000483028               0.000000000               0.000000000               0.000000000               0.000000000               0.000300906               0.001695701               0.000179162              -0.000099123               0.000598269               0.000499146               0.000000000               0.000000000               0.000000000               0.000000000               0.000283053               0.001782659               0.000155069              -0.000116687               0.000633109               0.000516422               0.000000000               0.000000000               0.000000000               0.000000000               0.000272211               0.001879128               0.000134673              -0.000132812               0.000670640               0.000537829               0.000000000               0.000000000               0.000000000               0.000000000               0.000270703               0.001985835               0.000114935              -0.000146716               0.000710844               0.000564128               0.000000000               0.000000000               0.000000000               0.000000000               0.000278531               0.002108347               0.000094222              -0.000159094               0.000755807               0.000596713               0.000000000               0.000000000               0.000000000               0.000000000               0.000288270               0.002234895               0.000069158              -0.000171260               0.000802044               0.000630784               0.000000000               0.000000000               0.000000000               0.000000000               0.000296208               0.002352567               0.000037460              -0.000182992               0.000845178               0.000662186               0.000000000               0.000000000               0.000000000               0.000000000               0.000290142               0.002403242               0.000017343              -0.000191601               0.000864940               0.000673338               0.000000000               0.000000000               0.000000000               0.000000000               0.000331352               0.000150233               0.000171650               0.000105477               0.000014918               0.000120395               0.000000000               0.000000000               0.000000000               0.000000000               0.000476724               0.000323072               0.000247624               0.000138386               0.000061561               0.000199947               0.000000000               0.000000000               0.000000000               0.000000000               0.000536544               0.000572256               0.000308341               0.000129671               0.000147526               0.000277197               0.000000000               0.000000000               0.000000000               0.000000000               0.000524555               0.000798604               0.000306502               0.000096882               0.000233905               0.000330786               0.000000000               0.000000000               0.000000000               0.000000000               0.000490175               0.000994945               0.000282124               0.000059447               0.000311829               0.000371276               0.000000000               0.000000000               0.000000000               0.000000000               0.000453259               0.001157405               0.000251185               0.000025296               0.000377366               0.000402662               0.000000000               0.000000000               0.000000000               0.000000000               0.000418739               0.001289657               0.000218059              -0.000004180               0.000431275               0.000427095               0.000000000               0.000000000               0.000000000               0.000000000               0.000390359               0.001403126               0.000189633              -0.000029006               0.000477373               0.000448367               0.000000000               0.000000000               0.000000000               0.000000000               0.000365715               0.001504988               0.000166726              -0.000050980               0.000518651               0.000467671               0.000000000               0.000000000               0.000000000               0.000000000               0.000346771               0.001606957               0.000144454              -0.000070830               0.000559257               0.000488427               0.000000000               0.000000000               0.000000000               0.000000000               0.000331362               0.001717340               0.000125570              -0.000090407               0.000602577               0.000512170               0.000000000               0.000000000               0.000000000               0.000000000               0.000321507               0.001832320               0.000113021              -0.000108474               0.000646925               0.000538451               0.000000000               0.000000000               0.000000000               0.000000000               0.000321442               0.001954516               0.000103424              -0.000123773               0.000692757               0.000568983               0.000000000               0.000000000               0.000000000               0.000000000               0.000332597               0.002090877               0.000088790              -0.000136635               0.000742497               0.000605862               0.000000000               0.000000000               0.000000000               0.000000000               0.000349507               0.002233687               0.000066955              -0.000148145               0.000793937               0.000645791               0.000000000               0.000000000               0.000000000               0.000000000               0.000364429               0.002360204               0.000038536              -0.000158364               0.000839515               0.000681151               0.000000000               0.000000000               0.000000000               0.000000000               0.000367459               0.002412909               0.000021152              -0.000163816               0.000858900               0.000695084               0.000000000               0.000000000               0.000000000               0.000000000               0.000265280               0.000087785               0.000080531               0.000088506              -0.000000241               0.000088265               0.000000000               0.000000000               0.000000000               0.000000000               0.000459233               0.000239049               0.000124819               0.000142330               0.000032239               0.000174569               0.000000000               0.000000000               0.000000000               0.000000000               0.000562425               0.000463924               0.000161908               0.000152917               0.000103667               0.000256584               0.000000000               0.000000000               0.000000000               0.000000000               0.000565446               0.000686388               0.000164064               0.000126242               0.000186713               0.000312955               0.000000000               0.000000000               0.000000000               0.000000000               0.000535704               0.000889623               0.000153273               0.000089685               0.000266643               0.000356328               0.000000000               0.000000000               0.000000000               0.000000000               0.000496158               0.001061915               0.000137085               0.000053319               0.000336195               0.000389514               0.000000000               0.000000000               0.000000000               0.000000000               0.000457601               0.001202679               0.000119999               0.000021265               0.000393801               0.000415066               0.000000000               0.000000000               0.000000000               0.000000000               0.000425109               0.001322223               0.000105737              -0.000005862               0.000442691               0.000436829               0.000000000               0.000000000               0.000000000               0.000000000               0.000396162               0.001429991               0.000094334              -0.000030188               0.000486722               0.000456534               0.000000000               0.000000000               0.000000000               0.000000000               0.000375349               0.001542123               0.000081882              -0.000052009               0.000531372               0.000479363               0.000000000               0.000000000               0.000000000               0.000000000               0.000365073               0.001665923               0.000070149              -0.000071338               0.000579082               0.000507744               0.000000000               0.000000000               0.000000000               0.000000000               0.000362923               0.001800001               0.000064777              -0.000088904               0.000629629               0.000540725               0.000000000               0.000000000               0.000000000               0.000000000               0.000366724               0.001942146               0.000062482              -0.000105247               0.000682458               0.000577211               0.000000000               0.000000000               0.000000000               0.000000000               0.000374893               0.002082147               0.000056903              -0.000119683               0.000733937               0.000614253               0.000000000               0.000000000               0.000000000               0.000000000               0.000392276               0.002220559               0.000042949              -0.000130466               0.000783668               0.000653201               0.000000000               0.000000000               0.000000000               0.000000000               0.000417575               0.002349500               0.000022854              -0.000137096               0.000828858               0.000691761               0.000000000               0.000000000               0.000000000               0.000000000               0.000432465               0.002407616               0.000012184              -0.000138777               0.000848790               0.000710012               0.000000000               0.000000000               0.000000000               0.000000000               0.000000000               0.000000000               0.000000000               0.000000000               0.000000000               0.000000000               0.000000000               0.000000000               0.000000000               0.000000000               0.000000000               0.000000000               0.000000000               0.000000000               0.000000000               0.000000000               0.000000000               0.000000000               0.000000000               0.000000000               0.000000000               0.000000000               0.000000000               0.000000000               0.000000000               0.000000000               0.000000000               0.000000000               0.000000000               0.000000000               0.000000000               0.000000000               0.000000000               0.000000000               0.000000000               0.000000000               0.000000000               0.000000000               0.000000000               0.000000000               0.000000000               0.000000000               0.000000000               0.000000000               0.000000000               0.000000000               0.000000000               0.000000000               0.000000000               0.000000000               0.000000000               0.000000000               0.000000000               0.000000000               0.000000000               0.000000000               0.000000000               0.000000000               0.000000000               0.000000000               0.000000000               0.000000000               0.000000000               0.000000000               0.000000000               0.000000000               0.000000000               0.000000000               0.000000000               0.000000000               0.000000000               0.000000000               0.000000000               0.000000000               0.000000000               0.000000000               0.000000000               0.000000000               0.000000000               0.000000000               0.000000000               0.000000000               0.000000000               0.000000000               0.000000000               0.000000000               0.000000000               0.000000000               0.000000000               0.000000000               0.000000000               0.000000000               0.000000000               0.000000000               0.000000000               0.000000000               0.000000000               0.000000000               0.000000000               0.000000000               0.000000000               0.000000000               0.000000000               0.000000000               0.000000000               0.000000000               0.000000000               0.000000000               0.000000000               0.000000000               0.000000000               0.000000000               0.000000000               0.000000000               0.000000000               0.000000000               0.000000000               0.000000000               0.000000000               0.000000000               0.000000000               0.000000000               0.000000000               0.000000000               0.000000000               0.000000000               0.000000000               0.000000000               0.000000000               0.000000000               0.000000000               0.000000000               0.000000000               0.000000000               0.000000000               0.000000000               0.000000000               0.000000000               0.000000000               0.000000000               0.000000000               0.000000000               0.000000000               0.000000000               0.000000000               0.000000000               0.000000000               0.000000000               0.000000000               0.000000000               0.000000000               0.000000000               0.000000000               0.000000000               0.000000000               0.000000000               0.000000000               0.000000000               0.000000000               0.000000000               0.000000000               0.000000000               0.000000000               0.000000000               0.000000000               0.000000000               0.000000000               0.000000000               0.000000000               0.000000000 </DataArray>
</PointData>
</Piece>
</UnstructuredGrid> </VTKFile>
