<?xml version="1.0"?>
<VTKFile type="UnstructuredGrid" version="0.1">
<UnstructuredGrid>
<Piece NumberOfPoints="      1156" NumberOfCells="      1024">
<Points>
<DataArray type="Float64"                                    Name="coordinates"                                                      NumberOfComponents=" 3" format="ascii">
              0.133000000               0.000000000               0.000000000               0.155937500               0.000000000               0.000000000               0.178875000               0.000000000               0.000000000               0.201812500               0.000000000               0.000000000               0.224750000               0.000000000               0.000000000               0.247687500               0.000000000               0.000000000               0.270625000               0.000000000               0.000000000               0.293562500               0.000000000               0.000000000               0.316500000               0.000000000               0.000000000               0.339437500               0.000000000               0.000000000               0.362375000               0.000000000               0.000000000               0.385312500               0.000000000               0.000000000               0.408250000               0.000000000               0.000000000               0.431187500               0.000000000               0.000000000               0.454125000               0.000000000               0.000000000               0.477062500               0.000000000               0.000000000               0.500000000               0.000000000               0.000000000               0.132359569               0.013036280               0.000000000               0.155337096               0.016127762               0.000000000               0.178314623               0.019219245               0.000000000               0.201292150               0.022310727               0.000000000               0.224269676               0.025402210               0.000000000               0.247247203               0.028493692               0.000000000               0.270224730               0.031585175               0.000000000               0.293202257               0.034676657               0.000000000               0.316179784               0.037768140               0.000000000               0.339157311               0.040859622               0.000000000               0.362134838               0.043951105               0.000000000               0.385112365               0.047042587               0.000000000               0.408089892               0.050134070               0.000000000               0.431067419               0.053225552               0.000000000               0.454044946               0.056317035               0.000000000               0.477022473               0.059408517               0.000000000               0.500000000               0.062500000               0.000000000               0.130444442               0.025947013               0.000000000               0.153541665               0.032137825               0.000000000               0.176638887               0.038328636               0.000000000               0.199736109               0.044519448               0.000000000               0.222833332               0.050710260               0.000000000               0.245930554               0.056901071               0.000000000               0.269027776               0.063091883               0.000000000               0.292124999               0.069282695               0.000000000               0.315222221               0.075473506               0.000000000               0.338319444               0.081664318               0.000000000               0.361416666               0.087855130               0.000000000               0.384513888               0.094045942               0.000000000               0.407611111               0.100236753               0.000000000               0.430708333               0.106427565               0.000000000               0.453805555               0.112618377               0.000000000               0.476902778               0.118809188               0.000000000               0.500000000               0.125000000               0.000000000               0.127273065               0.038607862               0.000000000               0.150568498               0.047913621               0.000000000               0.173863932               0.057219379               0.000000000               0.197159365               0.066525138               0.000000000               0.220454798               0.075830897               0.000000000               0.243750232               0.085136655               0.000000000               0.267045665               0.094442414               0.000000000               0.290341099               0.103748172               0.000000000               0.313636532               0.113053931               0.000000000               0.336931966               0.122359690               0.000000000               0.360227399               0.131665448               0.000000000               0.383522833               0.140971207               0.000000000               0.406818266               0.150276966               0.000000000               0.430113700               0.159582724               0.000000000               0.453409133               0.168888483               0.000000000               0.476704567               0.178194241               0.000000000               0.500000000               0.187500000               0.000000000               0.122875978               0.050896897               0.000000000               0.146446229               0.063340840               0.000000000               0.170016481               0.075784784               0.000000000               0.193586732               0.088228728               0.000000000               0.217156983               0.100672672               0.000000000               0.240727235               0.113116616               0.000000000               0.264297486               0.125560560               0.000000000               0.287867738               0.138004504               0.000000000               0.311437989               0.150448448               0.000000000               0.335008240               0.162892392               0.000000000               0.358578492               0.175336336               0.000000000               0.382148743               0.187780280               0.000000000               0.405718994               0.200224224               0.000000000               0.429289246               0.212668168               0.000000000               0.452859497               0.225112112               0.000000000               0.476429749               0.237556056               0.000000000               0.500000000               0.250000000               0.000000000               0.117295528               0.062695766               0.000000000               0.141214558               0.078308531               0.000000000               0.165133587               0.093921295               0.000000000               0.189052617               0.109534060               0.000000000               0.212971646               0.125146824               0.000000000               0.236890676               0.140759589               0.000000000               0.260809705               0.156372354               0.000000000               0.284728735               0.171985118               0.000000000               0.308647764               0.187597883               0.000000000               0.332566794               0.203210648               0.000000000               0.356485823               0.218823412               0.000000000               0.380404853               0.234436177               0.000000000               0.404323882               0.250048941               0.000000000               0.428242912               0.265661706               0.000000000               0.452161941               0.281274471               0.000000000               0.476080971               0.296887235               0.000000000               0.500000000               0.312500000               0.000000000               0.110585458               0.073890841               0.000000000               0.134923867               0.092710163               0.000000000               0.159262276               0.111529486               0.000000000               0.183600685               0.130348808               0.000000000               0.207939094               0.149168131               0.000000000               0.232277503               0.167987453               0.000000000               0.256615912               0.186806776               0.000000000               0.280954320               0.205626098               0.000000000               0.305292729               0.224445420               0.000000000               0.329631138               0.243264743               0.000000000               0.353969547               0.262084065               0.000000000               0.378307956               0.280903388               0.000000000               0.402646365               0.299722710               0.000000000               0.426984773               0.318542033               0.000000000               0.451323182               0.337361355               0.000000000               0.475661591               0.356180678               0.000000000               0.500000000               0.375000000               0.000000000               0.102810390               0.084374307               0.000000000               0.127634741               0.106444663               0.000000000               0.152459092               0.128515018               0.000000000               0.177283442               0.150585374               0.000000000               0.202107793               0.172655730               0.000000000               0.226932143               0.194726086               0.000000000               0.251756494               0.216796442               0.000000000               0.276580845               0.238866798               0.000000000               0.301405195               0.260937153               0.000000000               0.326229546               0.283007509               0.000000000               0.351053896               0.305077865               0.000000000               0.375878247               0.327148221               0.000000000               0.400702598               0.349218577               0.000000000               0.425526948               0.371288933               0.000000000               0.450351299               0.393359288               0.000000000               0.475175649               0.415429644               0.000000000               0.500000000               0.437500000               0.000000000               0.094045202               0.094045202               0.000000000               0.119417377               0.119417377               0.000000000               0.144789552               0.144789552               0.000000000               0.170161727               0.170161727               0.000000000               0.195533901               0.195533901               0.000000000               0.220906076               0.220906076               0.000000000               0.246278251               0.246278251               0.000000000               0.271650426               0.271650426               0.000000000               0.297022601               0.297022601               0.000000000               0.322394776               0.322394776               0.000000000               0.347766951               0.347766951               0.000000000               0.373139126               0.373139126               0.000000000               0.398511300               0.398511300               0.000000000               0.423883475               0.423883475               0.000000000               0.449255650               0.449255650               0.000000000               0.474627825               0.474627825               0.000000000               0.500000000               0.500000000               0.000000000               0.084374307               0.102810390               0.000000000               0.106444663               0.127634741               0.000000000               0.128515018               0.152459092               0.000000000               0.150585374               0.177283442               0.000000000               0.172655730               0.202107793               0.000000000               0.194726086               0.226932143               0.000000000               0.216796442               0.251756494               0.000000000               0.238866798               0.276580845               0.000000000               0.260937153               0.301405195               0.000000000               0.283007509               0.326229546               0.000000000               0.305077865               0.351053896               0.000000000               0.327148221               0.375878247               0.000000000               0.349218577               0.400702598               0.000000000               0.371288933               0.425526948               0.000000000               0.393359288               0.450351299               0.000000000               0.415429644               0.475175649               0.000000000               0.437500000               0.500000000               0.000000000               0.073890841               0.110585458               0.000000000               0.092710163               0.134923867               0.000000000               0.111529486               0.159262276               0.000000000               0.130348808               0.183600685               0.000000000               0.149168131               0.207939094               0.000000000               0.167987453               0.232277503               0.000000000               0.186806776               0.256615912               0.000000000               0.205626098               0.280954320               0.000000000               0.224445420               0.305292729               0.000000000               0.243264743               0.329631138               0.000000000               0.262084065               0.353969547               0.000000000               0.280903388               0.378307956               0.000000000               0.299722710               0.402646365               0.000000000               0.318542033               0.426984773               0.000000000               0.337361355               0.451323182               0.000000000               0.356180678               0.475661591               0.000000000               0.375000000               0.500000000               0.000000000               0.062695766               0.117295528               0.000000000               0.078308531               0.141214558               0.000000000               0.093921295               0.165133587               0.000000000               0.109534060               0.189052617               0.000000000               0.125146824               0.212971646               0.000000000               0.140759589               0.236890676               0.000000000               0.156372354               0.260809705               0.000000000               0.171985118               0.284728735               0.000000000               0.187597883               0.308647764               0.000000000               0.203210648               0.332566794               0.000000000               0.218823412               0.356485823               0.000000000               0.234436177               0.380404853               0.000000000               0.250048941               0.404323882               0.000000000               0.265661706               0.428242912               0.000000000               0.281274471               0.452161941               0.000000000               0.296887235               0.476080971               0.000000000               0.312500000               0.500000000               0.000000000               0.050896897               0.122875978               0.000000000               0.063340840               0.146446229               0.000000000               0.075784784               0.170016481               0.000000000               0.088228728               0.193586732               0.000000000               0.100672672               0.217156983               0.000000000               0.113116616               0.240727235               0.000000000               0.125560560               0.264297486               0.000000000               0.138004504               0.287867738               0.000000000               0.150448448               0.311437989               0.000000000               0.162892392               0.335008240               0.000000000               0.175336336               0.358578492               0.000000000               0.187780280               0.382148743               0.000000000               0.200224224               0.405718994               0.000000000               0.212668168               0.429289246               0.000000000               0.225112112               0.452859497               0.000000000               0.237556056               0.476429749               0.000000000               0.250000000               0.500000000               0.000000000               0.038607862               0.127273065               0.000000000               0.047913621               0.150568498               0.000000000               0.057219379               0.173863932               0.000000000               0.066525138               0.197159365               0.000000000               0.075830897               0.220454798               0.000000000               0.085136655               0.243750232               0.000000000               0.094442414               0.267045665               0.000000000               0.103748172               0.290341099               0.000000000               0.113053931               0.313636532               0.000000000               0.122359690               0.336931966               0.000000000               0.131665448               0.360227399               0.000000000               0.140971207               0.383522833               0.000000000               0.150276966               0.406818266               0.000000000               0.159582724               0.430113700               0.000000000               0.168888483               0.453409133               0.000000000               0.178194241               0.476704567               0.000000000               0.187500000               0.500000000               0.000000000               0.025947013               0.130444442               0.000000000               0.032137825               0.153541665               0.000000000               0.038328636               0.176638887               0.000000000               0.044519448               0.199736109               0.000000000               0.050710260               0.222833332               0.000000000               0.056901071               0.245930554               0.000000000               0.063091883               0.269027776               0.000000000               0.069282695               0.292124999               0.000000000               0.075473506               0.315222221               0.000000000               0.081664318               0.338319444               0.000000000               0.087855130               0.361416666               0.000000000               0.094045942               0.384513888               0.000000000               0.100236753               0.407611111               0.000000000               0.106427565               0.430708333               0.000000000               0.112618377               0.453805555               0.000000000               0.118809188               0.476902778               0.000000000               0.125000000               0.500000000               0.000000000               0.013036280               0.132359569               0.000000000               0.016127762               0.155337096               0.000000000               0.019219245               0.178314623               0.000000000               0.022310727               0.201292150               0.000000000               0.025402210               0.224269676               0.000000000               0.028493692               0.247247203               0.000000000               0.031585175               0.270224730               0.000000000               0.034676657               0.293202257               0.000000000               0.037768140               0.316179784               0.000000000               0.040859622               0.339157311               0.000000000               0.043951105               0.362134838               0.000000000               0.047042587               0.385112365               0.000000000               0.050134070               0.408089892               0.000000000               0.053225552               0.431067419               0.000000000               0.056317035               0.454044946               0.000000000               0.059408517               0.477022473               0.000000000               0.062500000               0.500000000               0.000000000               0.000000000               0.133000000               0.000000000               0.000000000               0.155937500               0.000000000               0.000000000               0.178875000               0.000000000               0.000000000               0.201812500               0.000000000               0.000000000               0.224750000               0.000000000               0.000000000               0.247687500               0.000000000               0.000000000               0.270625000               0.000000000               0.000000000               0.293562500               0.000000000               0.000000000               0.316500000               0.000000000               0.000000000               0.339437500               0.000000000               0.000000000               0.362375000               0.000000000               0.000000000               0.385312500               0.000000000               0.000000000               0.408250000               0.000000000               0.000000000               0.431187500               0.000000000               0.000000000               0.454125000               0.000000000               0.000000000               0.477062500               0.000000000               0.000000000               0.500000000               0.000000000               0.133000000               0.000000000               0.000000000               0.155937500               0.000000000               0.000000000               0.178875000               0.000000000               0.000000000               0.201812500               0.000000000               0.000000000               0.224750000               0.000000000               0.000000000               0.247687500               0.000000000               0.000000000               0.270625000               0.000000000               0.000000000               0.293562500               0.000000000               0.000000000               0.316500000               0.000000000               0.000000000               0.339437500               0.000000000               0.000000000               0.362375000               0.000000000               0.000000000               0.385312500               0.000000000               0.000000000               0.408250000               0.000000000               0.000000000               0.431187500               0.000000000               0.000000000               0.454125000               0.000000000               0.000000000               0.477062500               0.000000000               0.000000000               0.500000000               0.000000000               0.000000000               0.132359569              -0.013036280               0.000000000               0.155337096              -0.016127762               0.000000000               0.178314623              -0.019219245               0.000000000               0.201292150              -0.022310727               0.000000000               0.224269676              -0.025402210               0.000000000               0.247247203              -0.028493692               0.000000000               0.270224730              -0.031585175               0.000000000               0.293202257              -0.034676657               0.000000000               0.316179784              -0.037768140               0.000000000               0.339157311              -0.040859622               0.000000000               0.362134838              -0.043951105               0.000000000               0.385112365              -0.047042587               0.000000000               0.408089892              -0.050134070               0.000000000               0.431067419              -0.053225552               0.000000000               0.454044946              -0.056317035               0.000000000               0.477022473              -0.059408517               0.000000000               0.500000000              -0.062500000               0.000000000               0.130444442              -0.025947013               0.000000000               0.153541665              -0.032137825               0.000000000               0.176638887              -0.038328636               0.000000000               0.199736109              -0.044519448               0.000000000               0.222833332              -0.050710260               0.000000000               0.245930554              -0.056901071               0.000000000               0.269027776              -0.063091883               0.000000000               0.292124999              -0.069282695               0.000000000               0.315222221              -0.075473506               0.000000000               0.338319444              -0.081664318               0.000000000               0.361416666              -0.087855130               0.000000000               0.384513888              -0.094045942               0.000000000               0.407611111              -0.100236753               0.000000000               0.430708333              -0.106427565               0.000000000               0.453805555              -0.112618377               0.000000000               0.476902778              -0.118809188               0.000000000               0.500000000              -0.125000000               0.000000000               0.127273065              -0.038607862               0.000000000               0.150568498              -0.047913621               0.000000000               0.173863932              -0.057219379               0.000000000               0.197159365              -0.066525138               0.000000000               0.220454798              -0.075830897               0.000000000               0.243750232              -0.085136655               0.000000000               0.267045665              -0.094442414               0.000000000               0.290341099              -0.103748172               0.000000000               0.313636532              -0.113053931               0.000000000               0.336931966              -0.122359690               0.000000000               0.360227399              -0.131665448               0.000000000               0.383522833              -0.140971207               0.000000000               0.406818266              -0.150276966               0.000000000               0.430113700              -0.159582724               0.000000000               0.453409133              -0.168888483               0.000000000               0.476704567              -0.178194241               0.000000000               0.500000000              -0.187500000               0.000000000               0.122875978              -0.050896897               0.000000000               0.146446229              -0.063340840               0.000000000               0.170016481              -0.075784784               0.000000000               0.193586732              -0.088228728               0.000000000               0.217156983              -0.100672672               0.000000000               0.240727235              -0.113116616               0.000000000               0.264297486              -0.125560560               0.000000000               0.287867738              -0.138004504               0.000000000               0.311437989              -0.150448448               0.000000000               0.335008240              -0.162892392               0.000000000               0.358578492              -0.175336336               0.000000000               0.382148743              -0.187780280               0.000000000               0.405718994              -0.200224224               0.000000000               0.429289246              -0.212668168               0.000000000               0.452859497              -0.225112112               0.000000000               0.476429749              -0.237556056               0.000000000               0.500000000              -0.250000000               0.000000000               0.117295528              -0.062695766               0.000000000               0.141214558              -0.078308531               0.000000000               0.165133587              -0.093921295               0.000000000               0.189052617              -0.109534060               0.000000000               0.212971646              -0.125146824               0.000000000               0.236890676              -0.140759589               0.000000000               0.260809705              -0.156372354               0.000000000               0.284728735              -0.171985118               0.000000000               0.308647764              -0.187597883               0.000000000               0.332566794              -0.203210648               0.000000000               0.356485823              -0.218823412               0.000000000               0.380404853              -0.234436177               0.000000000               0.404323882              -0.250048941               0.000000000               0.428242912              -0.265661706               0.000000000               0.452161941              -0.281274471               0.000000000               0.476080971              -0.296887235               0.000000000               0.500000000              -0.312500000               0.000000000               0.110585458              -0.073890841               0.000000000               0.134923867              -0.092710163               0.000000000               0.159262276              -0.111529486               0.000000000               0.183600685              -0.130348808               0.000000000               0.207939094              -0.149168131               0.000000000               0.232277503              -0.167987453               0.000000000               0.256615912              -0.186806776               0.000000000               0.280954320              -0.205626098               0.000000000               0.305292729              -0.224445420               0.000000000               0.329631138              -0.243264743               0.000000000               0.353969547              -0.262084065               0.000000000               0.378307956              -0.280903388               0.000000000               0.402646365              -0.299722710               0.000000000               0.426984773              -0.318542033               0.000000000               0.451323182              -0.337361355               0.000000000               0.475661591              -0.356180678               0.000000000               0.500000000              -0.375000000               0.000000000               0.102810390              -0.084374307               0.000000000               0.127634741              -0.106444663               0.000000000               0.152459092              -0.128515018               0.000000000               0.177283442              -0.150585374               0.000000000               0.202107793              -0.172655730               0.000000000               0.226932143              -0.194726086               0.000000000               0.251756494              -0.216796442               0.000000000               0.276580845              -0.238866798               0.000000000               0.301405195              -0.260937153               0.000000000               0.326229546              -0.283007509               0.000000000               0.351053896              -0.305077865               0.000000000               0.375878247              -0.327148221               0.000000000               0.400702598              -0.349218577               0.000000000               0.425526948              -0.371288933               0.000000000               0.450351299              -0.393359288               0.000000000               0.475175649              -0.415429644               0.000000000               0.500000000              -0.437500000               0.000000000               0.094045202              -0.094045202               0.000000000               0.119417377              -0.119417377               0.000000000               0.144789552              -0.144789552               0.000000000               0.170161727              -0.170161727               0.000000000               0.195533901              -0.195533901               0.000000000               0.220906076              -0.220906076               0.000000000               0.246278251              -0.246278251               0.000000000               0.271650426              -0.271650426               0.000000000               0.297022601              -0.297022601               0.000000000               0.322394776              -0.322394776               0.000000000               0.347766951              -0.347766951               0.000000000               0.373139126              -0.373139126               0.000000000               0.398511300              -0.398511300               0.000000000               0.423883475              -0.423883475               0.000000000               0.449255650              -0.449255650               0.000000000               0.474627825              -0.474627825               0.000000000               0.500000000              -0.500000000               0.000000000               0.084374307              -0.102810390               0.000000000               0.106444663              -0.127634741               0.000000000               0.128515018              -0.152459092               0.000000000               0.150585374              -0.177283442               0.000000000               0.172655730              -0.202107793               0.000000000               0.194726086              -0.226932143               0.000000000               0.216796442              -0.251756494               0.000000000               0.238866798              -0.276580845               0.000000000               0.260937153              -0.301405195               0.000000000               0.283007509              -0.326229546               0.000000000               0.305077865              -0.351053896               0.000000000               0.327148221              -0.375878247               0.000000000               0.349218577              -0.400702598               0.000000000               0.371288933              -0.425526948               0.000000000               0.393359288              -0.450351299               0.000000000               0.415429644              -0.475175649               0.000000000               0.437500000              -0.500000000               0.000000000               0.073890841              -0.110585458               0.000000000               0.092710163              -0.134923867               0.000000000               0.111529486              -0.159262276               0.000000000               0.130348808              -0.183600685               0.000000000               0.149168131              -0.207939094               0.000000000               0.167987453              -0.232277503               0.000000000               0.186806776              -0.256615912               0.000000000               0.205626098              -0.280954320               0.000000000               0.224445420              -0.305292729               0.000000000               0.243264743              -0.329631138               0.000000000               0.262084065              -0.353969547               0.000000000               0.280903388              -0.378307956               0.000000000               0.299722710              -0.402646365               0.000000000               0.318542033              -0.426984773               0.000000000               0.337361355              -0.451323182               0.000000000               0.356180678              -0.475661591               0.000000000               0.375000000              -0.500000000               0.000000000               0.062695766              -0.117295528               0.000000000               0.078308531              -0.141214558               0.000000000               0.093921295              -0.165133587               0.000000000               0.109534060              -0.189052617               0.000000000               0.125146824              -0.212971646               0.000000000               0.140759589              -0.236890676               0.000000000               0.156372354              -0.260809705               0.000000000               0.171985118              -0.284728735               0.000000000               0.187597883              -0.308647764               0.000000000               0.203210648              -0.332566794               0.000000000               0.218823412              -0.356485823               0.000000000               0.234436177              -0.380404853               0.000000000               0.250048941              -0.404323882               0.000000000               0.265661706              -0.428242912               0.000000000               0.281274471              -0.452161941               0.000000000               0.296887235              -0.476080971               0.000000000               0.312500000              -0.500000000               0.000000000               0.050896897              -0.122875978               0.000000000               0.063340840              -0.146446229               0.000000000               0.075784784              -0.170016481               0.000000000               0.088228728              -0.193586732               0.000000000               0.100672672              -0.217156983               0.000000000               0.113116616              -0.240727235               0.000000000               0.125560560              -0.264297486               0.000000000               0.138004504              -0.287867738               0.000000000               0.150448448              -0.311437989               0.000000000               0.162892392              -0.335008240               0.000000000               0.175336336              -0.358578492               0.000000000               0.187780280              -0.382148743               0.000000000               0.200224224              -0.405718994               0.000000000               0.212668168              -0.429289246               0.000000000               0.225112112              -0.452859497               0.000000000               0.237556056              -0.476429749               0.000000000               0.250000000              -0.500000000               0.000000000               0.038607862              -0.127273065               0.000000000               0.047913621              -0.150568498               0.000000000               0.057219379              -0.173863932               0.000000000               0.066525138              -0.197159365               0.000000000               0.075830897              -0.220454798               0.000000000               0.085136655              -0.243750232               0.000000000               0.094442414              -0.267045665               0.000000000               0.103748172              -0.290341099               0.000000000               0.113053931              -0.313636532               0.000000000               0.122359690              -0.336931966               0.000000000               0.131665448              -0.360227399               0.000000000               0.140971207              -0.383522833               0.000000000               0.150276966              -0.406818266               0.000000000               0.159582724              -0.430113700               0.000000000               0.168888483              -0.453409133               0.000000000               0.178194241              -0.476704567               0.000000000               0.187500000              -0.500000000               0.000000000               0.025947013              -0.130444442               0.000000000               0.032137825              -0.153541665               0.000000000               0.038328636              -0.176638887               0.000000000               0.044519448              -0.199736109               0.000000000               0.050710260              -0.222833332               0.000000000               0.056901071              -0.245930554               0.000000000               0.063091883              -0.269027776               0.000000000               0.069282695              -0.292124999               0.000000000               0.075473506              -0.315222221               0.000000000               0.081664318              -0.338319444               0.000000000               0.087855130              -0.361416666               0.000000000               0.094045942              -0.384513888               0.000000000               0.100236753              -0.407611111               0.000000000               0.106427565              -0.430708333               0.000000000               0.112618377              -0.453805555               0.000000000               0.118809188              -0.476902778               0.000000000               0.125000000              -0.500000000               0.000000000               0.013036280              -0.132359569               0.000000000               0.016127762              -0.155337096               0.000000000               0.019219245              -0.178314623               0.000000000               0.022310727              -0.201292150               0.000000000               0.025402210              -0.224269676               0.000000000               0.028493692              -0.247247203               0.000000000               0.031585175              -0.270224730               0.000000000               0.034676657              -0.293202257               0.000000000               0.037768140              -0.316179784               0.000000000               0.040859622              -0.339157311               0.000000000               0.043951105              -0.362134838               0.000000000               0.047042587              -0.385112365               0.000000000               0.050134070              -0.408089892               0.000000000               0.053225552              -0.431067419               0.000000000               0.056317035              -0.454044946               0.000000000               0.059408517              -0.477022473               0.000000000               0.062500000              -0.500000000               0.000000000               0.000000000              -0.133000000               0.000000000               0.000000000              -0.155937500               0.000000000               0.000000000              -0.178875000               0.000000000               0.000000000              -0.201812500               0.000000000               0.000000000              -0.224750000               0.000000000               0.000000000              -0.247687500               0.000000000               0.000000000              -0.270625000               0.000000000               0.000000000              -0.293562500               0.000000000               0.000000000              -0.316500000               0.000000000               0.000000000              -0.339437500               0.000000000               0.000000000              -0.362375000               0.000000000               0.000000000              -0.385312500               0.000000000               0.000000000              -0.408250000               0.000000000               0.000000000              -0.431187500               0.000000000               0.000000000              -0.454125000               0.000000000               0.000000000              -0.477062500               0.000000000               0.000000000              -0.500000000               0.000000000              -0.133000000               0.000000000               0.000000000              -0.155937500               0.000000000               0.000000000              -0.178875000               0.000000000               0.000000000              -0.201812500               0.000000000               0.000000000              -0.224750000               0.000000000               0.000000000              -0.247687500               0.000000000               0.000000000              -0.270625000               0.000000000               0.000000000              -0.293562500               0.000000000               0.000000000              -0.316500000               0.000000000               0.000000000              -0.339437500               0.000000000               0.000000000              -0.362375000               0.000000000               0.000000000              -0.385312500               0.000000000               0.000000000              -0.408250000               0.000000000               0.000000000              -0.431187500               0.000000000               0.000000000              -0.454125000               0.000000000               0.000000000              -0.477062500               0.000000000               0.000000000              -0.500000000               0.000000000               0.000000000              -0.132359569              -0.013036280               0.000000000              -0.155337096              -0.016127762               0.000000000              -0.178314623              -0.019219245               0.000000000              -0.201292150              -0.022310727               0.000000000              -0.224269676              -0.025402210               0.000000000              -0.247247203              -0.028493692               0.000000000              -0.270224730              -0.031585175               0.000000000              -0.293202257              -0.034676657               0.000000000              -0.316179784              -0.037768140               0.000000000              -0.339157311              -0.040859622               0.000000000              -0.362134838              -0.043951105               0.000000000              -0.385112365              -0.047042587               0.000000000              -0.408089892              -0.050134070               0.000000000              -0.431067419              -0.053225552               0.000000000              -0.454044946              -0.056317035               0.000000000              -0.477022473              -0.059408517               0.000000000              -0.500000000              -0.062500000               0.000000000              -0.130444442              -0.025947013               0.000000000              -0.153541665              -0.032137825               0.000000000              -0.176638887              -0.038328636               0.000000000              -0.199736109              -0.044519448               0.000000000              -0.222833332              -0.050710260               0.000000000              -0.245930554              -0.056901071               0.000000000              -0.269027776              -0.063091883               0.000000000              -0.292124999              -0.069282695               0.000000000              -0.315222221              -0.075473506               0.000000000              -0.338319444              -0.081664318               0.000000000              -0.361416666              -0.087855130               0.000000000              -0.384513888              -0.094045942               0.000000000              -0.407611111              -0.100236753               0.000000000              -0.430708333              -0.106427565               0.000000000              -0.453805555              -0.112618377               0.000000000              -0.476902778              -0.118809188               0.000000000              -0.500000000              -0.125000000               0.000000000              -0.127273065              -0.038607862               0.000000000              -0.150568498              -0.047913621               0.000000000              -0.173863932              -0.057219379               0.000000000              -0.197159365              -0.066525138               0.000000000              -0.220454798              -0.075830897               0.000000000              -0.243750232              -0.085136655               0.000000000              -0.267045665              -0.094442414               0.000000000              -0.290341099              -0.103748172               0.000000000              -0.313636532              -0.113053931               0.000000000              -0.336931966              -0.122359690               0.000000000              -0.360227399              -0.131665448               0.000000000              -0.383522833              -0.140971207               0.000000000              -0.406818266              -0.150276966               0.000000000              -0.430113700              -0.159582724               0.000000000              -0.453409133              -0.168888483               0.000000000              -0.476704567              -0.178194241               0.000000000              -0.500000000              -0.187500000               0.000000000              -0.122875978              -0.050896897               0.000000000              -0.146446229              -0.063340840               0.000000000              -0.170016481              -0.075784784               0.000000000              -0.193586732              -0.088228728               0.000000000              -0.217156983              -0.100672672               0.000000000              -0.240727235              -0.113116616               0.000000000              -0.264297486              -0.125560560               0.000000000              -0.287867738              -0.138004504               0.000000000              -0.311437989              -0.150448448               0.000000000              -0.335008240              -0.162892392               0.000000000              -0.358578492              -0.175336336               0.000000000              -0.382148743              -0.187780280               0.000000000              -0.405718994              -0.200224224               0.000000000              -0.429289246              -0.212668168               0.000000000              -0.452859497              -0.225112112               0.000000000              -0.476429749              -0.237556056               0.000000000              -0.500000000              -0.250000000               0.000000000              -0.117295528              -0.062695766               0.000000000              -0.141214558              -0.078308531               0.000000000              -0.165133587              -0.093921295               0.000000000              -0.189052617              -0.109534060               0.000000000              -0.212971646              -0.125146824               0.000000000              -0.236890676              -0.140759589               0.000000000              -0.260809705              -0.156372354               0.000000000              -0.284728735              -0.171985118               0.000000000              -0.308647764              -0.187597883               0.000000000              -0.332566794              -0.203210648               0.000000000              -0.356485823              -0.218823412               0.000000000              -0.380404853              -0.234436177               0.000000000              -0.404323882              -0.250048941               0.000000000              -0.428242912              -0.265661706               0.000000000              -0.452161941              -0.281274471               0.000000000              -0.476080971              -0.296887235               0.000000000              -0.500000000              -0.312500000               0.000000000              -0.110585458              -0.073890841               0.000000000              -0.134923867              -0.092710163               0.000000000              -0.159262276              -0.111529486               0.000000000              -0.183600685              -0.130348808               0.000000000              -0.207939094              -0.149168131               0.000000000              -0.232277503              -0.167987453               0.000000000              -0.256615912              -0.186806776               0.000000000              -0.280954320              -0.205626098               0.000000000              -0.305292729              -0.224445420               0.000000000              -0.329631138              -0.243264743               0.000000000              -0.353969547              -0.262084065               0.000000000              -0.378307956              -0.280903388               0.000000000              -0.402646365              -0.299722710               0.000000000              -0.426984773              -0.318542033               0.000000000              -0.451323182              -0.337361355               0.000000000              -0.475661591              -0.356180678               0.000000000              -0.500000000              -0.375000000               0.000000000              -0.102810390              -0.084374307               0.000000000              -0.127634741              -0.106444663               0.000000000              -0.152459092              -0.128515018               0.000000000              -0.177283442              -0.150585374               0.000000000              -0.202107793              -0.172655730               0.000000000              -0.226932143              -0.194726086               0.000000000              -0.251756494              -0.216796442               0.000000000              -0.276580845              -0.238866798               0.000000000              -0.301405195              -0.260937153               0.000000000              -0.326229546              -0.283007509               0.000000000              -0.351053896              -0.305077865               0.000000000              -0.375878247              -0.327148221               0.000000000              -0.400702598              -0.349218577               0.000000000              -0.425526948              -0.371288933               0.000000000              -0.450351299              -0.393359288               0.000000000              -0.475175649              -0.415429644               0.000000000              -0.500000000              -0.437500000               0.000000000              -0.094045202              -0.094045202               0.000000000              -0.119417377              -0.119417377               0.000000000              -0.144789552              -0.144789552               0.000000000              -0.170161727              -0.170161727               0.000000000              -0.195533901              -0.195533901               0.000000000              -0.220906076              -0.220906076               0.000000000              -0.246278251              -0.246278251               0.000000000              -0.271650426              -0.271650426               0.000000000              -0.297022601              -0.297022601               0.000000000              -0.322394776              -0.322394776               0.000000000              -0.347766951              -0.347766951               0.000000000              -0.373139126              -0.373139126               0.000000000              -0.398511300              -0.398511300               0.000000000              -0.423883475              -0.423883475               0.000000000              -0.449255650              -0.449255650               0.000000000              -0.474627825              -0.474627825               0.000000000              -0.500000000              -0.500000000               0.000000000              -0.084374307              -0.102810390               0.000000000              -0.106444663              -0.127634741               0.000000000              -0.128515018              -0.152459092               0.000000000              -0.150585374              -0.177283442               0.000000000              -0.172655730              -0.202107793               0.000000000              -0.194726086              -0.226932143               0.000000000              -0.216796442              -0.251756494               0.000000000              -0.238866798              -0.276580845               0.000000000              -0.260937153              -0.301405195               0.000000000              -0.283007509              -0.326229546               0.000000000              -0.305077865              -0.351053896               0.000000000              -0.327148221              -0.375878247               0.000000000              -0.349218577              -0.400702598               0.000000000              -0.371288933              -0.425526948               0.000000000              -0.393359288              -0.450351299               0.000000000              -0.415429644              -0.475175649               0.000000000              -0.437500000              -0.500000000               0.000000000              -0.073890841              -0.110585458               0.000000000              -0.092710163              -0.134923867               0.000000000              -0.111529486              -0.159262276               0.000000000              -0.130348808              -0.183600685               0.000000000              -0.149168131              -0.207939094               0.000000000              -0.167987453              -0.232277503               0.000000000              -0.186806776              -0.256615912               0.000000000              -0.205626098              -0.280954320               0.000000000              -0.224445420              -0.305292729               0.000000000              -0.243264743              -0.329631138               0.000000000              -0.262084065              -0.353969547               0.000000000              -0.280903388              -0.378307956               0.000000000              -0.299722710              -0.402646365               0.000000000              -0.318542033              -0.426984773               0.000000000              -0.337361355              -0.451323182               0.000000000              -0.356180678              -0.475661591               0.000000000              -0.375000000              -0.500000000               0.000000000              -0.062695766              -0.117295528               0.000000000              -0.078308531              -0.141214558               0.000000000              -0.093921295              -0.165133587               0.000000000              -0.109534060              -0.189052617               0.000000000              -0.125146824              -0.212971646               0.000000000              -0.140759589              -0.236890676               0.000000000              -0.156372354              -0.260809705               0.000000000              -0.171985118              -0.284728735               0.000000000              -0.187597883              -0.308647764               0.000000000              -0.203210648              -0.332566794               0.000000000              -0.218823412              -0.356485823               0.000000000              -0.234436177              -0.380404853               0.000000000              -0.250048941              -0.404323882               0.000000000              -0.265661706              -0.428242912               0.000000000              -0.281274471              -0.452161941               0.000000000              -0.296887235              -0.476080971               0.000000000              -0.312500000              -0.500000000               0.000000000              -0.050896897              -0.122875978               0.000000000              -0.063340840              -0.146446229               0.000000000              -0.075784784              -0.170016481               0.000000000              -0.088228728              -0.193586732               0.000000000              -0.100672672              -0.217156983               0.000000000              -0.113116616              -0.240727235               0.000000000              -0.125560560              -0.264297486               0.000000000              -0.138004504              -0.287867738               0.000000000              -0.150448448              -0.311437989               0.000000000              -0.162892392              -0.335008240               0.000000000              -0.175336336              -0.358578492               0.000000000              -0.187780280              -0.382148743               0.000000000              -0.200224224              -0.405718994               0.000000000              -0.212668168              -0.429289246               0.000000000              -0.225112112              -0.452859497               0.000000000              -0.237556056              -0.476429749               0.000000000              -0.250000000              -0.500000000               0.000000000              -0.038607862              -0.127273065               0.000000000              -0.047913621              -0.150568498               0.000000000              -0.057219379              -0.173863932               0.000000000              -0.066525138              -0.197159365               0.000000000              -0.075830897              -0.220454798               0.000000000              -0.085136655              -0.243750232               0.000000000              -0.094442414              -0.267045665               0.000000000              -0.103748172              -0.290341099               0.000000000              -0.113053931              -0.313636532               0.000000000              -0.122359690              -0.336931966               0.000000000              -0.131665448              -0.360227399               0.000000000              -0.140971207              -0.383522833               0.000000000              -0.150276966              -0.406818266               0.000000000              -0.159582724              -0.430113700               0.000000000              -0.168888483              -0.453409133               0.000000000              -0.178194241              -0.476704567               0.000000000              -0.187500000              -0.500000000               0.000000000              -0.025947013              -0.130444442               0.000000000              -0.032137825              -0.153541665               0.000000000              -0.038328636              -0.176638887               0.000000000              -0.044519448              -0.199736109               0.000000000              -0.050710260              -0.222833332               0.000000000              -0.056901071              -0.245930554               0.000000000              -0.063091883              -0.269027776               0.000000000              -0.069282695              -0.292124999               0.000000000              -0.075473506              -0.315222221               0.000000000              -0.081664318              -0.338319444               0.000000000              -0.087855130              -0.361416666               0.000000000              -0.094045942              -0.384513888               0.000000000              -0.100236753              -0.407611111               0.000000000              -0.106427565              -0.430708333               0.000000000              -0.112618377              -0.453805555               0.000000000              -0.118809188              -0.476902778               0.000000000              -0.125000000              -0.500000000               0.000000000              -0.013036280              -0.132359569               0.000000000              -0.016127762              -0.155337096               0.000000000              -0.019219245              -0.178314623               0.000000000              -0.022310727              -0.201292150               0.000000000              -0.025402210              -0.224269676               0.000000000              -0.028493692              -0.247247203               0.000000000              -0.031585175              -0.270224730               0.000000000              -0.034676657              -0.293202257               0.000000000              -0.037768140              -0.316179784               0.000000000              -0.040859622              -0.339157311               0.000000000              -0.043951105              -0.362134838               0.000000000              -0.047042587              -0.385112365               0.000000000              -0.050134070              -0.408089892               0.000000000              -0.053225552              -0.431067419               0.000000000              -0.056317035              -0.454044946               0.000000000              -0.059408517              -0.477022473               0.000000000              -0.062500000              -0.500000000               0.000000000               0.000000000              -0.133000000               0.000000000               0.000000000              -0.155937500               0.000000000               0.000000000              -0.178875000               0.000000000               0.000000000              -0.201812500               0.000000000               0.000000000              -0.224750000               0.000000000               0.000000000              -0.247687500               0.000000000               0.000000000              -0.270625000               0.000000000               0.000000000              -0.293562500               0.000000000               0.000000000              -0.316500000               0.000000000               0.000000000              -0.339437500               0.000000000               0.000000000              -0.362375000               0.000000000               0.000000000              -0.385312500               0.000000000               0.000000000              -0.408250000               0.000000000               0.000000000              -0.431187500               0.000000000               0.000000000              -0.454125000               0.000000000               0.000000000              -0.477062500               0.000000000               0.000000000              -0.500000000               0.000000000              -0.133000000               0.000000000               0.000000000              -0.155937500               0.000000000               0.000000000              -0.178875000               0.000000000               0.000000000              -0.201812500               0.000000000               0.000000000              -0.224750000               0.000000000               0.000000000              -0.247687500               0.000000000               0.000000000              -0.270625000               0.000000000               0.000000000              -0.293562500               0.000000000               0.000000000              -0.316500000               0.000000000               0.000000000              -0.339437500               0.000000000               0.000000000              -0.362375000               0.000000000               0.000000000              -0.385312500               0.000000000               0.000000000              -0.408250000               0.000000000               0.000000000              -0.431187500               0.000000000               0.000000000              -0.454125000               0.000000000               0.000000000              -0.477062500               0.000000000               0.000000000              -0.500000000               0.000000000               0.000000000              -0.132359569               0.013036280               0.000000000              -0.155337096               0.016127762               0.000000000              -0.178314623               0.019219245               0.000000000              -0.201292150               0.022310727               0.000000000              -0.224269676               0.025402210               0.000000000              -0.247247203               0.028493692               0.000000000              -0.270224730               0.031585175               0.000000000              -0.293202257               0.034676657               0.000000000              -0.316179784               0.037768140               0.000000000              -0.339157311               0.040859622               0.000000000              -0.362134838               0.043951105               0.000000000              -0.385112365               0.047042587               0.000000000              -0.408089892               0.050134070               0.000000000              -0.431067419               0.053225552               0.000000000              -0.454044946               0.056317035               0.000000000              -0.477022473               0.059408517               0.000000000              -0.500000000               0.062500000               0.000000000              -0.130444442               0.025947013               0.000000000              -0.153541665               0.032137825               0.000000000              -0.176638887               0.038328636               0.000000000              -0.199736109               0.044519448               0.000000000              -0.222833332               0.050710260               0.000000000              -0.245930554               0.056901071               0.000000000              -0.269027776               0.063091883               0.000000000              -0.292124999               0.069282695               0.000000000              -0.315222221               0.075473506               0.000000000              -0.338319444               0.081664318               0.000000000              -0.361416666               0.087855130               0.000000000              -0.384513888               0.094045942               0.000000000              -0.407611111               0.100236753               0.000000000              -0.430708333               0.106427565               0.000000000              -0.453805555               0.112618377               0.000000000              -0.476902778               0.118809188               0.000000000              -0.500000000               0.125000000               0.000000000              -0.127273065               0.038607862               0.000000000              -0.150568498               0.047913621               0.000000000              -0.173863932               0.057219379               0.000000000              -0.197159365               0.066525138               0.000000000              -0.220454798               0.075830897               0.000000000              -0.243750232               0.085136655               0.000000000              -0.267045665               0.094442414               0.000000000              -0.290341099               0.103748172               0.000000000              -0.313636532               0.113053931               0.000000000              -0.336931966               0.122359690               0.000000000              -0.360227399               0.131665448               0.000000000              -0.383522833               0.140971207               0.000000000              -0.406818266               0.150276966               0.000000000              -0.430113700               0.159582724               0.000000000              -0.453409133               0.168888483               0.000000000              -0.476704567               0.178194241               0.000000000              -0.500000000               0.187500000               0.000000000              -0.122875978               0.050896897               0.000000000              -0.146446229               0.063340840               0.000000000              -0.170016481               0.075784784               0.000000000              -0.193586732               0.088228728               0.000000000              -0.217156983               0.100672672               0.000000000              -0.240727235               0.113116616               0.000000000              -0.264297486               0.125560560               0.000000000              -0.287867738               0.138004504               0.000000000              -0.311437989               0.150448448               0.000000000              -0.335008240               0.162892392               0.000000000              -0.358578492               0.175336336               0.000000000              -0.382148743               0.187780280               0.000000000              -0.405718994               0.200224224               0.000000000              -0.429289246               0.212668168               0.000000000              -0.452859497               0.225112112               0.000000000              -0.476429749               0.237556056               0.000000000              -0.500000000               0.250000000               0.000000000              -0.117295528               0.062695766               0.000000000              -0.141214558               0.078308531               0.000000000              -0.165133587               0.093921295               0.000000000              -0.189052617               0.109534060               0.000000000              -0.212971646               0.125146824               0.000000000              -0.236890676               0.140759589               0.000000000              -0.260809705               0.156372354               0.000000000              -0.284728735               0.171985118               0.000000000              -0.308647764               0.187597883               0.000000000              -0.332566794               0.203210648               0.000000000              -0.356485823               0.218823412               0.000000000              -0.380404853               0.234436177               0.000000000              -0.404323882               0.250048941               0.000000000              -0.428242912               0.265661706               0.000000000              -0.452161941               0.281274471               0.000000000              -0.476080971               0.296887235               0.000000000              -0.500000000               0.312500000               0.000000000              -0.110585458               0.073890841               0.000000000              -0.134923867               0.092710163               0.000000000              -0.159262276               0.111529486               0.000000000              -0.183600685               0.130348808               0.000000000              -0.207939094               0.149168131               0.000000000              -0.232277503               0.167987453               0.000000000              -0.256615912               0.186806776               0.000000000              -0.280954320               0.205626098               0.000000000              -0.305292729               0.224445420               0.000000000              -0.329631138               0.243264743               0.000000000              -0.353969547               0.262084065               0.000000000              -0.378307956               0.280903388               0.000000000              -0.402646365               0.299722710               0.000000000              -0.426984773               0.318542033               0.000000000              -0.451323182               0.337361355               0.000000000              -0.475661591               0.356180678               0.000000000              -0.500000000               0.375000000               0.000000000              -0.102810390               0.084374307               0.000000000              -0.127634741               0.106444663               0.000000000              -0.152459092               0.128515018               0.000000000              -0.177283442               0.150585374               0.000000000              -0.202107793               0.172655730               0.000000000              -0.226932143               0.194726086               0.000000000              -0.251756494               0.216796442               0.000000000              -0.276580845               0.238866798               0.000000000              -0.301405195               0.260937153               0.000000000              -0.326229546               0.283007509               0.000000000              -0.351053896               0.305077865               0.000000000              -0.375878247               0.327148221               0.000000000              -0.400702598               0.349218577               0.000000000              -0.425526948               0.371288933               0.000000000              -0.450351299               0.393359288               0.000000000              -0.475175649               0.415429644               0.000000000              -0.500000000               0.437500000               0.000000000              -0.094045202               0.094045202               0.000000000              -0.119417377               0.119417377               0.000000000              -0.144789552               0.144789552               0.000000000              -0.170161727               0.170161727               0.000000000              -0.195533901               0.195533901               0.000000000              -0.220906076               0.220906076               0.000000000              -0.246278251               0.246278251               0.000000000              -0.271650426               0.271650426               0.000000000              -0.297022601               0.297022601               0.000000000              -0.322394776               0.322394776               0.000000000              -0.347766951               0.347766951               0.000000000              -0.373139126               0.373139126               0.000000000              -0.398511300               0.398511300               0.000000000              -0.423883475               0.423883475               0.000000000              -0.449255650               0.449255650               0.000000000              -0.474627825               0.474627825               0.000000000              -0.500000000               0.500000000               0.000000000              -0.084374307               0.102810390               0.000000000              -0.106444663               0.127634741               0.000000000              -0.128515018               0.152459092               0.000000000              -0.150585374               0.177283442               0.000000000              -0.172655730               0.202107793               0.000000000              -0.194726086               0.226932143               0.000000000              -0.216796442               0.251756494               0.000000000              -0.238866798               0.276580845               0.000000000              -0.260937153               0.301405195               0.000000000              -0.283007509               0.326229546               0.000000000              -0.305077865               0.351053896               0.000000000              -0.327148221               0.375878247               0.000000000              -0.349218577               0.400702598               0.000000000              -0.371288933               0.425526948               0.000000000              -0.393359288               0.450351299               0.000000000              -0.415429644               0.475175649               0.000000000              -0.437500000               0.500000000               0.000000000              -0.073890841               0.110585458               0.000000000              -0.092710163               0.134923867               0.000000000              -0.111529486               0.159262276               0.000000000              -0.130348808               0.183600685               0.000000000              -0.149168131               0.207939094               0.000000000              -0.167987453               0.232277503               0.000000000              -0.186806776               0.256615912               0.000000000              -0.205626098               0.280954320               0.000000000              -0.224445420               0.305292729               0.000000000              -0.243264743               0.329631138               0.000000000              -0.262084065               0.353969547               0.000000000              -0.280903388               0.378307956               0.000000000              -0.299722710               0.402646365               0.000000000              -0.318542033               0.426984773               0.000000000              -0.337361355               0.451323182               0.000000000              -0.356180678               0.475661591               0.000000000              -0.375000000               0.500000000               0.000000000              -0.062695766               0.117295528               0.000000000              -0.078308531               0.141214558               0.000000000              -0.093921295               0.165133587               0.000000000              -0.109534060               0.189052617               0.000000000              -0.125146824               0.212971646               0.000000000              -0.140759589               0.236890676               0.000000000              -0.156372354               0.260809705               0.000000000              -0.171985118               0.284728735               0.000000000              -0.187597883               0.308647764               0.000000000              -0.203210648               0.332566794               0.000000000              -0.218823412               0.356485823               0.000000000              -0.234436177               0.380404853               0.000000000              -0.250048941               0.404323882               0.000000000              -0.265661706               0.428242912               0.000000000              -0.281274471               0.452161941               0.000000000              -0.296887235               0.476080971               0.000000000              -0.312500000               0.500000000               0.000000000              -0.050896897               0.122875978               0.000000000              -0.063340840               0.146446229               0.000000000              -0.075784784               0.170016481               0.000000000              -0.088228728               0.193586732               0.000000000              -0.100672672               0.217156983               0.000000000              -0.113116616               0.240727235               0.000000000              -0.125560560               0.264297486               0.000000000              -0.138004504               0.287867738               0.000000000              -0.150448448               0.311437989               0.000000000              -0.162892392               0.335008240               0.000000000              -0.175336336               0.358578492               0.000000000              -0.187780280               0.382148743               0.000000000              -0.200224224               0.405718994               0.000000000              -0.212668168               0.429289246               0.000000000              -0.225112112               0.452859497               0.000000000              -0.237556056               0.476429749               0.000000000              -0.250000000               0.500000000               0.000000000              -0.038607862               0.127273065               0.000000000              -0.047913621               0.150568498               0.000000000              -0.057219379               0.173863932               0.000000000              -0.066525138               0.197159365               0.000000000              -0.075830897               0.220454798               0.000000000              -0.085136655               0.243750232               0.000000000              -0.094442414               0.267045665               0.000000000              -0.103748172               0.290341099               0.000000000              -0.113053931               0.313636532               0.000000000              -0.122359690               0.336931966               0.000000000              -0.131665448               0.360227399               0.000000000              -0.140971207               0.383522833               0.000000000              -0.150276966               0.406818266               0.000000000              -0.159582724               0.430113700               0.000000000              -0.168888483               0.453409133               0.000000000              -0.178194241               0.476704567               0.000000000              -0.187500000               0.500000000               0.000000000              -0.025947013               0.130444442               0.000000000              -0.032137825               0.153541665               0.000000000              -0.038328636               0.176638887               0.000000000              -0.044519448               0.199736109               0.000000000              -0.050710260               0.222833332               0.000000000              -0.056901071               0.245930554               0.000000000              -0.063091883               0.269027776               0.000000000              -0.069282695               0.292124999               0.000000000              -0.075473506               0.315222221               0.000000000              -0.081664318               0.338319444               0.000000000              -0.087855130               0.361416666               0.000000000              -0.094045942               0.384513888               0.000000000              -0.100236753               0.407611111               0.000000000              -0.106427565               0.430708333               0.000000000              -0.112618377               0.453805555               0.000000000              -0.118809188               0.476902778               0.000000000              -0.125000000               0.500000000               0.000000000              -0.013036280               0.132359569               0.000000000              -0.016127762               0.155337096               0.000000000              -0.019219245               0.178314623               0.000000000              -0.022310727               0.201292150               0.000000000              -0.025402210               0.224269676               0.000000000              -0.028493692               0.247247203               0.000000000              -0.031585175               0.270224730               0.000000000              -0.034676657               0.293202257               0.000000000              -0.037768140               0.316179784               0.000000000              -0.040859622               0.339157311               0.000000000              -0.043951105               0.362134838               0.000000000              -0.047042587               0.385112365               0.000000000              -0.050134070               0.408089892               0.000000000              -0.053225552               0.431067419               0.000000000              -0.056317035               0.454044946               0.000000000              -0.059408517               0.477022473               0.000000000              -0.062500000               0.500000000               0.000000000               0.000000000               0.133000000               0.000000000               0.000000000               0.155937500               0.000000000               0.000000000               0.178875000               0.000000000               0.000000000               0.201812500               0.000000000               0.000000000               0.224750000               0.000000000               0.000000000               0.247687500               0.000000000               0.000000000               0.270625000               0.000000000               0.000000000               0.293562500               0.000000000               0.000000000               0.316500000               0.000000000               0.000000000               0.339437500               0.000000000               0.000000000               0.362375000               0.000000000               0.000000000               0.385312500               0.000000000               0.000000000               0.408250000               0.000000000               0.000000000               0.431187500               0.000000000               0.000000000               0.454125000               0.000000000               0.000000000               0.477062500               0.000000000               0.000000000               0.500000000               0.000000000 </DataArray>
</Points>
<Cells>
<DataArray type="Int32"                                    Name="connectivity"                                                      NumberOfComponents=" 1" format="ascii">
         0          1         18         17          1          2         19         18          2          3         20         19          3          4         21         20          4          5         22         21          5          6         23         22          6          7         24         23          7          8         25         24          8          9         26         25          9         10         27         26         10         11         28         27         11         12         29         28         12         13         30         29         13         14         31         30         14         15         32         31         15         16         33         32         17         18         35         34         18         19         36         35         19         20         37         36         20         21         38         37         21         22         39         38         22         23         40         39         23         24         41         40         24         25         42         41         25         26         43         42         26         27         44         43         27         28         45         44         28         29         46         45         29         30         47         46         30         31         48         47         31         32         49         48         32         33         50         49         34         35         52         51         35         36         53         52         36         37         54         53         37         38         55         54         38         39         56         55         39         40         57         56         40         41         58         57         41         42         59         58         42         43         60         59         43         44         61         60         44         45         62         61         45         46         63         62         46         47         64         63         47         48         65         64         48         49         66         65         49         50         67         66         51         52         69         68         52         53         70         69         53         54         71         70         54         55         72         71         55         56         73         72         56         57         74         73         57         58         75         74         58         59         76         75         59         60         77         76         60         61         78         77         61         62         79         78         62         63         80         79         63         64         81         80         64         65         82         81         65         66         83         82         66         67         84         83         68         69         86         85         69         70         87         86         70         71         88         87         71         72         89         88         72         73         90         89         73         74         91         90         74         75         92         91         75         76         93         92         76         77         94         93         77         78         95         94         78         79         96         95         79         80         97         96         80         81         98         97         81         82         99         98         82         83        100         99         83         84        101        100         85         86        103        102         86         87        104        103         87         88        105        104         88         89        106        105         89         90        107        106         90         91        108        107         91         92        109        108         92         93        110        109         93         94        111        110         94         95        112        111         95         96        113        112         96         97        114        113         97         98        115        114         98         99        116        115         99        100        117        116        100        101        118        117        102        103        120        119        103        104        121        120        104        105        122        121        105        106        123        122        106        107        124        123        107        108        125        124        108        109        126        125        109        110        127        126        110        111        128        127        111        112        129        128        112        113        130        129        113        114        131        130        114        115        132        131        115        116        133        132        116        117        134        133        117        118        135        134        119        120        137        136        120        121        138        137        121        122        139        138        122        123        140        139        123        124        141        140        124        125        142        141        125        126        143        142        126        127        144        143        127        128        145        144        128        129        146        145        129        130        147        146        130        131        148        147        131        132        149        148        132        133        150        149        133        134        151        150        134        135        152        151        136        137        154        153        137        138        155        154        138        139        156        155        139        140        157        156        140        141        158        157        141        142        159        158        142        143        160        159        143        144        161        160        144        145        162        161        145        146        163        162        146        147        164        163        147        148        165        164        148        149        166        165        149        150        167        166        150        151        168        167        151        152        169        168        153        154        171        170        154        155        172        171        155        156        173        172        156        157        174        173        157        158        175        174        158        159        176        175        159        160        177        176        160        161        178        177        161        162        179        178        162        163        180        179        163        164        181        180        164        165        182        181        165        166        183        182        166        167        184        183        167        168        185        184        168        169        186        185        170        171        188        187        171        172        189        188        172        173        190        189        173        174        191        190        174        175        192        191        175        176        193        192        176        177        194        193        177        178        195        194        178        179        196        195        179        180        197        196        180        181        198        197        181        182        199        198        182        183        200        199        183        184        201        200        184        185        202        201        185        186        203        202        187        188        205        204        188        189        206        205        189        190        207        206        190        191        208        207        191        192        209        208        192        193        210        209        193        194        211        210        194        195        212        211        195        196        213        212        196        197        214        213        197        198        215        214        198        199        216        215        199        200        217        216        200        201        218        217        201        202        219        218        202        203        220        219        204        205        222        221        205        206        223        222        206        207        224        223        207        208        225        224        208        209        226        225        209        210        227        226        210        211        228        227        211        212        229        228        212        213        230        229        213        214        231        230        214        215        232        231        215        216        233        232        216        217        234        233        217        218        235        234        218        219        236        235        219        220        237        236        221        222        239        238        222        223        240        239        223        224        241        240        224        225        242        241        225        226        243        242        226        227        244        243        227        228        245        244        228        229        246        245        229        230        247        246        230        231        248        247        231        232        249        248        232        233        250        249        233        234        251        250        234        235        252        251        235        236        253        252        236        237        254        253        238        239        256        255        239        240        257        256        240        241        258        257        241        242        259        258        242        243        260        259        243        244        261        260        244        245        262        261        245        246        263        262        246        247        264        263        247        248        265        264        248        249        266        265        249        250        267        266        250        251        268        267        251        252        269        268        252        253        270        269        253        254        271        270        255        256        273        272        256        257        274        273        257        258        275        274        258        259        276        275        259        260        277        276        260        261        278        277        261        262        279        278        262        263        280        279        263        264        281        280        264        265        282        281        265        266        283        282        266        267        284        283        267        268        285        284        268        269        286        285        269        270        287        286        270        271        288        287        306        307          1          0        307        308          2          1        308        309          3          2        309        310          4          3        310        311          5          4        311        312          6          5        312        313          7          6        313        314          8          7        314        315          9          8        315        316         10          9        316        317         11         10        317        318         12         11        318        319         13         12        319        320         14         13        320        321         15         14        321        322         16         15        323        324        307        306        324        325        308        307        325        326        309        308        326        327        310        309        327        328        311        310        328        329        312        311        329        330        313        312        330        331        314        313        331        332        315        314        332        333        316        315        333        334        317        316        334        335        318        317        335        336        319        318        336        337        320        319        337        338        321        320        338        339        322        321        340        341        324        323        341        342        325        324        342        343        326        325        343        344        327        326        344        345        328        327        345        346        329        328        346        347        330        329        347        348        331        330        348        349        332        331        349        350        333        332        350        351        334        333        351        352        335        334        352        353        336        335        353        354        337        336        354        355        338        337        355        356        339        338        357        358        341        340        358        359        342        341        359        360        343        342        360        361        344        343        361        362        345        344        362        363        346        345        363        364        347        346        364        365        348        347        365        366        349        348        366        367        350        349        367        368        351        350        368        369        352        351        369        370        353        352        370        371        354        353        371        372        355        354        372        373        356        355        374        375        358        357        375        376        359        358        376        377        360        359        377        378        361        360        378        379        362        361        379        380        363        362        380        381        364        363        381        382        365        364        382        383        366        365        383        384        367        366        384        385        368        367        385        386        369        368        386        387        370        369        387        388        371        370        388        389        372        371        389        390        373        372        391        392        375        374        392        393        376        375        393        394        377        376        394        395        378        377        395        396        379        378        396        397        380        379        397        398        381        380        398        399        382        381        399        400        383        382        400        401        384        383        401        402        385        384        402        403        386        385        403        404        387        386        404        405        388        387        405        406        389        388        406        407        390        389        408        409        392        391        409        410        393        392        410        411        394        393        411        412        395        394        412        413        396        395        413        414        397        396        414        415        398        397        415        416        399        398        416        417        400        399        417        418        401        400        418        419        402        401        419        420        403        402        420        421        404        403        421        422        405        404        422        423        406        405        423        424        407        406        425        426        409        408        426        427        410        409        427        428        411        410        428        429        412        411        429        430        413        412        430        431        414        413        431        432        415        414        432        433        416        415        433        434        417        416        434        435        418        417        435        436        419        418        436        437        420        419        437        438        421        420        438        439        422        421        439        440        423        422        440        441        424        423        442        443        426        425        443        444        427        426        444        445        428        427        445        446        429        428        446        447        430        429        447        448        431        430        448        449        432        431        449        450        433        432        450        451        434        433        451        452        435        434        452        453        436        435        453        454        437        436        454        455        438        437        455        456        439        438        456        457        440        439        457        458        441        440        459        460        443        442        460        461        444        443        461        462        445        444        462        463        446        445        463        464        447        446        464        465        448        447        465        466        449        448        466        467        450        449        467        468        451        450        468        469        452        451        469        470        453        452        470        471        454        453        471        472        455        454        472        473        456        455        473        474        457        456        474        475        458        457        476        477        460        459        477        478        461        460        478        479        462        461        479        480        463        462        480        481        464        463        481        482        465        464        482        483        466        465        483        484        467        466        484        485        468        467        485        486        469        468        486        487        470        469        487        488        471        470        488        489        472        471        489        490        473        472        490        491        474        473        491        492        475        474        493        494        477        476        494        495        478        477        495        496        479        478        496        497        480        479        497        498        481        480        498        499        482        481        499        500        483        482        500        501        484        483        501        502        485        484        502        503        486        485        503        504        487        486        504        505        488        487        505        506        489        488        506        507        490        489        507        508        491        490        508        509        492        491        510        511        494        493        511        512        495        494        512        513        496        495        513        514        497        496        514        515        498        497        515        516        499        498        516        517        500        499        517        518        501        500        518        519        502        501        519        520        503        502        520        521        504        503        521        522        505        504        522        523        506        505        523        524        507        506        524        525        508        507        525        526        509        508        527        528        511        510        528        529        512        511        529        530        513        512        530        531        514        513        531        532        515        514        532        533        516        515        533        534        517        516        534        535        518        517        535        536        519        518        536        537        520        519        537        538        521        520        538        539        522        521        539        540        523        522        540        541        524        523        541        542        525        524        542        543        526        525        544        545        528        527        545        546        529        528        546        547        530        529        547        548        531        530        548        549        532        531        549        550        533        532        550        551        534        533        551        552        535        534        552        553        536        535        553        554        537        536        554        555        538        537        555        556        539        538        556        557        540        539        557        558        541        540        558        559        542        541        559        560        543        542        561        562        545        544        562        563        546        545        563        564        547        546        564        565        548        547        565        566        549        548        566        567        550        549        567        568        551        550        568        569        552        551        569        570        553        552        570        571        554        553        571        572        555        554        572        573        556        555        573        574        557        556        574        575        558        557        575        576        559        558        576        577        560        559        578        579        596        595        579        580        597        596        580        581        598        597        581        582        599        598        582        583        600        599        583        584        601        600        584        585        602        601        585        586        603        602        586        587        604        603        587        588        605        604        588        589        606        605        589        590        607        606        590        591        608        607        591        592        609        608        592        593        610        609        593        594        611        610        595        596        613        612        596        597        614        613        597        598        615        614        598        599        616        615        599        600        617        616        600        601        618        617        601        602        619        618        602        603        620        619        603        604        621        620        604        605        622        621        605        606        623        622        606        607        624        623        607        608        625        624        608        609        626        625        609        610        627        626        610        611        628        627        612        613        630        629        613        614        631        630        614        615        632        631        615        616        633        632        616        617        634        633        617        618        635        634        618        619        636        635        619        620        637        636        620        621        638        637        621        622        639        638        622        623        640        639        623        624        641        640        624        625        642        641        625        626        643        642        626        627        644        643        627        628        645        644        629        630        647        646        630        631        648        647        631        632        649        648        632        633        650        649        633        634        651        650        634        635        652        651        635        636        653        652        636        637        654        653        637        638        655        654        638        639        656        655        639        640        657        656        640        641        658        657        641        642        659        658        642        643        660        659        643        644        661        660        644        645        662        661        646        647        664        663        647        648        665        664        648        649        666        665        649        650        667        666        650        651        668        667        651        652        669        668        652        653        670        669        653        654        671        670        654        655        672        671        655        656        673        672        656        657        674        673        657        658        675        674        658        659        676        675        659        660        677        676        660        661        678        677        661        662        679        678        663        664        681        680        664        665        682        681        665        666        683        682        666        667        684        683        667        668        685        684        668        669        686        685        669        670        687        686        670        671        688        687        671        672        689        688        672        673        690        689        673        674        691        690        674        675        692        691        675        676        693        692        676        677        694        693        677        678        695        694        678        679        696        695        680        681        698        697        681        682        699        698        682        683        700        699        683        684        701        700        684        685        702        701        685        686        703        702        686        687        704        703        687        688        705        704        688        689        706        705        689        690        707        706        690        691        708        707        691        692        709        708        692        693        710        709        693        694        711        710        694        695        712        711        695        696        713        712        697        698        715        714        698        699        716        715        699        700        717        716        700        701        718        717        701        702        719        718        702        703        720        719        703        704        721        720        704        705        722        721        705        706        723        722        706        707        724        723        707        708        725        724        708        709        726        725        709        710        727        726        710        711        728        727        711        712        729        728        712        713        730        729        714        715        732        731        715        716        733        732        716        717        734        733        717        718        735        734        718        719        736        735        719        720        737        736        720        721        738        737        721        722        739        738        722        723        740        739        723        724        741        740        724        725        742        741        725        726        743        742        726        727        744        743        727        728        745        744        728        729        746        745        729        730        747        746        731        732        749        748        732        733        750        749        733        734        751        750        734        735        752        751        735        736        753        752        736        737        754        753        737        738        755        754        738        739        756        755        739        740        757        756        740        741        758        757        741        742        759        758        742        743        760        759        743        744        761        760        744        745        762        761        745        746        763        762        746        747        764        763        748        749        766        765        749        750        767        766        750        751        768        767        751        752        769        768        752        753        770        769        753        754        771        770        754        755        772        771        755        756        773        772        756        757        774        773        757        758        775        774        758        759        776        775        759        760        777        776        760        761        778        777        761        762        779        778        762        763        780        779        763        764        781        780        765        766        783        782        766        767        784        783        767        768        785        784        768        769        786        785        769        770        787        786        770        771        788        787        771        772        789        788        772        773        790        789        773        774        791        790        774        775        792        791        775        776        793        792        776        777        794        793        777        778        795        794        778        779        796        795        779        780        797        796        780        781        798        797        782        783        800        799        783        784        801        800        784        785        802        801        785        786        803        802        786        787        804        803        787        788        805        804        788        789        806        805        789        790        807        806        790        791        808        807        791        792        809        808        792        793        810        809        793        794        811        810        794        795        812        811        795        796        813        812        796        797        814        813        797        798        815        814        799        800        817        816        800        801        818        817        801        802        819        818        802        803        820        819        803        804        821        820        804        805        822        821        805        806        823        822        806        807        824        823        807        808        825        824        808        809        826        825        809        810        827        826        810        811        828        827        811        812        829        828        812        813        830        829        813        814        831        830        814        815        832        831        816        817        834        833        817        818        835        834        818        819        836        835        819        820        837        836        820        821        838        837        821        822        839        838        822        823        840        839        823        824        841        840        824        825        842        841        825        826        843        842        826        827        844        843        827        828        845        844        828        829        846        845        829        830        847        846        830        831        848        847        831        832        849        848        833        834        562        561        834        835        563        562        835        836        564        563        836        837        565        564        837        838        566        565        838        839        567        566        839        840        568        567        840        841        569        568        841        842        570        569        842        843        571        570        843        844        572        571        844        845        573        572        845        846        574        573        846        847        575        574        847        848        576        575        848        849        577        576        884        885        579        578        885        886        580        579        886        887        581        580        887        888        582        581        888        889        583        582        889        890        584        583        890        891        585        584        891        892        586        585        892        893        587        586        893        894        588        587        894        895        589        588        895        896        590        589        896        897        591        590        897        898        592        591        898        899        593        592        899        900        594        593        901        902        885        884        902        903        886        885        903        904        887        886        904        905        888        887        905        906        889        888        906        907        890        889        907        908        891        890        908        909        892        891        909        910        893        892        910        911        894        893        911        912        895        894        912        913        896        895        913        914        897        896        914        915        898        897        915        916        899        898        916        917        900        899        918        919        902        901        919        920        903        902        920        921        904        903        921        922        905        904        922        923        906        905        923        924        907        906        924        925        908        907        925        926        909        908        926        927        910        909        927        928        911        910        928        929        912        911        929        930        913        912        930        931        914        913        931        932        915        914        932        933        916        915        933        934        917        916        935        936        919        918        936        937        920        919        937        938        921        920        938        939        922        921        939        940        923        922        940        941        924        923        941        942        925        924        942        943        926        925        943        944        927        926        944        945        928        927        945        946        929        928        946        947        930        929        947        948        931        930        948        949        932        931        949        950        933        932        950        951        934        933        952        953        936        935        953        954        937        936        954        955        938        937        955        956        939        938        956        957        940        939        957        958        941        940        958        959        942        941        959        960        943        942        960        961        944        943        961        962        945        944        962        963        946        945        963        964        947        946        964        965        948        947        965        966        949        948        966        967        950        949        967        968        951        950        969        970        953        952        970        971        954        953        971        972        955        954        972        973        956        955        973        974        957        956        974        975        958        957        975        976        959        958        976        977        960        959        977        978        961        960        978        979        962        961        979        980        963        962        980        981        964        963        981        982        965        964        982        983        966        965        983        984        967        966        984        985        968        967        986        987        970        969        987        988        971        970        988        989        972        971        989        990        973        972        990        991        974        973        991        992        975        974        992        993        976        975        993        994        977        976        994        995        978        977        995        996        979        978        996        997        980        979        997        998        981        980        998        999        982        981        999       1000        983        982       1000       1001        984        983       1001       1002        985        984       1003       1004        987        986       1004       1005        988        987       1005       1006        989        988       1006       1007        990        989       1007       1008        991        990       1008       1009        992        991       1009       1010        993        992       1010       1011        994        993       1011       1012        995        994       1012       1013        996        995       1013       1014        997        996       1014       1015        998        997       1015       1016        999        998       1016       1017       1000        999       1017       1018       1001       1000       1018       1019       1002       1001       1020       1021       1004       1003       1021       1022       1005       1004       1022       1023       1006       1005       1023       1024       1007       1006       1024       1025       1008       1007       1025       1026       1009       1008       1026       1027       1010       1009       1027       1028       1011       1010       1028       1029       1012       1011       1029       1030       1013       1012       1030       1031       1014       1013       1031       1032       1015       1014       1032       1033       1016       1015       1033       1034       1017       1016       1034       1035       1018       1017       1035       1036       1019       1018       1037       1038       1021       1020       1038       1039       1022       1021       1039       1040       1023       1022       1040       1041       1024       1023       1041       1042       1025       1024       1042       1043       1026       1025       1043       1044       1027       1026       1044       1045       1028       1027       1045       1046       1029       1028       1046       1047       1030       1029       1047       1048       1031       1030       1048       1049       1032       1031       1049       1050       1033       1032       1050       1051       1034       1033       1051       1052       1035       1034       1052       1053       1036       1035       1054       1055       1038       1037       1055       1056       1039       1038       1056       1057       1040       1039       1057       1058       1041       1040       1058       1059       1042       1041       1059       1060       1043       1042       1060       1061       1044       1043       1061       1062       1045       1044       1062       1063       1046       1045       1063       1064       1047       1046       1064       1065       1048       1047       1065       1066       1049       1048       1066       1067       1050       1049       1067       1068       1051       1050       1068       1069       1052       1051       1069       1070       1053       1052       1071       1072       1055       1054       1072       1073       1056       1055       1073       1074       1057       1056       1074       1075       1058       1057       1075       1076       1059       1058       1076       1077       1060       1059       1077       1078       1061       1060       1078       1079       1062       1061       1079       1080       1063       1062       1080       1081       1064       1063       1081       1082       1065       1064       1082       1083       1066       1065       1083       1084       1067       1066       1084       1085       1068       1067       1085       1086       1069       1068       1086       1087       1070       1069       1088       1089       1072       1071       1089       1090       1073       1072       1090       1091       1074       1073       1091       1092       1075       1074       1092       1093       1076       1075       1093       1094       1077       1076       1094       1095       1078       1077       1095       1096       1079       1078       1096       1097       1080       1079       1097       1098       1081       1080       1098       1099       1082       1081       1099       1100       1083       1082       1100       1101       1084       1083       1101       1102       1085       1084       1102       1103       1086       1085       1103       1104       1087       1086       1105       1106       1089       1088       1106       1107       1090       1089       1107       1108       1091       1090       1108       1109       1092       1091       1109       1110       1093       1092       1110       1111       1094       1093       1111       1112       1095       1094       1112       1113       1096       1095       1113       1114       1097       1096       1114       1115       1098       1097       1115       1116       1099       1098       1116       1117       1100       1099       1117       1118       1101       1100       1118       1119       1102       1101       1119       1120       1103       1102       1120       1121       1104       1103       1122       1123       1106       1105       1123       1124       1107       1106       1124       1125       1108       1107       1125       1126       1109       1108       1126       1127       1110       1109       1127       1128       1111       1110       1128       1129       1112       1111       1129       1130       1113       1112       1130       1131       1114       1113       1131       1132       1115       1114       1132       1133       1116       1115       1133       1134       1117       1116       1134       1135       1118       1117       1135       1136       1119       1118       1136       1137       1120       1119       1137       1138       1121       1120        272        273       1123       1122        273        274       1124       1123        274        275       1125       1124        275        276       1126       1125        276        277       1127       1126        277        278       1128       1127        278        279       1129       1128        279        280       1130       1129        280        281       1131       1130        281        282       1132       1131        282        283       1133       1132        283        284       1134       1133        284        285       1135       1134        285        286       1136       1135        286        287       1137       1136        287        288       1138       1137 </DataArray>
<DataArray type="Int32"                                    Name="offsets"                                                      NumberOfComponents=" 1" format="ascii">
         4          8         12         16         20         24         28         32         36         40         44         48         52         56         60         64         68         72         76         80         84         88         92         96        100        104        108        112        116        120        124        128        132        136        140        144        148        152        156        160        164        168        172        176        180        184        188        192        196        200        204        208        212        216        220        224        228        232        236        240        244        248        252        256        260        264        268        272        276        280        284        288        292        296        300        304        308        312        316        320        324        328        332        336        340        344        348        352        356        360        364        368        372        376        380        384        388        392        396        400        404        408        412        416        420        424        428        432        436        440        444        448        452        456        460        464        468        472        476        480        484        488        492        496        500        504        508        512        516        520        524        528        532        536        540        544        548        552        556        560        564        568        572        576        580        584        588        592        596        600        604        608        612        616        620        624        628        632        636        640        644        648        652        656        660        664        668        672        676        680        684        688        692        696        700        704        708        712        716        720        724        728        732        736        740        744        748        752        756        760        764        768        772        776        780        784        788        792        796        800        804        808        812        816        820        824        828        832        836        840        844        848        852        856        860        864        868        872        876        880        884        888        892        896        900        904        908        912        916        920        924        928        932        936        940        944        948        952        956        960        964        968        972        976        980        984        988        992        996       1000       1004       1008       1012       1016       1020       1024       1028       1032       1036       1040       1044       1048       1052       1056       1060       1064       1068       1072       1076       1080       1084       1088       1092       1096       1100       1104       1108       1112       1116       1120       1124       1128       1132       1136       1140       1144       1148       1152       1156       1160       1164       1168       1172       1176       1180       1184       1188       1192       1196       1200       1204       1208       1212       1216       1220       1224       1228       1232       1236       1240       1244       1248       1252       1256       1260       1264       1268       1272       1276       1280       1284       1288       1292       1296       1300       1304       1308       1312       1316       1320       1324       1328       1332       1336       1340       1344       1348       1352       1356       1360       1364       1368       1372       1376       1380       1384       1388       1392       1396       1400       1404       1408       1412       1416       1420       1424       1428       1432       1436       1440       1444       1448       1452       1456       1460       1464       1468       1472       1476       1480       1484       1488       1492       1496       1500       1504       1508       1512       1516       1520       1524       1528       1532       1536       1540       1544       1548       1552       1556       1560       1564       1568       1572       1576       1580       1584       1588       1592       1596       1600       1604       1608       1612       1616       1620       1624       1628       1632       1636       1640       1644       1648       1652       1656       1660       1664       1668       1672       1676       1680       1684       1688       1692       1696       1700       1704       1708       1712       1716       1720       1724       1728       1732       1736       1740       1744       1748       1752       1756       1760       1764       1768       1772       1776       1780       1784       1788       1792       1796       1800       1804       1808       1812       1816       1820       1824       1828       1832       1836       1840       1844       1848       1852       1856       1860       1864       1868       1872       1876       1880       1884       1888       1892       1896       1900       1904       1908       1912       1916       1920       1924       1928       1932       1936       1940       1944       1948       1952       1956       1960       1964       1968       1972       1976       1980       1984       1988       1992       1996       2000       2004       2008       2012       2016       2020       2024       2028       2032       2036       2040       2044       2048       2052       2056       2060       2064       2068       2072       2076       2080       2084       2088       2092       2096       2100       2104       2108       2112       2116       2120       2124       2128       2132       2136       2140       2144       2148       2152       2156       2160       2164       2168       2172       2176       2180       2184       2188       2192       2196       2200       2204       2208       2212       2216       2220       2224       2228       2232       2236       2240       2244       2248       2252       2256       2260       2264       2268       2272       2276       2280       2284       2288       2292       2296       2300       2304       2308       2312       2316       2320       2324       2328       2332       2336       2340       2344       2348       2352       2356       2360       2364       2368       2372       2376       2380       2384       2388       2392       2396       2400       2404       2408       2412       2416       2420       2424       2428       2432       2436       2440       2444       2448       2452       2456       2460       2464       2468       2472       2476       2480       2484       2488       2492       2496       2500       2504       2508       2512       2516       2520       2524       2528       2532       2536       2540       2544       2548       2552       2556       2560       2564       2568       2572       2576       2580       2584       2588       2592       2596       2600       2604       2608       2612       2616       2620       2624       2628       2632       2636       2640       2644       2648       2652       2656       2660       2664       2668       2672       2676       2680       2684       2688       2692       2696       2700       2704       2708       2712       2716       2720       2724       2728       2732       2736       2740       2744       2748       2752       2756       2760       2764       2768       2772       2776       2780       2784       2788       2792       2796       2800       2804       2808       2812       2816       2820       2824       2828       2832       2836       2840       2844       2848       2852       2856       2860       2864       2868       2872       2876       2880       2884       2888       2892       2896       2900       2904       2908       2912       2916       2920       2924       2928       2932       2936       2940       2944       2948       2952       2956       2960       2964       2968       2972       2976       2980       2984       2988       2992       2996       3000       3004       3008       3012       3016       3020       3024       3028       3032       3036       3040       3044       3048       3052       3056       3060       3064       3068       3072       3076       3080       3084       3088       3092       3096       3100       3104       3108       3112       3116       3120       3124       3128       3132       3136       3140       3144       3148       3152       3156       3160       3164       3168       3172       3176       3180       3184       3188       3192       3196       3200       3204       3208       3212       3216       3220       3224       3228       3232       3236       3240       3244       3248       3252       3256       3260       3264       3268       3272       3276       3280       3284       3288       3292       3296       3300       3304       3308       3312       3316       3320       3324       3328       3332       3336       3340       3344       3348       3352       3356       3360       3364       3368       3372       3376       3380       3384       3388       3392       3396       3400       3404       3408       3412       3416       3420       3424       3428       3432       3436       3440       3444       3448       3452       3456       3460       3464       3468       3472       3476       3480       3484       3488       3492       3496       3500       3504       3508       3512       3516       3520       3524       3528       3532       3536       3540       3544       3548       3552       3556       3560       3564       3568       3572       3576       3580       3584       3588       3592       3596       3600       3604       3608       3612       3616       3620       3624       3628       3632       3636       3640       3644       3648       3652       3656       3660       3664       3668       3672       3676       3680       3684       3688       3692       3696       3700       3704       3708       3712       3716       3720       3724       3728       3732       3736       3740       3744       3748       3752       3756       3760       3764       3768       3772       3776       3780       3784       3788       3792       3796       3800       3804       3808       3812       3816       3820       3824       3828       3832       3836       3840       3844       3848       3852       3856       3860       3864       3868       3872       3876       3880       3884       3888       3892       3896       3900       3904       3908       3912       3916       3920       3924       3928       3932       3936       3940       3944       3948       3952       3956       3960       3964       3968       3972       3976       3980       3984       3988       3992       3996       4000       4004       4008       4012       4016       4020       4024       4028       4032       4036       4040       4044       4048       4052       4056       4060       4064       4068       4072       4076       4080       4084       4088       4092       4096 </DataArray>
<DataArray type="UInt8"                                    Name="types"                                                      NumberOfComponents=" 1" format="ascii">
         9          9          9          9          9          9          9          9          9          9          9          9          9          9          9          9          9          9          9          9          9          9          9          9          9          9          9          9          9          9          9          9          9          9          9          9          9          9          9          9          9          9          9          9          9          9          9          9          9          9          9          9          9          9          9          9          9          9          9          9          9          9          9          9          9          9          9          9          9          9          9          9          9          9          9          9          9          9          9          9          9          9          9          9          9          9          9          9          9          9          9          9          9          9          9          9          9          9          9          9          9          9          9          9          9          9          9          9          9          9          9          9          9          9          9          9          9          9          9          9          9          9          9          9          9          9          9          9          9          9          9          9          9          9          9          9          9          9          9          9          9          9          9          9          9          9          9          9          9          9          9          9          9          9          9          9          9          9          9          9          9          9          9          9          9          9          9          9          9          9          9          9          9          9          9          9          9          9          9          9          9          9          9          9          9          9          9          9          9          9          9          9          9          9          9          9          9          9          9          9          9          9          9          9          9          9          9          9          9          9          9          9          9          9          9          9          9          9          9          9          9          9          9          9          9          9          9          9          9          9          9          9          9          9          9          9          9          9          9          9          9          9          9          9          9          9          9          9          9          9          9          9          9          9          9          9          9          9          9          9          9          9          9          9          9          9          9          9          9          9          9          9          9          9          9          9          9          9          9          9          9          9          9          9          9          9          9          9          9          9          9          9          9          9          9          9          9          9          9          9          9          9          9          9          9          9          9          9          9          9          9          9          9          9          9          9          9          9          9          9          9          9          9          9          9          9          9          9          9          9          9          9          9          9          9          9          9          9          9          9          9          9          9          9          9          9          9          9          9          9          9          9          9          9          9          9          9          9          9          9          9          9          9          9          9          9          9          9          9          9          9          9          9          9          9          9          9          9          9          9          9          9          9          9          9          9          9          9          9          9          9          9          9          9          9          9          9          9          9          9          9          9          9          9          9          9          9          9          9          9          9          9          9          9          9          9          9          9          9          9          9          9          9          9          9          9          9          9          9          9          9          9          9          9          9          9          9          9          9          9          9          9          9          9          9          9          9          9          9          9          9          9          9          9          9          9          9          9          9          9          9          9          9          9          9          9          9          9          9          9          9          9          9          9          9          9          9          9          9          9          9          9          9          9          9          9          9          9          9          9          9          9          9          9          9          9          9          9          9          9          9          9          9          9          9          9          9          9          9          9          9          9          9          9          9          9          9          9          9          9          9          9          9          9          9          9          9          9          9          9          9          9          9          9          9          9          9          9          9          9          9          9          9          9          9          9          9          9          9          9          9          9          9          9          9          9          9          9          9          9          9          9          9          9          9          9          9          9          9          9          9          9          9          9          9          9          9          9          9          9          9          9          9          9          9          9          9          9          9          9          9          9          9          9          9          9          9          9          9          9          9          9          9          9          9          9          9          9          9          9          9          9          9          9          9          9          9          9          9          9          9          9          9          9          9          9          9          9          9          9          9          9          9          9          9          9          9          9          9          9          9          9          9          9          9          9          9          9          9          9          9          9          9          9          9          9          9          9          9          9          9          9          9          9          9          9          9          9          9          9          9          9          9          9          9          9          9          9          9          9          9          9          9          9          9          9          9          9          9          9          9          9          9          9          9          9          9          9          9          9          9          9          9          9          9          9          9          9          9          9          9          9          9          9          9          9          9          9          9          9          9          9          9          9          9          9          9          9          9          9          9          9          9          9          9          9          9          9          9          9          9          9          9          9          9          9          9          9          9          9          9          9          9          9          9          9          9          9          9          9          9          9          9          9          9          9          9          9          9          9          9          9          9          9          9          9          9          9          9          9          9          9          9          9          9          9          9          9          9          9          9          9          9          9          9          9          9          9          9          9          9          9          9          9          9          9          9          9          9          9          9          9          9          9          9          9          9          9          9          9          9          9          9          9          9          9          9          9          9          9          9          9          9          9          9          9          9          9          9          9          9          9          9          9          9          9          9          9          9          9          9          9          9          9          9          9          9          9          9          9          9          9          9          9          9          9          9          9          9          9          9          9          9          9          9          9          9          9          9          9          9          9          9          9          9          9          9          9          9          9          9          9          9          9          9          9          9          9          9          9          9          9          9          9          9          9          9          9          9          9          9          9          9          9          9          9          9          9          9          9          9          9          9          9          9          9          9          9          9          9          9          9          9          9          9          9          9          9          9          9          9          9          9          9          9          9          9          9          9          9          9          9          9          9          9          9          9          9          9          9          9          9          9          9          9          9          9          9          9          9          9          9          9          9          9          9          9          9          9          9          9          9          9          9          9          9          9          9          9          9          9          9          9          9          9          9          9          9          9          9          9          9          9          9          9          9          9          9          9          9          9          9          9          9          9          9          9          9          9          9          9          9          9          9 </DataArray>
</Cells>
<CellData>
<DataArray type="Int32"                                    Name="material"                                                      NumberOfComponents=" 1" format="ascii">
         1          1          1          1          1          1          1          1          1          1          1          1          1          1          1          1          1          1          1          1          1          1          1          1          1          1          1          1          1          1          1          1          1          1          1          1          1          1          1          1          1          1          1          1          1          1          1          1          1          1          1          1          1          1          1          1          1          1          1          1          1          1          1          1          1          1          1          1          1          1          1          1          1          1          1          1          1          1          1          1          1          1          1          1          1          1          1          1          1          1          1          1          1          1          1          1          1          1          1          1          1          1          1          1          1          1          1          1          1          1          1          1          1          1          1          1          1          1          1          1          1          1          1          1          1          1          1          1          1          1          1          1          1          1          1          1          1          1          1          1          1          1          1          1          1          1          1          1          1          1          1          1          1          1          1          1          1          1          1          1          1          1          1          1          1          1          1          1          1          1          1          1          1          1          1          1          1          1          1          1          1          1          1          1          1          1          1          1          1          1          1          1          1          1          1          1          1          1          1          1          1          1          1          1          1          1          1          1          1          1          1          1          1          1          1          1          1          1          1          1          1          1          1          1          1          1          1          1          1          1          1          1          1          1          1          1          1          1          1          1          1          1          1          1          1          1          1          1          1          1          1          1          1          1          1          1          1          1          1          1          1          1          1          1          1          1          1          1          1          1          1          1          1          1          1          1          1          1          1          1          1          1          1          1          1          1          1          1          1          1          1          1          1          1          1          1          1          1          1          1          1          1          1          1          1          1          1          1          1          1          1          1          1          1          1          1          1          1          1          1          1          1          1          1          1          1          1          1          1          1          1          1          1          1          1          1          1          1          1          1          1          1          1          1          1          1          1          1          1          1          1          1          1          1          1          1          1          1          1          1          1          1          1          1          1          1          1          1          1          1          1          1          1          1          1          1          1          1          1          1          1          1          1          1          1          1          1          1          1          1          1          1          1          1          1          1          1          1          1          1          1          1          1          1          1          1          1          1          1          1          1          1          1          1          1          1          1          1          1          1          1          1          1          1          1          1          1          1          1          1          1          1          1          1          1          1          1          1          1          1          1          1          1          1          1          1          1          1          1          1          1          1          1          1          1          1          1          1          1          1          1          1          1          1          1          1          1          1          1          1          1          1          1          1          1          1          1          1          1          1          1          1          1          1          1          1          1          1          1          1          1          1          1          1          1          1          1          1          1          1          1          1          1          1          1          1          1          1          1          1          1          1          1          1          1          1          1          1          1          1          1          1          1          1          1          1          1          1          1          1          1          1          1          1          1          1          1          1          1          1          1          1          1          1          1          1          1          1          1          1          1          1          1          1          1          1          1          1          1          1          1          1          1          1          1          1          1          1          1          1          1          1          1          1          1          1          1          1          1          1          1          1          1          1          1          1          1          1          1          1          1          1          1          1          1          1          1          1          1          1          1          1          1          1          1          1          1          1          1          1          1          1          1          1          1          1          1          1          1          1          1          1          1          1          1          1          1          1          1          1          1          1          1          1          1          1          1          1          1          1          1          1          1          1          1          1          1          1          1          1          1          1          1          1          1          1          1          1          1          1          1          1          1          1          1          1          1          1          1          1          1          1          1          1          1          1          1          1          1          1          1          1          1          1          1          1          1          1          1          1          1          1          1          1          1          1          1          1          1          1          1          1          1          1          1          1          1          1          1          1          1          1          1          1          1          1          1          1          1          1          1          1          1          1          1          1          1          1          1          1          1          1          1          1          1          1          1          1          1          1          1          1          1          1          1          1          1          1          1          1          1          1          1          1          1          1          1          1          1          1          1          1          1          1          1          1          1          1          1          1          1          1          1          1          1          1          1          1          1          1          1          1          1          1          1          1          1          1          1          1          1          1          1          1          1          1          1          1          1          1          1          1          1          1          1          1          1          1          1          1          1          1          1          1          1          1          1          1          1          1          1          1          1          1          1          1          1          1          1          1          1          1          1          1          1          1          1          1          1          1          1          1          1          1          1          1          1          1          1          1          1          1          1          1          1          1          1          1          1          1          1          1          1          1          1          1          1          1          1          1          1          1          1          1          1          1          1          1          1          1          1          1          1          1          1          1          1          1          1          1          1          1          1          1          1          1          1          1          1          1          1          1          1          1          1          1          1          1          1          1          1          1          1          1          1          1          1          1          1          1          1          1          1          1          1          1          1          1          1          1          1          1          1          1          1          1          1          1          1          1          1          1          1          1          1          1          1          1          1          1          1          1          1          1          1          1          1          1          1          1          1          1          1          1          1          1          1          1          1          1          1          1          1          1          1          1          1          1          1          1          1          1          1          1          1          1          1          1          1          1          1          1          1          1          1          1          1          1          1          1          1          1          1          1          1          1          1          1          1          1          1          1          1          1          1          1          1          1          1          1          1          1          1          1 </DataArray>
</CellData>
<PointData>
<DataArray type="Float64"                                    Name="u"                                                      NumberOfComponents=" 3" format="ascii">
             -0.000879608               0.000000000               0.999999988              -0.000925524               0.000000000               0.999999988              -0.000944272              -0.000000000               0.999999988              -0.000954199               0.000000000               0.999999988              -0.000961987               0.000000000               0.999999988              -0.000969992              -0.000000000               0.999999988              -0.000978915               0.000000000               0.999999988              -0.000988734               0.000000000               0.999999988              -0.000999175              -0.000000000               0.999999988              -0.001010038              -0.000000000               0.999999988              -0.001020864              -0.000000000               0.999999988              -0.001031343              -0.000000000               0.999999988              -0.001041089              -0.000000000               0.999999988              -0.001049709               0.000000000               0.999999988              -0.001056695              -0.000000000               0.999999988              -0.001061398              -0.000000000               0.999999988              -0.001063128              -0.000000000               0.999999988              -0.000874765               0.000121120               0.999999988              -0.000916687               0.000095499               0.999999988              -0.000932831               0.000083459               0.999999988              -0.000941036               0.000078207               0.999999988              -0.000947574               0.000076122               0.999999988              -0.000954539               0.000075603               0.999999988              -0.000962467               0.000075554               0.999999988              -0.000971255               0.000075212               0.999999988              -0.000980694               0.000074347               0.999999988              -0.000990416               0.000072498               0.999999988              -0.000999870               0.000069317               0.999999988              -0.001008721               0.000064527               0.999999988              -0.001016561               0.000057737               0.999999988              -0.001022944               0.000048562               0.999999988              -0.001027471               0.000036462               0.999999988              -0.001029739               0.000020551               0.999999988              -0.001029126              -0.000000552               0.999999988              -0.000860397               0.000241218               0.999999988              -0.000890642               0.000190702               0.999999988              -0.000899441               0.000167865               0.999999988              -0.000902962               0.000158351               0.999999988              -0.000906230               0.000155003               0.999999988              -0.000910547               0.000154474               0.999999988              -0.000915952               0.000154647               0.999999988              -0.000922081               0.000154318               0.999999988              -0.000928628               0.000152848               0.999999988              -0.000935003               0.000149366               0.999999988              -0.000940569               0.000143118               0.999999988              -0.000944848               0.000133648               0.999999988              -0.000947392               0.000120348               0.999999988              -0.000947930               0.000102804               0.999999988              -0.000946232               0.000080348               0.999999988              -0.000942042               0.000051585               0.999999988              -0.000935196               0.000014842               0.999999988              -0.000836863               0.000359284               0.999999988              -0.000848655               0.000285428               0.999999988              -0.000846788               0.000254039               0.999999988              -0.000843956               0.000242084               0.999999988              -0.000842905               0.000238720               0.999999988              -0.000843852               0.000238931               0.999999988              -0.000846060               0.000239924               0.999999988              -0.000848732               0.000239850               0.999999988              -0.000851017               0.000237831               0.999999988              -0.000852253               0.000232736               0.999999988              -0.000851804               0.000223540               0.999999988              -0.000849220               0.000209651               0.999999988              -0.000844209               0.000190749               0.999999988              -0.000836582               0.000166465               0.999999988              -0.000826310               0.000136074               0.999999988              -0.000813395               0.000098594               0.999999988              -0.000798098               0.000053104               0.999999988              -0.000804503               0.000474365               0.999999988              -0.000792709               0.000379785               0.999999988              -0.000778960               0.000342612               0.999999988              -0.000769693               0.000330175               0.999999988              -0.000764584               0.000328070               0.999999988              -0.000762243               0.000329867               0.999999988              -0.000760987               0.000331977               0.999999988              -0.000759586               0.000332254               0.999999988              -0.000756814               0.000329458               0.999999988              -0.000751852               0.000322596               0.999999988              -0.000744057               0.000310522               0.999999988              -0.000733276               0.000292907               0.999999988              -0.000719410               0.000269257               0.999999988              -0.000702452               0.000239563               0.999999988              -0.000682409               0.000203516               0.999999988              -0.000659536               0.000160939               0.999999988              -0.000634526               0.000112021               0.999999988              -0.000763783               0.000585482               0.999999988              -0.000725411               0.000474070               0.999999988              -0.000700575               0.000433986               0.999999988              -0.000686385               0.000422613               0.999999988              -0.000678520               0.000422584               0.999999988              -0.000673505               0.000426254               0.999999988              -0.000668987               0.000429485               0.999999988              -0.000663168               0.000429958               0.999999988              -0.000654645               0.000426051               0.999999988              -0.000642470               0.000417031               0.999999988              -0.000626298               0.000402345               0.999999988              -0.000606247               0.000381212               0.999999988              -0.000582309               0.000353653               0.999999988              -0.000554566               0.000319901               0.999999988              -0.000523463               0.000280350               0.999999988              -0.000489758               0.000235615               0.999999988              -0.000454504               0.000186885               0.999999988              -0.000715456               0.000691538               0.999999988              -0.000650074               0.000568377               0.999999988              -0.000616708               0.000527827               0.999999988              -0.000599953               0.000518482               0.999999988              -0.000590834               0.000520762               0.999999988              -0.000584068               0.000526049               0.999999988              -0.000576454               0.000530077               0.999999988              -0.000565699               0.000530159               0.999999988              -0.000550348               0.000524735               0.999999988              -0.000529780               0.000513382               0.999999988              -0.000504104               0.000496055               0.999999988              -0.000473316               0.000472027               0.999999988              -0.000437980               0.000441467               0.999999988              -0.000398598               0.000405210               0.999999988              -0.000356203               0.000364175               0.999999988              -0.000311958               0.000319971               0.999999988              -0.000267227               0.000274366               0.999999988              -0.000660451               0.000791360               0.999999988              -0.000570211               0.000662554               0.999999988              -0.000532040               0.000623267               0.999999988              -0.000515506               0.000616049               0.999999988              -0.000506524               0.000620293               0.999999988              -0.000498441               0.000626807               0.999999988              -0.000487277               0.000630917               0.999999988              -0.000470544               0.000630001               0.999999988              -0.000447383               0.000622689               0.999999988              -0.000417520               0.000609014               0.999999988              -0.000381160               0.000589150               0.999999988              -0.000338820               0.000562644               0.999999988              -0.000291446               0.000530296               0.999999988              -0.000240312               0.000493262               0.999999988              -0.000186906               0.000453132               0.999999988              -0.000132534               0.000411745               0.999999988              -0.000078443               0.000371077               0.999999988              -0.000600543               0.000883024               0.999999988              -0.000488740               0.000756365               0.999999988              -0.000450975               0.000718792               0.999999988              -0.000436628               0.000713250               0.999999988              -0.000428610               0.000718914               0.999999988              -0.000418846               0.000726084               0.999999988              -0.000403198               0.000729755               0.999999988              -0.000379596               0.000727500               0.999999988              -0.000347617               0.000718406               0.999999988              -0.000307338               0.000702609               0.999999988              -0.000259306               0.000680511               0.999999988              -0.000204542               0.000652531               0.999999988              -0.000144599               0.000620007               0.999999988              -0.000081160               0.000584615               0.999999988              -0.000015797               0.000548322               0.999999988               0.000049853               0.000512734               0.999999988               0.000114914               0.000478640               0.999999988              -0.000538284               0.000970001               0.999999988              -0.000420219               0.000862398               0.999999988              -0.000380255               0.000821939               0.999999988              -0.000365759               0.000812210               0.999999988              -0.000358747               0.000815572               0.999999988              -0.000351155               0.000823058               0.999999988              -0.000338876               0.000829595               0.999999988              -0.000319838               0.000832541               0.999999988              -0.000293051               0.000830567               0.999999988              -0.000258509               0.000823500               0.999999988              -0.000216254               0.000811444               0.999999988              -0.000166912               0.000794794               0.999999988              -0.000111447               0.000774148               0.999999988              -0.000050872               0.000750455               0.999999988               0.000013605               0.000724967               0.999999988               0.000080580               0.000699283               0.999999988               0.000148214               0.000674835               0.999999988              -0.000470464               0.001049355               0.999999988              -0.000354059               0.000965225               0.999999988              -0.000312178               0.000927963               0.999999988              -0.000296600               0.000916480               0.999999988              -0.000289726               0.000918444               0.999999988              -0.000283528               0.000926359               0.999999988              -0.000273909               0.000935536               0.999999988              -0.000258820               0.000943151               0.999999988              -0.000237026               0.000947623               0.999999988              -0.000208194               0.000948380               0.999999988              -0.000171952               0.000945348               0.999999988              -0.000128523               0.000938745               0.999999988              -0.000078361               0.000928907               0.999999988              -0.000022167               0.000916247               0.999999988               0.000039513               0.000901473               0.999999988               0.000105607               0.000885582               0.999999988               0.000174083               0.000869909               0.999999988              -0.000398526               0.001119016               0.999999988              -0.000290452               0.001061532               0.999999988              -0.000248408               0.001031846               0.999999988              -0.000231617               0.001021797               0.999999988              -0.000224309               0.001023890               0.999999988              -0.000218717               0.001032763               0.999999988              -0.000210968               0.001044518               0.999999988              -0.000199220               0.001056482               0.999999988              -0.000182160               0.001066940               0.999999988              -0.000158883               0.001075022               0.999999988              -0.000128684               0.001080379               0.999999988              -0.000091451               0.001082934               0.999999988              -0.000047576               0.001082864               0.999999988               0.000002934               0.001080439               0.999999988               0.000060218               0.001076088               0.999999988               0.000123585               0.001070209               0.999999988               0.000191957               0.001063769               0.999999988              -0.000323075               0.001177856               0.999999988              -0.000229325               0.001147457               0.999999988              -0.000189801               0.001128385               0.999999988              -0.000172718               0.001122344               0.999999988              -0.000164812               0.001126347               0.999999988              -0.000159635               0.001136938               0.999999988              -0.000153281               0.001151269               0.999999988              -0.000144251               0.001167282               0.999999988              -0.000131312               0.001183281               0.999999988              -0.000113330               0.001198211               0.999999988              -0.000089345               0.001211469               0.999999988              -0.000058931               0.001222740               0.999999988              -0.000022003               0.001232053               0.999999988               0.000021727               0.001239361               0.999999988               0.000072694               0.001244861               0.999999988               0.000131138               0.001248812               0.999999988               0.000197046               0.001251752               0.999999988              -0.000244850               0.001224735               0.999999988              -0.000170320               0.001218952               0.999999988              -0.000136535               0.001211764               0.999999988              -0.000120845               0.001211434               0.999999988              -0.000113103               0.001218569               0.999999988              -0.000108352               0.001231672               0.999999988              -0.000103381               0.001248812               0.999999988              -0.000096612               0.001268372               0.999999988              -0.000087134               0.001289272               0.999999988              -0.000074051               0.001310374               0.999999988              -0.000056403               0.001330768               0.999999988              -0.000033246               0.001350222               0.999999988              -0.000004206               0.001368465               0.999999988               0.000030990               0.001385206               0.999999988               0.000073169               0.001400267               0.999999988               0.000123442               0.001413696               0.999999988               0.000183276               0.001425764               0.999999988              -0.000164483               0.001258938               0.999999988              -0.000112765               0.001272724               0.999999988              -0.000088004               0.001276312               0.999999988              -0.000075826               0.001281980               0.999999988              -0.000069579               0.001292745               0.999999988              -0.000065757               0.001308541               0.999999988              -0.000062257               0.001328440               0.999999988              -0.000057566               0.001351266               0.999999988              -0.000051247               0.001376004               0.999999988              -0.000042732               0.001401799               0.999999988              -0.000031035               0.001428136               0.999999988              -0.000015369               0.001454523               0.999999988               0.000004660               0.001480522               0.999999988               0.000029445               0.001505827               0.999999988               0.000059973               0.001530046               0.999999988               0.000097737               0.001552720               0.999999988               0.000144786               0.001573483               0.999999988              -0.000082618               0.001279782               0.999999988              -0.000056152               0.001306099               0.999999988              -0.000043073               0.001317107               0.999999988              -0.000036370               0.001327286               0.999999988              -0.000032850               0.001340969               0.999999988              -0.000030682               0.001359018               0.999999988              -0.000028770               0.001381117               0.999999988              -0.000026362               0.001406248               0.999999988              -0.000023246               0.001433660               0.999999988              -0.000019054               0.001462783               0.999999988              -0.000013099               0.001493169               0.999999988              -0.000005124               0.001524263               0.999999988               0.000005116               0.001555609               0.999999988               0.000018098               0.001586800               0.999999988               0.000034288               0.001617355               0.999999988               0.000054598               0.001646717               0.999999988               0.000080634               0.001674091               0.999999988              -0.000000000               0.001286748               0.999999988               0.000000000               0.001317391               0.999999988              -0.000000000               0.001331101               0.999999988               0.000000000               0.001342974               0.999999988               0.000000000               0.001357768               0.999999988               0.000000000               0.001376666               0.999999988              -0.000000000               0.001399519               0.999999988               0.000000000               0.001425455               0.999999988               0.000000000               0.001453892               0.999999988               0.000000000               0.001484216               0.999999988              -0.000000000               0.001515929               0.999999988              -0.000000000               0.001548621               0.999999988              -0.000000000               0.001581887               0.999999988              -0.000000000               0.001615227               0.999999988               0.000000000               0.001647985               0.999999988              -0.000000000               0.001679600               0.999999988              -0.000000000               0.001709309               0.999999988              -0.000879608               0.000000000               0.999999988              -0.000925524               0.000000000               0.999999988              -0.000944272              -0.000000000               0.999999988              -0.000954199               0.000000000               0.999999988              -0.000961987               0.000000000               0.999999988              -0.000969992              -0.000000000               0.999999988              -0.000978915               0.000000000               0.999999988              -0.000988734               0.000000000               0.999999988              -0.000999175              -0.000000000               0.999999988              -0.001010038              -0.000000000               0.999999988              -0.001020864              -0.000000000               0.999999988              -0.001031343              -0.000000000               0.999999988              -0.001041089              -0.000000000               0.999999988              -0.001049709               0.000000000               0.999999988              -0.001056695              -0.000000000               0.999999988              -0.001061398              -0.000000000               0.999999988              -0.001063128              -0.000000000               0.999999988              -0.000874765              -0.000121120               0.999999988              -0.000916687              -0.000095499               0.999999988              -0.000932831              -0.000083459               0.999999988              -0.000941036              -0.000078207               0.999999988              -0.000947574              -0.000076122               0.999999988              -0.000954539              -0.000075603               0.999999988              -0.000962467              -0.000075554               0.999999988              -0.000971255              -0.000075212               0.999999988              -0.000980694              -0.000074347               0.999999988              -0.000990416              -0.000072498               0.999999988              -0.000999870              -0.000069317               0.999999988              -0.001008721              -0.000064527               0.999999988              -0.001016561              -0.000057737               0.999999988              -0.001022944              -0.000048562               0.999999988              -0.001027471              -0.000036462               0.999999988              -0.001029739              -0.000020551               0.999999988              -0.001029126               0.000000552               0.999999988              -0.000860397              -0.000241218               0.999999988              -0.000890642              -0.000190702               0.999999988              -0.000899441              -0.000167865               0.999999988              -0.000902962              -0.000158351               0.999999988              -0.000906230              -0.000155003               0.999999988              -0.000910547              -0.000154474               0.999999988              -0.000915952              -0.000154647               0.999999988              -0.000922081              -0.000154318               0.999999988              -0.000928628              -0.000152848               0.999999988              -0.000935003              -0.000149366               0.999999988              -0.000940569              -0.000143118               0.999999988              -0.000944848              -0.000133648               0.999999988              -0.000947392              -0.000120348               0.999999988              -0.000947930              -0.000102804               0.999999988              -0.000946232              -0.000080348               0.999999988              -0.000942042              -0.000051585               0.999999988              -0.000935196              -0.000014842               0.999999988              -0.000836863              -0.000359284               0.999999988              -0.000848655              -0.000285428               0.999999988              -0.000846788              -0.000254039               0.999999988              -0.000843956              -0.000242084               0.999999988              -0.000842905              -0.000238720               0.999999988              -0.000843852              -0.000238931               0.999999988              -0.000846060              -0.000239924               0.999999988              -0.000848732              -0.000239850               0.999999988              -0.000851017              -0.000237831               0.999999988              -0.000852253              -0.000232736               0.999999988              -0.000851804              -0.000223540               0.999999988              -0.000849220              -0.000209651               0.999999988              -0.000844209              -0.000190749               0.999999988              -0.000836582              -0.000166465               0.999999988              -0.000826310              -0.000136074               0.999999988              -0.000813395              -0.000098594               0.999999988              -0.000798098              -0.000053104               0.999999988              -0.000804503              -0.000474365               0.999999988              -0.000792709              -0.000379785               0.999999988              -0.000778960              -0.000342612               0.999999988              -0.000769693              -0.000330175               0.999999988              -0.000764584              -0.000328070               0.999999988              -0.000762243              -0.000329867               0.999999988              -0.000760987              -0.000331977               0.999999988              -0.000759586              -0.000332254               0.999999988              -0.000756814              -0.000329458               0.999999988              -0.000751852              -0.000322596               0.999999988              -0.000744057              -0.000310522               0.999999988              -0.000733276              -0.000292907               0.999999988              -0.000719410              -0.000269257               0.999999988              -0.000702452              -0.000239563               0.999999988              -0.000682409              -0.000203516               0.999999988              -0.000659536              -0.000160939               0.999999988              -0.000634526              -0.000112021               0.999999988              -0.000763783              -0.000585482               0.999999988              -0.000725411              -0.000474070               0.999999988              -0.000700575              -0.000433986               0.999999988              -0.000686385              -0.000422613               0.999999988              -0.000678520              -0.000422584               0.999999988              -0.000673505              -0.000426254               0.999999988              -0.000668987              -0.000429485               0.999999988              -0.000663168              -0.000429958               0.999999988              -0.000654645              -0.000426051               0.999999988              -0.000642470              -0.000417031               0.999999988              -0.000626298              -0.000402345               0.999999988              -0.000606247              -0.000381212               0.999999988              -0.000582309              -0.000353653               0.999999988              -0.000554566              -0.000319901               0.999999988              -0.000523463              -0.000280350               0.999999988              -0.000489758              -0.000235615               0.999999988              -0.000454504              -0.000186885               0.999999988              -0.000715456              -0.000691538               0.999999988              -0.000650074              -0.000568377               0.999999988              -0.000616708              -0.000527827               0.999999988              -0.000599953              -0.000518482               0.999999988              -0.000590834              -0.000520762               0.999999988              -0.000584068              -0.000526049               0.999999988              -0.000576454              -0.000530077               0.999999988              -0.000565699              -0.000530159               0.999999988              -0.000550348              -0.000524735               0.999999988              -0.000529780              -0.000513382               0.999999988              -0.000504104              -0.000496055               0.999999988              -0.000473316              -0.000472027               0.999999988              -0.000437980              -0.000441467               0.999999988              -0.000398598              -0.000405210               0.999999988              -0.000356203              -0.000364175               0.999999988              -0.000311958              -0.000319971               0.999999988              -0.000267227              -0.000274366               0.999999988              -0.000660451              -0.000791360               0.999999988              -0.000570211              -0.000662554               0.999999988              -0.000532040              -0.000623267               0.999999988              -0.000515506              -0.000616049               0.999999988              -0.000506524              -0.000620293               0.999999988              -0.000498441              -0.000626807               0.999999988              -0.000487277              -0.000630917               0.999999988              -0.000470544              -0.000630001               0.999999988              -0.000447383              -0.000622689               0.999999988              -0.000417520              -0.000609014               0.999999988              -0.000381160              -0.000589150               0.999999988              -0.000338820              -0.000562644               0.999999988              -0.000291446              -0.000530296               0.999999988              -0.000240312              -0.000493262               0.999999988              -0.000186906              -0.000453132               0.999999988              -0.000132534              -0.000411745               0.999999988              -0.000078443              -0.000371077               0.999999988              -0.000600543              -0.000883024               0.999999988              -0.000488740              -0.000756365               0.999999988              -0.000450975              -0.000718792               0.999999988              -0.000436628              -0.000713250               0.999999988              -0.000428610              -0.000718914               0.999999988              -0.000418846              -0.000726084               0.999999988              -0.000403198              -0.000729755               0.999999988              -0.000379596              -0.000727500               0.999999988              -0.000347617              -0.000718406               0.999999988              -0.000307338              -0.000702609               0.999999988              -0.000259306              -0.000680511               0.999999988              -0.000204542              -0.000652531               0.999999988              -0.000144599              -0.000620007               0.999999988              -0.000081160              -0.000584615               0.999999988              -0.000015797              -0.000548322               0.999999988               0.000049853              -0.000512734               0.999999988               0.000114914              -0.000478640               0.999999988              -0.000538284              -0.000970001               0.999999988              -0.000420219              -0.000862398               0.999999988              -0.000380255              -0.000821939               0.999999988              -0.000365759              -0.000812210               0.999999988              -0.000358747              -0.000815572               0.999999988              -0.000351155              -0.000823058               0.999999988              -0.000338876              -0.000829595               0.999999988              -0.000319838              -0.000832541               0.999999988              -0.000293051              -0.000830567               0.999999988              -0.000258509              -0.000823500               0.999999988              -0.000216254              -0.000811444               0.999999988              -0.000166912              -0.000794794               0.999999988              -0.000111447              -0.000774148               0.999999988              -0.000050872              -0.000750455               0.999999988               0.000013605              -0.000724967               0.999999988               0.000080580              -0.000699283               0.999999988               0.000148214              -0.000674835               0.999999988              -0.000470464              -0.001049355               0.999999988              -0.000354059              -0.000965225               0.999999988              -0.000312178              -0.000927963               0.999999988              -0.000296600              -0.000916480               0.999999988              -0.000289726              -0.000918444               0.999999988              -0.000283528              -0.000926359               0.999999988              -0.000273909              -0.000935536               0.999999988              -0.000258820              -0.000943151               0.999999988              -0.000237026              -0.000947623               0.999999988              -0.000208194              -0.000948380               0.999999988              -0.000171952              -0.000945348               0.999999988              -0.000128523              -0.000938745               0.999999988              -0.000078361              -0.000928907               0.999999988              -0.000022167              -0.000916247               0.999999988               0.000039513              -0.000901473               0.999999988               0.000105607              -0.000885582               0.999999988               0.000174083              -0.000869909               0.999999988              -0.000398526              -0.001119016               0.999999988              -0.000290452              -0.001061532               0.999999988              -0.000248408              -0.001031846               0.999999988              -0.000231617              -0.001021797               0.999999988              -0.000224309              -0.001023890               0.999999988              -0.000218717              -0.001032763               0.999999988              -0.000210968              -0.001044518               0.999999988              -0.000199220              -0.001056482               0.999999988              -0.000182160              -0.001066940               0.999999988              -0.000158883              -0.001075022               0.999999988              -0.000128684              -0.001080379               0.999999988              -0.000091451              -0.001082934               0.999999988              -0.000047576              -0.001082864               0.999999988               0.000002934              -0.001080439               0.999999988               0.000060218              -0.001076088               0.999999988               0.000123585              -0.001070209               0.999999988               0.000191957              -0.001063769               0.999999988              -0.000323075              -0.001177856               0.999999988              -0.000229325              -0.001147457               0.999999988              -0.000189801              -0.001128385               0.999999988              -0.000172718              -0.001122344               0.999999988              -0.000164812              -0.001126347               0.999999988              -0.000159635              -0.001136938               0.999999988              -0.000153281              -0.001151269               0.999999988              -0.000144251              -0.001167282               0.999999988              -0.000131312              -0.001183281               0.999999988              -0.000113330              -0.001198211               0.999999988              -0.000089345              -0.001211469               0.999999988              -0.000058931              -0.001222740               0.999999988              -0.000022003              -0.001232053               0.999999988               0.000021727              -0.001239361               0.999999988               0.000072694              -0.001244861               0.999999988               0.000131138              -0.001248812               0.999999988               0.000197046              -0.001251752               0.999999988              -0.000244850              -0.001224735               0.999999988              -0.000170320              -0.001218952               0.999999988              -0.000136535              -0.001211764               0.999999988              -0.000120845              -0.001211434               0.999999988              -0.000113103              -0.001218569               0.999999988              -0.000108352              -0.001231672               0.999999988              -0.000103381              -0.001248812               0.999999988              -0.000096612              -0.001268372               0.999999988              -0.000087134              -0.001289272               0.999999988              -0.000074051              -0.001310374               0.999999988              -0.000056403              -0.001330768               0.999999988              -0.000033246              -0.001350222               0.999999988              -0.000004206              -0.001368465               0.999999988               0.000030990              -0.001385206               0.999999988               0.000073169              -0.001400267               0.999999988               0.000123442              -0.001413696               0.999999988               0.000183276              -0.001425764               0.999999988              -0.000164483              -0.001258938               0.999999988              -0.000112765              -0.001272724               0.999999988              -0.000088004              -0.001276312               0.999999988              -0.000075826              -0.001281980               0.999999988              -0.000069579              -0.001292745               0.999999988              -0.000065757              -0.001308541               0.999999988              -0.000062257              -0.001328440               0.999999988              -0.000057566              -0.001351266               0.999999988              -0.000051247              -0.001376004               0.999999988              -0.000042732              -0.001401799               0.999999988              -0.000031035              -0.001428136               0.999999988              -0.000015369              -0.001454523               0.999999988               0.000004660              -0.001480522               0.999999988               0.000029445              -0.001505827               0.999999988               0.000059973              -0.001530046               0.999999988               0.000097737              -0.001552720               0.999999988               0.000144786              -0.001573483               0.999999988              -0.000082618              -0.001279782               0.999999988              -0.000056152              -0.001306099               0.999999988              -0.000043073              -0.001317107               0.999999988              -0.000036370              -0.001327286               0.999999988              -0.000032850              -0.001340969               0.999999988              -0.000030682              -0.001359018               0.999999988              -0.000028770              -0.001381117               0.999999988              -0.000026362              -0.001406248               0.999999988              -0.000023246              -0.001433660               0.999999988              -0.000019054              -0.001462783               0.999999988              -0.000013099              -0.001493169               0.999999988              -0.000005124              -0.001524263               0.999999988               0.000005116              -0.001555609               0.999999988               0.000018098              -0.001586800               0.999999988               0.000034288              -0.001617355               0.999999988               0.000054598              -0.001646717               0.999999988               0.000080634              -0.001674091               0.999999988              -0.000000000              -0.001286748               0.999999988              -0.000000000              -0.001317391               0.999999988               0.000000000              -0.001331101               0.999999988              -0.000000000              -0.001342974               0.999999988               0.000000000              -0.001357768               0.999999988              -0.000000000              -0.001376666               0.999999988               0.000000000              -0.001399519               0.999999988               0.000000000              -0.001425455               0.999999988              -0.000000000              -0.001453892               0.999999988              -0.000000000              -0.001484216               0.999999988              -0.000000000              -0.001515929               0.999999988               0.000000000              -0.001548621               0.999999988              -0.000000000              -0.001581887               0.999999988               0.000000000              -0.001615227               0.999999988               0.000000000              -0.001647985               0.999999988              -0.000000000              -0.001679600               0.999999988              -0.000000000              -0.001709309               0.999999988               0.000879608               0.000000000               0.999999988               0.000925524               0.000000000               0.999999988               0.000944272               0.000000000               0.999999988               0.000954199               0.000000000               0.999999988               0.000961987              -0.000000000               0.999999988               0.000969992               0.000000000               0.999999988               0.000978915               0.000000000               0.999999988               0.000988734               0.000000000               0.999999988               0.000999175               0.000000000               0.999999988               0.001010038               0.000000000               0.999999988               0.001020864               0.000000000               0.999999988               0.001031343              -0.000000000               0.999999988               0.001041089               0.000000000               0.999999988               0.001049709              -0.000000000               0.999999988               0.001056695               0.000000000               0.999999988               0.001061398               0.000000000               0.999999988               0.001063128               0.000000000               0.999999988               0.000874765              -0.000121120               0.999999988               0.000916687              -0.000095499               0.999999988               0.000932831              -0.000083459               0.999999988               0.000941036              -0.000078207               0.999999988               0.000947574              -0.000076122               0.999999988               0.000954539              -0.000075603               0.999999988               0.000962467              -0.000075554               0.999999988               0.000971255              -0.000075212               0.999999988               0.000980694              -0.000074347               0.999999988               0.000990416              -0.000072498               0.999999988               0.000999870              -0.000069317               0.999999988               0.001008721              -0.000064527               0.999999988               0.001016561              -0.000057737               0.999999988               0.001022944              -0.000048562               0.999999988               0.001027471              -0.000036462               0.999999988               0.001029739              -0.000020551               0.999999988               0.001029126               0.000000552               0.999999988               0.000860397              -0.000241218               0.999999988               0.000890642              -0.000190702               0.999999988               0.000899441              -0.000167865               0.999999988               0.000902962              -0.000158351               0.999999988               0.000906230              -0.000155003               0.999999988               0.000910547              -0.000154474               0.999999988               0.000915952              -0.000154647               0.999999988               0.000922081              -0.000154318               0.999999988               0.000928628              -0.000152848               0.999999988               0.000935003              -0.000149366               0.999999988               0.000940569              -0.000143118               0.999999988               0.000944848              -0.000133648               0.999999988               0.000947392              -0.000120348               0.999999988               0.000947930              -0.000102804               0.999999988               0.000946232              -0.000080348               0.999999988               0.000942042              -0.000051585               0.999999988               0.000935196              -0.000014842               0.999999988               0.000836863              -0.000359284               0.999999988               0.000848655              -0.000285428               0.999999988               0.000846788              -0.000254039               0.999999988               0.000843956              -0.000242084               0.999999988               0.000842905              -0.000238720               0.999999988               0.000843852              -0.000238931               0.999999988               0.000846060              -0.000239924               0.999999988               0.000848732              -0.000239850               0.999999988               0.000851017              -0.000237831               0.999999988               0.000852253              -0.000232736               0.999999988               0.000851804              -0.000223540               0.999999988               0.000849220              -0.000209651               0.999999988               0.000844209              -0.000190749               0.999999988               0.000836582              -0.000166465               0.999999988               0.000826310              -0.000136074               0.999999988               0.000813395              -0.000098594               0.999999988               0.000798098              -0.000053104               0.999999988               0.000804503              -0.000474365               0.999999988               0.000792709              -0.000379785               0.999999988               0.000778960              -0.000342612               0.999999988               0.000769693              -0.000330175               0.999999988               0.000764584              -0.000328070               0.999999988               0.000762243              -0.000329867               0.999999988               0.000760987              -0.000331977               0.999999988               0.000759586              -0.000332254               0.999999988               0.000756814              -0.000329458               0.999999988               0.000751852              -0.000322596               0.999999988               0.000744057              -0.000310522               0.999999988               0.000733276              -0.000292907               0.999999988               0.000719410              -0.000269257               0.999999988               0.000702452              -0.000239563               0.999999988               0.000682409              -0.000203516               0.999999988               0.000659536              -0.000160939               0.999999988               0.000634526              -0.000112021               0.999999988               0.000763783              -0.000585482               0.999999988               0.000725411              -0.000474070               0.999999988               0.000700575              -0.000433986               0.999999988               0.000686385              -0.000422613               0.999999988               0.000678520              -0.000422584               0.999999988               0.000673505              -0.000426254               0.999999988               0.000668987              -0.000429485               0.999999988               0.000663168              -0.000429958               0.999999988               0.000654645              -0.000426051               0.999999988               0.000642470              -0.000417031               0.999999988               0.000626298              -0.000402345               0.999999988               0.000606247              -0.000381212               0.999999988               0.000582309              -0.000353653               0.999999988               0.000554566              -0.000319901               0.999999988               0.000523463              -0.000280350               0.999999988               0.000489758              -0.000235615               0.999999988               0.000454504              -0.000186885               0.999999988               0.000715456              -0.000691538               0.999999988               0.000650074              -0.000568377               0.999999988               0.000616708              -0.000527827               0.999999988               0.000599953              -0.000518482               0.999999988               0.000590834              -0.000520762               0.999999988               0.000584068              -0.000526049               0.999999988               0.000576454              -0.000530077               0.999999988               0.000565699              -0.000530159               0.999999988               0.000550348              -0.000524735               0.999999988               0.000529780              -0.000513382               0.999999988               0.000504104              -0.000496055               0.999999988               0.000473316              -0.000472027               0.999999988               0.000437980              -0.000441467               0.999999988               0.000398598              -0.000405210               0.999999988               0.000356203              -0.000364175               0.999999988               0.000311958              -0.000319971               0.999999988               0.000267227              -0.000274366               0.999999988               0.000660451              -0.000791360               0.999999988               0.000570211              -0.000662554               0.999999988               0.000532040              -0.000623267               0.999999988               0.000515506              -0.000616049               0.999999988               0.000506524              -0.000620293               0.999999988               0.000498441              -0.000626807               0.999999988               0.000487277              -0.000630917               0.999999988               0.000470544              -0.000630001               0.999999988               0.000447383              -0.000622689               0.999999988               0.000417520              -0.000609014               0.999999988               0.000381160              -0.000589150               0.999999988               0.000338820              -0.000562644               0.999999988               0.000291446              -0.000530296               0.999999988               0.000240312              -0.000493262               0.999999988               0.000186906              -0.000453132               0.999999988               0.000132534              -0.000411745               0.999999988               0.000078443              -0.000371077               0.999999988               0.000600543              -0.000883024               0.999999988               0.000488740              -0.000756365               0.999999988               0.000450975              -0.000718792               0.999999988               0.000436628              -0.000713250               0.999999988               0.000428610              -0.000718914               0.999999988               0.000418846              -0.000726084               0.999999988               0.000403198              -0.000729755               0.999999988               0.000379596              -0.000727500               0.999999988               0.000347617              -0.000718406               0.999999988               0.000307338              -0.000702609               0.999999988               0.000259306              -0.000680511               0.999999988               0.000204542              -0.000652531               0.999999988               0.000144599              -0.000620007               0.999999988               0.000081160              -0.000584615               0.999999988               0.000015797              -0.000548322               0.999999988              -0.000049853              -0.000512734               0.999999988              -0.000114914              -0.000478640               0.999999988               0.000538284              -0.000970001               0.999999988               0.000420219              -0.000862398               0.999999988               0.000380255              -0.000821939               0.999999988               0.000365759              -0.000812210               0.999999988               0.000358747              -0.000815572               0.999999988               0.000351155              -0.000823058               0.999999988               0.000338876              -0.000829595               0.999999988               0.000319838              -0.000832541               0.999999988               0.000293051              -0.000830567               0.999999988               0.000258509              -0.000823500               0.999999988               0.000216254              -0.000811444               0.999999988               0.000166912              -0.000794794               0.999999988               0.000111447              -0.000774148               0.999999988               0.000050872              -0.000750455               0.999999988              -0.000013605              -0.000724967               0.999999988              -0.000080580              -0.000699283               0.999999988              -0.000148214              -0.000674835               0.999999988               0.000470464              -0.001049355               0.999999988               0.000354059              -0.000965225               0.999999988               0.000312178              -0.000927963               0.999999988               0.000296600              -0.000916480               0.999999988               0.000289726              -0.000918444               0.999999988               0.000283528              -0.000926359               0.999999988               0.000273909              -0.000935536               0.999999988               0.000258820              -0.000943151               0.999999988               0.000237026              -0.000947623               0.999999988               0.000208194              -0.000948380               0.999999988               0.000171952              -0.000945348               0.999999988               0.000128523              -0.000938745               0.999999988               0.000078361              -0.000928907               0.999999988               0.000022167              -0.000916247               0.999999988              -0.000039513              -0.000901473               0.999999988              -0.000105607              -0.000885582               0.999999988              -0.000174083              -0.000869909               0.999999988               0.000398526              -0.001119016               0.999999988               0.000290452              -0.001061532               0.999999988               0.000248408              -0.001031846               0.999999988               0.000231617              -0.001021797               0.999999988               0.000224309              -0.001023890               0.999999988               0.000218717              -0.001032763               0.999999988               0.000210968              -0.001044518               0.999999988               0.000199220              -0.001056482               0.999999988               0.000182160              -0.001066940               0.999999988               0.000158883              -0.001075022               0.999999988               0.000128684              -0.001080379               0.999999988               0.000091451              -0.001082934               0.999999988               0.000047576              -0.001082864               0.999999988              -0.000002934              -0.001080439               0.999999988              -0.000060218              -0.001076088               0.999999988              -0.000123585              -0.001070209               0.999999988              -0.000191957              -0.001063769               0.999999988               0.000323075              -0.001177856               0.999999988               0.000229325              -0.001147457               0.999999988               0.000189801              -0.001128385               0.999999988               0.000172718              -0.001122344               0.999999988               0.000164812              -0.001126347               0.999999988               0.000159635              -0.001136938               0.999999988               0.000153281              -0.001151269               0.999999988               0.000144251              -0.001167282               0.999999988               0.000131312              -0.001183281               0.999999988               0.000113330              -0.001198211               0.999999988               0.000089345              -0.001211469               0.999999988               0.000058931              -0.001222740               0.999999988               0.000022003              -0.001232053               0.999999988              -0.000021727              -0.001239361               0.999999988              -0.000072694              -0.001244861               0.999999988              -0.000131138              -0.001248812               0.999999988              -0.000197046              -0.001251752               0.999999988               0.000244850              -0.001224735               0.999999988               0.000170320              -0.001218952               0.999999988               0.000136535              -0.001211764               0.999999988               0.000120845              -0.001211434               0.999999988               0.000113103              -0.001218569               0.999999988               0.000108352              -0.001231672               0.999999988               0.000103381              -0.001248812               0.999999988               0.000096612              -0.001268372               0.999999988               0.000087134              -0.001289272               0.999999988               0.000074051              -0.001310374               0.999999988               0.000056403              -0.001330768               0.999999988               0.000033246              -0.001350222               0.999999988               0.000004206              -0.001368465               0.999999988              -0.000030990              -0.001385206               0.999999988              -0.000073169              -0.001400267               0.999999988              -0.000123442              -0.001413696               0.999999988              -0.000183276              -0.001425764               0.999999988               0.000164483              -0.001258938               0.999999988               0.000112765              -0.001272724               0.999999988               0.000088004              -0.001276312               0.999999988               0.000075826              -0.001281980               0.999999988               0.000069579              -0.001292745               0.999999988               0.000065757              -0.001308541               0.999999988               0.000062257              -0.001328440               0.999999988               0.000057566              -0.001351266               0.999999988               0.000051247              -0.001376004               0.999999988               0.000042732              -0.001401799               0.999999988               0.000031035              -0.001428136               0.999999988               0.000015369              -0.001454523               0.999999988              -0.000004660              -0.001480522               0.999999988              -0.000029445              -0.001505827               0.999999988              -0.000059973              -0.001530046               0.999999988              -0.000097737              -0.001552720               0.999999988              -0.000144786              -0.001573483               0.999999988               0.000082618              -0.001279782               0.999999988               0.000056152              -0.001306099               0.999999988               0.000043073              -0.001317107               0.999999988               0.000036370              -0.001327286               0.999999988               0.000032850              -0.001340969               0.999999988               0.000030682              -0.001359018               0.999999988               0.000028770              -0.001381117               0.999999988               0.000026362              -0.001406248               0.999999988               0.000023246              -0.001433660               0.999999988               0.000019054              -0.001462783               0.999999988               0.000013099              -0.001493169               0.999999988               0.000005124              -0.001524263               0.999999988              -0.000005116              -0.001555609               0.999999988              -0.000018098              -0.001586800               0.999999988              -0.000034288              -0.001617355               0.999999988              -0.000054598              -0.001646717               0.999999988              -0.000080634              -0.001674091               0.999999988              -0.000000000              -0.001286748               0.999999988              -0.000000000              -0.001317391               0.999999988               0.000000000              -0.001331101               0.999999988              -0.000000000              -0.001342974               0.999999988               0.000000000              -0.001357768               0.999999988              -0.000000000              -0.001376666               0.999999988               0.000000000              -0.001399519               0.999999988               0.000000000              -0.001425455               0.999999988              -0.000000000              -0.001453892               0.999999988              -0.000000000              -0.001484216               0.999999988              -0.000000000              -0.001515929               0.999999988               0.000000000              -0.001548621               0.999999988              -0.000000000              -0.001581887               0.999999988               0.000000000              -0.001615227               0.999999988               0.000000000              -0.001647985               0.999999988              -0.000000000              -0.001679600               0.999999988              -0.000000000              -0.001709309               0.999999988               0.000879608               0.000000000               0.999999988               0.000925524               0.000000000               0.999999988               0.000944272               0.000000000               0.999999988               0.000954199               0.000000000               0.999999988               0.000961987              -0.000000000               0.999999988               0.000969992               0.000000000               0.999999988               0.000978915               0.000000000               0.999999988               0.000988734               0.000000000               0.999999988               0.000999175               0.000000000               0.999999988               0.001010038               0.000000000               0.999999988               0.001020864               0.000000000               0.999999988               0.001031343              -0.000000000               0.999999988               0.001041089               0.000000000               0.999999988               0.001049709              -0.000000000               0.999999988               0.001056695               0.000000000               0.999999988               0.001061398               0.000000000               0.999999988               0.001063128               0.000000000               0.999999988               0.000874765               0.000121120               0.999999988               0.000916687               0.000095499               0.999999988               0.000932831               0.000083459               0.999999988               0.000941036               0.000078207               0.999999988               0.000947574               0.000076122               0.999999988               0.000954539               0.000075603               0.999999988               0.000962467               0.000075554               0.999999988               0.000971255               0.000075212               0.999999988               0.000980694               0.000074347               0.999999988               0.000990416               0.000072498               0.999999988               0.000999870               0.000069317               0.999999988               0.001008721               0.000064527               0.999999988               0.001016561               0.000057737               0.999999988               0.001022944               0.000048562               0.999999988               0.001027471               0.000036462               0.999999988               0.001029739               0.000020551               0.999999988               0.001029126              -0.000000552               0.999999988               0.000860397               0.000241218               0.999999988               0.000890642               0.000190702               0.999999988               0.000899441               0.000167865               0.999999988               0.000902962               0.000158351               0.999999988               0.000906230               0.000155003               0.999999988               0.000910547               0.000154474               0.999999988               0.000915952               0.000154647               0.999999988               0.000922081               0.000154318               0.999999988               0.000928628               0.000152848               0.999999988               0.000935003               0.000149366               0.999999988               0.000940569               0.000143118               0.999999988               0.000944848               0.000133648               0.999999988               0.000947392               0.000120348               0.999999988               0.000947930               0.000102804               0.999999988               0.000946232               0.000080348               0.999999988               0.000942042               0.000051585               0.999999988               0.000935196               0.000014842               0.999999988               0.000836863               0.000359284               0.999999988               0.000848655               0.000285428               0.999999988               0.000846788               0.000254039               0.999999988               0.000843956               0.000242084               0.999999988               0.000842905               0.000238720               0.999999988               0.000843852               0.000238931               0.999999988               0.000846060               0.000239924               0.999999988               0.000848732               0.000239850               0.999999988               0.000851017               0.000237831               0.999999988               0.000852253               0.000232736               0.999999988               0.000851804               0.000223540               0.999999988               0.000849220               0.000209651               0.999999988               0.000844209               0.000190749               0.999999988               0.000836582               0.000166465               0.999999988               0.000826310               0.000136074               0.999999988               0.000813395               0.000098594               0.999999988               0.000798098               0.000053104               0.999999988               0.000804503               0.000474365               0.999999988               0.000792709               0.000379785               0.999999988               0.000778960               0.000342612               0.999999988               0.000769693               0.000330175               0.999999988               0.000764584               0.000328070               0.999999988               0.000762243               0.000329867               0.999999988               0.000760987               0.000331977               0.999999988               0.000759586               0.000332254               0.999999988               0.000756814               0.000329458               0.999999988               0.000751852               0.000322596               0.999999988               0.000744057               0.000310522               0.999999988               0.000733276               0.000292907               0.999999988               0.000719410               0.000269257               0.999999988               0.000702452               0.000239563               0.999999988               0.000682409               0.000203516               0.999999988               0.000659536               0.000160939               0.999999988               0.000634526               0.000112021               0.999999988               0.000763783               0.000585482               0.999999988               0.000725411               0.000474070               0.999999988               0.000700575               0.000433986               0.999999988               0.000686385               0.000422613               0.999999988               0.000678520               0.000422584               0.999999988               0.000673505               0.000426254               0.999999988               0.000668987               0.000429485               0.999999988               0.000663168               0.000429958               0.999999988               0.000654645               0.000426051               0.999999988               0.000642470               0.000417031               0.999999988               0.000626298               0.000402345               0.999999988               0.000606247               0.000381212               0.999999988               0.000582309               0.000353653               0.999999988               0.000554566               0.000319901               0.999999988               0.000523463               0.000280350               0.999999988               0.000489758               0.000235615               0.999999988               0.000454504               0.000186885               0.999999988               0.000715456               0.000691538               0.999999988               0.000650074               0.000568377               0.999999988               0.000616708               0.000527827               0.999999988               0.000599953               0.000518482               0.999999988               0.000590834               0.000520762               0.999999988               0.000584068               0.000526049               0.999999988               0.000576454               0.000530077               0.999999988               0.000565699               0.000530159               0.999999988               0.000550348               0.000524735               0.999999988               0.000529780               0.000513382               0.999999988               0.000504104               0.000496055               0.999999988               0.000473316               0.000472027               0.999999988               0.000437980               0.000441467               0.999999988               0.000398598               0.000405210               0.999999988               0.000356203               0.000364175               0.999999988               0.000311958               0.000319971               0.999999988               0.000267227               0.000274366               0.999999988               0.000660451               0.000791360               0.999999988               0.000570211               0.000662554               0.999999988               0.000532040               0.000623267               0.999999988               0.000515506               0.000616049               0.999999988               0.000506524               0.000620293               0.999999988               0.000498441               0.000626807               0.999999988               0.000487277               0.000630917               0.999999988               0.000470544               0.000630001               0.999999988               0.000447383               0.000622689               0.999999988               0.000417520               0.000609014               0.999999988               0.000381160               0.000589150               0.999999988               0.000338820               0.000562644               0.999999988               0.000291446               0.000530296               0.999999988               0.000240312               0.000493262               0.999999988               0.000186906               0.000453132               0.999999988               0.000132534               0.000411745               0.999999988               0.000078443               0.000371077               0.999999988               0.000600543               0.000883024               0.999999988               0.000488740               0.000756365               0.999999988               0.000450975               0.000718792               0.999999988               0.000436628               0.000713250               0.999999988               0.000428610               0.000718914               0.999999988               0.000418846               0.000726084               0.999999988               0.000403198               0.000729755               0.999999988               0.000379596               0.000727500               0.999999988               0.000347617               0.000718406               0.999999988               0.000307338               0.000702609               0.999999988               0.000259306               0.000680511               0.999999988               0.000204542               0.000652531               0.999999988               0.000144599               0.000620007               0.999999988               0.000081160               0.000584615               0.999999988               0.000015797               0.000548322               0.999999988              -0.000049853               0.000512734               0.999999988              -0.000114914               0.000478640               0.999999988               0.000538284               0.000970001               0.999999988               0.000420219               0.000862398               0.999999988               0.000380255               0.000821939               0.999999988               0.000365759               0.000812210               0.999999988               0.000358747               0.000815572               0.999999988               0.000351155               0.000823058               0.999999988               0.000338876               0.000829595               0.999999988               0.000319838               0.000832541               0.999999988               0.000293051               0.000830567               0.999999988               0.000258509               0.000823500               0.999999988               0.000216254               0.000811444               0.999999988               0.000166912               0.000794794               0.999999988               0.000111447               0.000774148               0.999999988               0.000050872               0.000750455               0.999999988              -0.000013605               0.000724967               0.999999988              -0.000080580               0.000699283               0.999999988              -0.000148214               0.000674835               0.999999988               0.000470464               0.001049355               0.999999988               0.000354059               0.000965225               0.999999988               0.000312178               0.000927963               0.999999988               0.000296600               0.000916480               0.999999988               0.000289726               0.000918444               0.999999988               0.000283528               0.000926359               0.999999988               0.000273909               0.000935536               0.999999988               0.000258820               0.000943151               0.999999988               0.000237026               0.000947623               0.999999988               0.000208194               0.000948380               0.999999988               0.000171952               0.000945348               0.999999988               0.000128523               0.000938745               0.999999988               0.000078361               0.000928907               0.999999988               0.000022167               0.000916247               0.999999988              -0.000039513               0.000901473               0.999999988              -0.000105607               0.000885582               0.999999988              -0.000174083               0.000869909               0.999999988               0.000398526               0.001119016               0.999999988               0.000290452               0.001061532               0.999999988               0.000248408               0.001031846               0.999999988               0.000231617               0.001021797               0.999999988               0.000224309               0.001023890               0.999999988               0.000218717               0.001032763               0.999999988               0.000210968               0.001044518               0.999999988               0.000199220               0.001056482               0.999999988               0.000182160               0.001066940               0.999999988               0.000158883               0.001075022               0.999999988               0.000128684               0.001080379               0.999999988               0.000091451               0.001082934               0.999999988               0.000047576               0.001082864               0.999999988              -0.000002934               0.001080439               0.999999988              -0.000060218               0.001076088               0.999999988              -0.000123585               0.001070209               0.999999988              -0.000191957               0.001063769               0.999999988               0.000323075               0.001177856               0.999999988               0.000229325               0.001147457               0.999999988               0.000189801               0.001128385               0.999999988               0.000172718               0.001122344               0.999999988               0.000164812               0.001126347               0.999999988               0.000159635               0.001136938               0.999999988               0.000153281               0.001151269               0.999999988               0.000144251               0.001167282               0.999999988               0.000131312               0.001183281               0.999999988               0.000113330               0.001198211               0.999999988               0.000089345               0.001211469               0.999999988               0.000058931               0.001222740               0.999999988               0.000022003               0.001232053               0.999999988              -0.000021727               0.001239361               0.999999988              -0.000072694               0.001244861               0.999999988              -0.000131138               0.001248812               0.999999988              -0.000197046               0.001251752               0.999999988               0.000244850               0.001224735               0.999999988               0.000170320               0.001218952               0.999999988               0.000136535               0.001211764               0.999999988               0.000120845               0.001211434               0.999999988               0.000113103               0.001218569               0.999999988               0.000108352               0.001231672               0.999999988               0.000103381               0.001248812               0.999999988               0.000096612               0.001268372               0.999999988               0.000087134               0.001289272               0.999999988               0.000074051               0.001310374               0.999999988               0.000056403               0.001330768               0.999999988               0.000033246               0.001350222               0.999999988               0.000004206               0.001368465               0.999999988              -0.000030990               0.001385206               0.999999988              -0.000073169               0.001400267               0.999999988              -0.000123442               0.001413696               0.999999988              -0.000183276               0.001425764               0.999999988               0.000164483               0.001258938               0.999999988               0.000112765               0.001272724               0.999999988               0.000088004               0.001276312               0.999999988               0.000075826               0.001281980               0.999999988               0.000069579               0.001292745               0.999999988               0.000065757               0.001308541               0.999999988               0.000062257               0.001328440               0.999999988               0.000057566               0.001351266               0.999999988               0.000051247               0.001376004               0.999999988               0.000042732               0.001401799               0.999999988               0.000031035               0.001428136               0.999999988               0.000015369               0.001454523               0.999999988              -0.000004660               0.001480522               0.999999988              -0.000029445               0.001505827               0.999999988              -0.000059973               0.001530046               0.999999988              -0.000097737               0.001552720               0.999999988              -0.000144786               0.001573483               0.999999988               0.000082618               0.001279782               0.999999988               0.000056152               0.001306099               0.999999988               0.000043073               0.001317107               0.999999988               0.000036370               0.001327286               0.999999988               0.000032850               0.001340969               0.999999988               0.000030682               0.001359018               0.999999988               0.000028770               0.001381117               0.999999988               0.000026362               0.001406248               0.999999988               0.000023246               0.001433660               0.999999988               0.000019054               0.001462783               0.999999988               0.000013099               0.001493169               0.999999988               0.000005124               0.001524263               0.999999988              -0.000005116               0.001555609               0.999999988              -0.000018098               0.001586800               0.999999988              -0.000034288               0.001617355               0.999999988              -0.000054598               0.001646717               0.999999988              -0.000080634               0.001674091               0.999999988              -0.000000000               0.001286748               0.999999988               0.000000000               0.001317391               0.999999988              -0.000000000               0.001331101               0.999999988               0.000000000               0.001342974               0.999999988               0.000000000               0.001357768               0.999999988               0.000000000               0.001376666               0.999999988              -0.000000000               0.001399519               0.999999988               0.000000000               0.001425455               0.999999988               0.000000000               0.001453892               0.999999988               0.000000000               0.001484216               0.999999988              -0.000000000               0.001515929               0.999999988              -0.000000000               0.001548621               0.999999988              -0.000000000               0.001581887               0.999999988              -0.000000000               0.001615227               0.999999988               0.000000000               0.001647985               0.999999988              -0.000000000               0.001679600               0.999999988              -0.000000000               0.001709309               0.999999988 </DataArray>
<DataArray type="Float64"                                    Name="defo"                                                      NumberOfComponents=" 3" format="ascii">
             -0.000879608               0.000000000               0.999999988              -0.000925524               0.000000000               0.999999988              -0.000944272              -0.000000000               0.999999988              -0.000954199               0.000000000               0.999999988              -0.000961987               0.000000000               0.999999988              -0.000969992              -0.000000000               0.999999988              -0.000978915               0.000000000               0.999999988              -0.000988734               0.000000000               0.999999988              -0.000999175              -0.000000000               0.999999988              -0.001010038              -0.000000000               0.999999988              -0.001020864              -0.000000000               0.999999988              -0.001031343              -0.000000000               0.999999988              -0.001041089              -0.000000000               0.999999988              -0.001049709               0.000000000               0.999999988              -0.001056695              -0.000000000               0.999999988              -0.001061398              -0.000000000               0.999999988              -0.001063128              -0.000000000               0.999999988              -0.000874765               0.000121120               0.999999988              -0.000916687               0.000095499               0.999999988              -0.000932831               0.000083459               0.999999988              -0.000941036               0.000078207               0.999999988              -0.000947574               0.000076122               0.999999988              -0.000954539               0.000075603               0.999999988              -0.000962467               0.000075554               0.999999988              -0.000971255               0.000075212               0.999999988              -0.000980694               0.000074347               0.999999988              -0.000990416               0.000072498               0.999999988              -0.000999870               0.000069317               0.999999988              -0.001008721               0.000064527               0.999999988              -0.001016561               0.000057737               0.999999988              -0.001022944               0.000048562               0.999999988              -0.001027471               0.000036462               0.999999988              -0.001029739               0.000020551               0.999999988              -0.001029126              -0.000000552               0.999999988              -0.000860397               0.000241218               0.999999988              -0.000890642               0.000190702               0.999999988              -0.000899441               0.000167865               0.999999988              -0.000902962               0.000158351               0.999999988              -0.000906230               0.000155003               0.999999988              -0.000910547               0.000154474               0.999999988              -0.000915952               0.000154647               0.999999988              -0.000922081               0.000154318               0.999999988              -0.000928628               0.000152848               0.999999988              -0.000935003               0.000149366               0.999999988              -0.000940569               0.000143118               0.999999988              -0.000944848               0.000133648               0.999999988              -0.000947392               0.000120348               0.999999988              -0.000947930               0.000102804               0.999999988              -0.000946232               0.000080348               0.999999988              -0.000942042               0.000051585               0.999999988              -0.000935196               0.000014842               0.999999988              -0.000836863               0.000359284               0.999999988              -0.000848655               0.000285428               0.999999988              -0.000846788               0.000254039               0.999999988              -0.000843956               0.000242084               0.999999988              -0.000842905               0.000238720               0.999999988              -0.000843852               0.000238931               0.999999988              -0.000846060               0.000239924               0.999999988              -0.000848732               0.000239850               0.999999988              -0.000851017               0.000237831               0.999999988              -0.000852253               0.000232736               0.999999988              -0.000851804               0.000223540               0.999999988              -0.000849220               0.000209651               0.999999988              -0.000844209               0.000190749               0.999999988              -0.000836582               0.000166465               0.999999988              -0.000826310               0.000136074               0.999999988              -0.000813395               0.000098594               0.999999988              -0.000798098               0.000053104               0.999999988              -0.000804503               0.000474365               0.999999988              -0.000792709               0.000379785               0.999999988              -0.000778960               0.000342612               0.999999988              -0.000769693               0.000330175               0.999999988              -0.000764584               0.000328070               0.999999988              -0.000762243               0.000329867               0.999999988              -0.000760987               0.000331977               0.999999988              -0.000759586               0.000332254               0.999999988              -0.000756814               0.000329458               0.999999988              -0.000751852               0.000322596               0.999999988              -0.000744057               0.000310522               0.999999988              -0.000733276               0.000292907               0.999999988              -0.000719410               0.000269257               0.999999988              -0.000702452               0.000239563               0.999999988              -0.000682409               0.000203516               0.999999988              -0.000659536               0.000160939               0.999999988              -0.000634526               0.000112021               0.999999988              -0.000763783               0.000585482               0.999999988              -0.000725411               0.000474070               0.999999988              -0.000700575               0.000433986               0.999999988              -0.000686385               0.000422613               0.999999988              -0.000678520               0.000422584               0.999999988              -0.000673505               0.000426254               0.999999988              -0.000668987               0.000429485               0.999999988              -0.000663168               0.000429958               0.999999988              -0.000654645               0.000426051               0.999999988              -0.000642470               0.000417031               0.999999988              -0.000626298               0.000402345               0.999999988              -0.000606247               0.000381212               0.999999988              -0.000582309               0.000353653               0.999999988              -0.000554566               0.000319901               0.999999988              -0.000523463               0.000280350               0.999999988              -0.000489758               0.000235615               0.999999988              -0.000454504               0.000186885               0.999999988              -0.000715456               0.000691538               0.999999988              -0.000650074               0.000568377               0.999999988              -0.000616708               0.000527827               0.999999988              -0.000599953               0.000518482               0.999999988              -0.000590834               0.000520762               0.999999988              -0.000584068               0.000526049               0.999999988              -0.000576454               0.000530077               0.999999988              -0.000565699               0.000530159               0.999999988              -0.000550348               0.000524735               0.999999988              -0.000529780               0.000513382               0.999999988              -0.000504104               0.000496055               0.999999988              -0.000473316               0.000472027               0.999999988              -0.000437980               0.000441467               0.999999988              -0.000398598               0.000405210               0.999999988              -0.000356203               0.000364175               0.999999988              -0.000311958               0.000319971               0.999999988              -0.000267227               0.000274366               0.999999988              -0.000660451               0.000791360               0.999999988              -0.000570211               0.000662554               0.999999988              -0.000532040               0.000623267               0.999999988              -0.000515506               0.000616049               0.999999988              -0.000506524               0.000620293               0.999999988              -0.000498441               0.000626807               0.999999988              -0.000487277               0.000630917               0.999999988              -0.000470544               0.000630001               0.999999988              -0.000447383               0.000622689               0.999999988              -0.000417520               0.000609014               0.999999988              -0.000381160               0.000589150               0.999999988              -0.000338820               0.000562644               0.999999988              -0.000291446               0.000530296               0.999999988              -0.000240312               0.000493262               0.999999988              -0.000186906               0.000453132               0.999999988              -0.000132534               0.000411745               0.999999988              -0.000078443               0.000371077               0.999999988              -0.000600543               0.000883024               0.999999988              -0.000488740               0.000756365               0.999999988              -0.000450975               0.000718792               0.999999988              -0.000436628               0.000713250               0.999999988              -0.000428610               0.000718914               0.999999988              -0.000418846               0.000726084               0.999999988              -0.000403198               0.000729755               0.999999988              -0.000379596               0.000727500               0.999999988              -0.000347617               0.000718406               0.999999988              -0.000307338               0.000702609               0.999999988              -0.000259306               0.000680511               0.999999988              -0.000204542               0.000652531               0.999999988              -0.000144599               0.000620007               0.999999988              -0.000081160               0.000584615               0.999999988              -0.000015797               0.000548322               0.999999988               0.000049853               0.000512734               0.999999988               0.000114914               0.000478640               0.999999988              -0.000538284               0.000970001               0.999999988              -0.000420219               0.000862398               0.999999988              -0.000380255               0.000821939               0.999999988              -0.000365759               0.000812210               0.999999988              -0.000358747               0.000815572               0.999999988              -0.000351155               0.000823058               0.999999988              -0.000338876               0.000829595               0.999999988              -0.000319838               0.000832541               0.999999988              -0.000293051               0.000830567               0.999999988              -0.000258509               0.000823500               0.999999988              -0.000216254               0.000811444               0.999999988              -0.000166912               0.000794794               0.999999988              -0.000111447               0.000774148               0.999999988              -0.000050872               0.000750455               0.999999988               0.000013605               0.000724967               0.999999988               0.000080580               0.000699283               0.999999988               0.000148214               0.000674835               0.999999988              -0.000470464               0.001049355               0.999999988              -0.000354059               0.000965225               0.999999988              -0.000312178               0.000927963               0.999999988              -0.000296600               0.000916480               0.999999988              -0.000289726               0.000918444               0.999999988              -0.000283528               0.000926359               0.999999988              -0.000273909               0.000935536               0.999999988              -0.000258820               0.000943151               0.999999988              -0.000237026               0.000947623               0.999999988              -0.000208194               0.000948380               0.999999988              -0.000171952               0.000945348               0.999999988              -0.000128523               0.000938745               0.999999988              -0.000078361               0.000928907               0.999999988              -0.000022167               0.000916247               0.999999988               0.000039513               0.000901473               0.999999988               0.000105607               0.000885582               0.999999988               0.000174083               0.000869909               0.999999988              -0.000398526               0.001119016               0.999999988              -0.000290452               0.001061532               0.999999988              -0.000248408               0.001031846               0.999999988              -0.000231617               0.001021797               0.999999988              -0.000224309               0.001023890               0.999999988              -0.000218717               0.001032763               0.999999988              -0.000210968               0.001044518               0.999999988              -0.000199220               0.001056482               0.999999988              -0.000182160               0.001066940               0.999999988              -0.000158883               0.001075022               0.999999988              -0.000128684               0.001080379               0.999999988              -0.000091451               0.001082934               0.999999988              -0.000047576               0.001082864               0.999999988               0.000002934               0.001080439               0.999999988               0.000060218               0.001076088               0.999999988               0.000123585               0.001070209               0.999999988               0.000191957               0.001063769               0.999999988              -0.000323075               0.001177856               0.999999988              -0.000229325               0.001147457               0.999999988              -0.000189801               0.001128385               0.999999988              -0.000172718               0.001122344               0.999999988              -0.000164812               0.001126347               0.999999988              -0.000159635               0.001136938               0.999999988              -0.000153281               0.001151269               0.999999988              -0.000144251               0.001167282               0.999999988              -0.000131312               0.001183281               0.999999988              -0.000113330               0.001198211               0.999999988              -0.000089345               0.001211469               0.999999988              -0.000058931               0.001222740               0.999999988              -0.000022003               0.001232053               0.999999988               0.000021727               0.001239361               0.999999988               0.000072694               0.001244861               0.999999988               0.000131138               0.001248812               0.999999988               0.000197046               0.001251752               0.999999988              -0.000244850               0.001224735               0.999999988              -0.000170320               0.001218952               0.999999988              -0.000136535               0.001211764               0.999999988              -0.000120845               0.001211434               0.999999988              -0.000113103               0.001218569               0.999999988              -0.000108352               0.001231672               0.999999988              -0.000103381               0.001248812               0.999999988              -0.000096612               0.001268372               0.999999988              -0.000087134               0.001289272               0.999999988              -0.000074051               0.001310374               0.999999988              -0.000056403               0.001330768               0.999999988              -0.000033246               0.001350222               0.999999988              -0.000004206               0.001368465               0.999999988               0.000030990               0.001385206               0.999999988               0.000073169               0.001400267               0.999999988               0.000123442               0.001413696               0.999999988               0.000183276               0.001425764               0.999999988              -0.000164483               0.001258938               0.999999988              -0.000112765               0.001272724               0.999999988              -0.000088004               0.001276312               0.999999988              -0.000075826               0.001281980               0.999999988              -0.000069579               0.001292745               0.999999988              -0.000065757               0.001308541               0.999999988              -0.000062257               0.001328440               0.999999988              -0.000057566               0.001351266               0.999999988              -0.000051247               0.001376004               0.999999988              -0.000042732               0.001401799               0.999999988              -0.000031035               0.001428136               0.999999988              -0.000015369               0.001454523               0.999999988               0.000004660               0.001480522               0.999999988               0.000029445               0.001505827               0.999999988               0.000059973               0.001530046               0.999999988               0.000097737               0.001552720               0.999999988               0.000144786               0.001573483               0.999999988              -0.000082618               0.001279782               0.999999988              -0.000056152               0.001306099               0.999999988              -0.000043073               0.001317107               0.999999988              -0.000036370               0.001327286               0.999999988              -0.000032850               0.001340969               0.999999988              -0.000030682               0.001359018               0.999999988              -0.000028770               0.001381117               0.999999988              -0.000026362               0.001406248               0.999999988              -0.000023246               0.001433660               0.999999988              -0.000019054               0.001462783               0.999999988              -0.000013099               0.001493169               0.999999988              -0.000005124               0.001524263               0.999999988               0.000005116               0.001555609               0.999999988               0.000018098               0.001586800               0.999999988               0.000034288               0.001617355               0.999999988               0.000054598               0.001646717               0.999999988               0.000080634               0.001674091               0.999999988              -0.000000000               0.001286748               0.999999988               0.000000000               0.001317391               0.999999988              -0.000000000               0.001331101               0.999999988               0.000000000               0.001342974               0.999999988               0.000000000               0.001357768               0.999999988               0.000000000               0.001376666               0.999999988              -0.000000000               0.001399519               0.999999988               0.000000000               0.001425455               0.999999988               0.000000000               0.001453892               0.999999988               0.000000000               0.001484216               0.999999988              -0.000000000               0.001515929               0.999999988              -0.000000000               0.001548621               0.999999988              -0.000000000               0.001581887               0.999999988              -0.000000000               0.001615227               0.999999988               0.000000000               0.001647985               0.999999988              -0.000000000               0.001679600               0.999999988              -0.000000000               0.001709309               0.999999988              -0.000879608               0.000000000               0.999999988              -0.000925524               0.000000000               0.999999988              -0.000944272              -0.000000000               0.999999988              -0.000954199               0.000000000               0.999999988              -0.000961987               0.000000000               0.999999988              -0.000969992              -0.000000000               0.999999988              -0.000978915               0.000000000               0.999999988              -0.000988734               0.000000000               0.999999988              -0.000999175              -0.000000000               0.999999988              -0.001010038              -0.000000000               0.999999988              -0.001020864              -0.000000000               0.999999988              -0.001031343              -0.000000000               0.999999988              -0.001041089              -0.000000000               0.999999988              -0.001049709               0.000000000               0.999999988              -0.001056695              -0.000000000               0.999999988              -0.001061398              -0.000000000               0.999999988              -0.001063128              -0.000000000               0.999999988              -0.000874765              -0.000121120               0.999999988              -0.000916687              -0.000095499               0.999999988              -0.000932831              -0.000083459               0.999999988              -0.000941036              -0.000078207               0.999999988              -0.000947574              -0.000076122               0.999999988              -0.000954539              -0.000075603               0.999999988              -0.000962467              -0.000075554               0.999999988              -0.000971255              -0.000075212               0.999999988              -0.000980694              -0.000074347               0.999999988              -0.000990416              -0.000072498               0.999999988              -0.000999870              -0.000069317               0.999999988              -0.001008721              -0.000064527               0.999999988              -0.001016561              -0.000057737               0.999999988              -0.001022944              -0.000048562               0.999999988              -0.001027471              -0.000036462               0.999999988              -0.001029739              -0.000020551               0.999999988              -0.001029126               0.000000552               0.999999988              -0.000860397              -0.000241218               0.999999988              -0.000890642              -0.000190702               0.999999988              -0.000899441              -0.000167865               0.999999988              -0.000902962              -0.000158351               0.999999988              -0.000906230              -0.000155003               0.999999988              -0.000910547              -0.000154474               0.999999988              -0.000915952              -0.000154647               0.999999988              -0.000922081              -0.000154318               0.999999988              -0.000928628              -0.000152848               0.999999988              -0.000935003              -0.000149366               0.999999988              -0.000940569              -0.000143118               0.999999988              -0.000944848              -0.000133648               0.999999988              -0.000947392              -0.000120348               0.999999988              -0.000947930              -0.000102804               0.999999988              -0.000946232              -0.000080348               0.999999988              -0.000942042              -0.000051585               0.999999988              -0.000935196              -0.000014842               0.999999988              -0.000836863              -0.000359284               0.999999988              -0.000848655              -0.000285428               0.999999988              -0.000846788              -0.000254039               0.999999988              -0.000843956              -0.000242084               0.999999988              -0.000842905              -0.000238720               0.999999988              -0.000843852              -0.000238931               0.999999988              -0.000846060              -0.000239924               0.999999988              -0.000848732              -0.000239850               0.999999988              -0.000851017              -0.000237831               0.999999988              -0.000852253              -0.000232736               0.999999988              -0.000851804              -0.000223540               0.999999988              -0.000849220              -0.000209651               0.999999988              -0.000844209              -0.000190749               0.999999988              -0.000836582              -0.000166465               0.999999988              -0.000826310              -0.000136074               0.999999988              -0.000813395              -0.000098594               0.999999988              -0.000798098              -0.000053104               0.999999988              -0.000804503              -0.000474365               0.999999988              -0.000792709              -0.000379785               0.999999988              -0.000778960              -0.000342612               0.999999988              -0.000769693              -0.000330175               0.999999988              -0.000764584              -0.000328070               0.999999988              -0.000762243              -0.000329867               0.999999988              -0.000760987              -0.000331977               0.999999988              -0.000759586              -0.000332254               0.999999988              -0.000756814              -0.000329458               0.999999988              -0.000751852              -0.000322596               0.999999988              -0.000744057              -0.000310522               0.999999988              -0.000733276              -0.000292907               0.999999988              -0.000719410              -0.000269257               0.999999988              -0.000702452              -0.000239563               0.999999988              -0.000682409              -0.000203516               0.999999988              -0.000659536              -0.000160939               0.999999988              -0.000634526              -0.000112021               0.999999988              -0.000763783              -0.000585482               0.999999988              -0.000725411              -0.000474070               0.999999988              -0.000700575              -0.000433986               0.999999988              -0.000686385              -0.000422613               0.999999988              -0.000678520              -0.000422584               0.999999988              -0.000673505              -0.000426254               0.999999988              -0.000668987              -0.000429485               0.999999988              -0.000663168              -0.000429958               0.999999988              -0.000654645              -0.000426051               0.999999988              -0.000642470              -0.000417031               0.999999988              -0.000626298              -0.000402345               0.999999988              -0.000606247              -0.000381212               0.999999988              -0.000582309              -0.000353653               0.999999988              -0.000554566              -0.000319901               0.999999988              -0.000523463              -0.000280350               0.999999988              -0.000489758              -0.000235615               0.999999988              -0.000454504              -0.000186885               0.999999988              -0.000715456              -0.000691538               0.999999988              -0.000650074              -0.000568377               0.999999988              -0.000616708              -0.000527827               0.999999988              -0.000599953              -0.000518482               0.999999988              -0.000590834              -0.000520762               0.999999988              -0.000584068              -0.000526049               0.999999988              -0.000576454              -0.000530077               0.999999988              -0.000565699              -0.000530159               0.999999988              -0.000550348              -0.000524735               0.999999988              -0.000529780              -0.000513382               0.999999988              -0.000504104              -0.000496055               0.999999988              -0.000473316              -0.000472027               0.999999988              -0.000437980              -0.000441467               0.999999988              -0.000398598              -0.000405210               0.999999988              -0.000356203              -0.000364175               0.999999988              -0.000311958              -0.000319971               0.999999988              -0.000267227              -0.000274366               0.999999988              -0.000660451              -0.000791360               0.999999988              -0.000570211              -0.000662554               0.999999988              -0.000532040              -0.000623267               0.999999988              -0.000515506              -0.000616049               0.999999988              -0.000506524              -0.000620293               0.999999988              -0.000498441              -0.000626807               0.999999988              -0.000487277              -0.000630917               0.999999988              -0.000470544              -0.000630001               0.999999988              -0.000447383              -0.000622689               0.999999988              -0.000417520              -0.000609014               0.999999988              -0.000381160              -0.000589150               0.999999988              -0.000338820              -0.000562644               0.999999988              -0.000291446              -0.000530296               0.999999988              -0.000240312              -0.000493262               0.999999988              -0.000186906              -0.000453132               0.999999988              -0.000132534              -0.000411745               0.999999988              -0.000078443              -0.000371077               0.999999988              -0.000600543              -0.000883024               0.999999988              -0.000488740              -0.000756365               0.999999988              -0.000450975              -0.000718792               0.999999988              -0.000436628              -0.000713250               0.999999988              -0.000428610              -0.000718914               0.999999988              -0.000418846              -0.000726084               0.999999988              -0.000403198              -0.000729755               0.999999988              -0.000379596              -0.000727500               0.999999988              -0.000347617              -0.000718406               0.999999988              -0.000307338              -0.000702609               0.999999988              -0.000259306              -0.000680511               0.999999988              -0.000204542              -0.000652531               0.999999988              -0.000144599              -0.000620007               0.999999988              -0.000081160              -0.000584615               0.999999988              -0.000015797              -0.000548322               0.999999988               0.000049853              -0.000512734               0.999999988               0.000114914              -0.000478640               0.999999988              -0.000538284              -0.000970001               0.999999988              -0.000420219              -0.000862398               0.999999988              -0.000380255              -0.000821939               0.999999988              -0.000365759              -0.000812210               0.999999988              -0.000358747              -0.000815572               0.999999988              -0.000351155              -0.000823058               0.999999988              -0.000338876              -0.000829595               0.999999988              -0.000319838              -0.000832541               0.999999988              -0.000293051              -0.000830567               0.999999988              -0.000258509              -0.000823500               0.999999988              -0.000216254              -0.000811444               0.999999988              -0.000166912              -0.000794794               0.999999988              -0.000111447              -0.000774148               0.999999988              -0.000050872              -0.000750455               0.999999988               0.000013605              -0.000724967               0.999999988               0.000080580              -0.000699283               0.999999988               0.000148214              -0.000674835               0.999999988              -0.000470464              -0.001049355               0.999999988              -0.000354059              -0.000965225               0.999999988              -0.000312178              -0.000927963               0.999999988              -0.000296600              -0.000916480               0.999999988              -0.000289726              -0.000918444               0.999999988              -0.000283528              -0.000926359               0.999999988              -0.000273909              -0.000935536               0.999999988              -0.000258820              -0.000943151               0.999999988              -0.000237026              -0.000947623               0.999999988              -0.000208194              -0.000948380               0.999999988              -0.000171952              -0.000945348               0.999999988              -0.000128523              -0.000938745               0.999999988              -0.000078361              -0.000928907               0.999999988              -0.000022167              -0.000916247               0.999999988               0.000039513              -0.000901473               0.999999988               0.000105607              -0.000885582               0.999999988               0.000174083              -0.000869909               0.999999988              -0.000398526              -0.001119016               0.999999988              -0.000290452              -0.001061532               0.999999988              -0.000248408              -0.001031846               0.999999988              -0.000231617              -0.001021797               0.999999988              -0.000224309              -0.001023890               0.999999988              -0.000218717              -0.001032763               0.999999988              -0.000210968              -0.001044518               0.999999988              -0.000199220              -0.001056482               0.999999988              -0.000182160              -0.001066940               0.999999988              -0.000158883              -0.001075022               0.999999988              -0.000128684              -0.001080379               0.999999988              -0.000091451              -0.001082934               0.999999988              -0.000047576              -0.001082864               0.999999988               0.000002934              -0.001080439               0.999999988               0.000060218              -0.001076088               0.999999988               0.000123585              -0.001070209               0.999999988               0.000191957              -0.001063769               0.999999988              -0.000323075              -0.001177856               0.999999988              -0.000229325              -0.001147457               0.999999988              -0.000189801              -0.001128385               0.999999988              -0.000172718              -0.001122344               0.999999988              -0.000164812              -0.001126347               0.999999988              -0.000159635              -0.001136938               0.999999988              -0.000153281              -0.001151269               0.999999988              -0.000144251              -0.001167282               0.999999988              -0.000131312              -0.001183281               0.999999988              -0.000113330              -0.001198211               0.999999988              -0.000089345              -0.001211469               0.999999988              -0.000058931              -0.001222740               0.999999988              -0.000022003              -0.001232053               0.999999988               0.000021727              -0.001239361               0.999999988               0.000072694              -0.001244861               0.999999988               0.000131138              -0.001248812               0.999999988               0.000197046              -0.001251752               0.999999988              -0.000244850              -0.001224735               0.999999988              -0.000170320              -0.001218952               0.999999988              -0.000136535              -0.001211764               0.999999988              -0.000120845              -0.001211434               0.999999988              -0.000113103              -0.001218569               0.999999988              -0.000108352              -0.001231672               0.999999988              -0.000103381              -0.001248812               0.999999988              -0.000096612              -0.001268372               0.999999988              -0.000087134              -0.001289272               0.999999988              -0.000074051              -0.001310374               0.999999988              -0.000056403              -0.001330768               0.999999988              -0.000033246              -0.001350222               0.999999988              -0.000004206              -0.001368465               0.999999988               0.000030990              -0.001385206               0.999999988               0.000073169              -0.001400267               0.999999988               0.000123442              -0.001413696               0.999999988               0.000183276              -0.001425764               0.999999988              -0.000164483              -0.001258938               0.999999988              -0.000112765              -0.001272724               0.999999988              -0.000088004              -0.001276312               0.999999988              -0.000075826              -0.001281980               0.999999988              -0.000069579              -0.001292745               0.999999988              -0.000065757              -0.001308541               0.999999988              -0.000062257              -0.001328440               0.999999988              -0.000057566              -0.001351266               0.999999988              -0.000051247              -0.001376004               0.999999988              -0.000042732              -0.001401799               0.999999988              -0.000031035              -0.001428136               0.999999988              -0.000015369              -0.001454523               0.999999988               0.000004660              -0.001480522               0.999999988               0.000029445              -0.001505827               0.999999988               0.000059973              -0.001530046               0.999999988               0.000097737              -0.001552720               0.999999988               0.000144786              -0.001573483               0.999999988              -0.000082618              -0.001279782               0.999999988              -0.000056152              -0.001306099               0.999999988              -0.000043073              -0.001317107               0.999999988              -0.000036370              -0.001327286               0.999999988              -0.000032850              -0.001340969               0.999999988              -0.000030682              -0.001359018               0.999999988              -0.000028770              -0.001381117               0.999999988              -0.000026362              -0.001406248               0.999999988              -0.000023246              -0.001433660               0.999999988              -0.000019054              -0.001462783               0.999999988              -0.000013099              -0.001493169               0.999999988              -0.000005124              -0.001524263               0.999999988               0.000005116              -0.001555609               0.999999988               0.000018098              -0.001586800               0.999999988               0.000034288              -0.001617355               0.999999988               0.000054598              -0.001646717               0.999999988               0.000080634              -0.001674091               0.999999988              -0.000000000              -0.001286748               0.999999988              -0.000000000              -0.001317391               0.999999988               0.000000000              -0.001331101               0.999999988              -0.000000000              -0.001342974               0.999999988               0.000000000              -0.001357768               0.999999988              -0.000000000              -0.001376666               0.999999988               0.000000000              -0.001399519               0.999999988               0.000000000              -0.001425455               0.999999988              -0.000000000              -0.001453892               0.999999988              -0.000000000              -0.001484216               0.999999988              -0.000000000              -0.001515929               0.999999988               0.000000000              -0.001548621               0.999999988              -0.000000000              -0.001581887               0.999999988               0.000000000              -0.001615227               0.999999988               0.000000000              -0.001647985               0.999999988              -0.000000000              -0.001679600               0.999999988              -0.000000000              -0.001709309               0.999999988               0.000879608               0.000000000               0.999999988               0.000925524               0.000000000               0.999999988               0.000944272               0.000000000               0.999999988               0.000954199               0.000000000               0.999999988               0.000961987              -0.000000000               0.999999988               0.000969992               0.000000000               0.999999988               0.000978915               0.000000000               0.999999988               0.000988734               0.000000000               0.999999988               0.000999175               0.000000000               0.999999988               0.001010038               0.000000000               0.999999988               0.001020864               0.000000000               0.999999988               0.001031343              -0.000000000               0.999999988               0.001041089               0.000000000               0.999999988               0.001049709              -0.000000000               0.999999988               0.001056695               0.000000000               0.999999988               0.001061398               0.000000000               0.999999988               0.001063128               0.000000000               0.999999988               0.000874765              -0.000121120               0.999999988               0.000916687              -0.000095499               0.999999988               0.000932831              -0.000083459               0.999999988               0.000941036              -0.000078207               0.999999988               0.000947574              -0.000076122               0.999999988               0.000954539              -0.000075603               0.999999988               0.000962467              -0.000075554               0.999999988               0.000971255              -0.000075212               0.999999988               0.000980694              -0.000074347               0.999999988               0.000990416              -0.000072498               0.999999988               0.000999870              -0.000069317               0.999999988               0.001008721              -0.000064527               0.999999988               0.001016561              -0.000057737               0.999999988               0.001022944              -0.000048562               0.999999988               0.001027471              -0.000036462               0.999999988               0.001029739              -0.000020551               0.999999988               0.001029126               0.000000552               0.999999988               0.000860397              -0.000241218               0.999999988               0.000890642              -0.000190702               0.999999988               0.000899441              -0.000167865               0.999999988               0.000902962              -0.000158351               0.999999988               0.000906230              -0.000155003               0.999999988               0.000910547              -0.000154474               0.999999988               0.000915952              -0.000154647               0.999999988               0.000922081              -0.000154318               0.999999988               0.000928628              -0.000152848               0.999999988               0.000935003              -0.000149366               0.999999988               0.000940569              -0.000143118               0.999999988               0.000944848              -0.000133648               0.999999988               0.000947392              -0.000120348               0.999999988               0.000947930              -0.000102804               0.999999988               0.000946232              -0.000080348               0.999999988               0.000942042              -0.000051585               0.999999988               0.000935196              -0.000014842               0.999999988               0.000836863              -0.000359284               0.999999988               0.000848655              -0.000285428               0.999999988               0.000846788              -0.000254039               0.999999988               0.000843956              -0.000242084               0.999999988               0.000842905              -0.000238720               0.999999988               0.000843852              -0.000238931               0.999999988               0.000846060              -0.000239924               0.999999988               0.000848732              -0.000239850               0.999999988               0.000851017              -0.000237831               0.999999988               0.000852253              -0.000232736               0.999999988               0.000851804              -0.000223540               0.999999988               0.000849220              -0.000209651               0.999999988               0.000844209              -0.000190749               0.999999988               0.000836582              -0.000166465               0.999999988               0.000826310              -0.000136074               0.999999988               0.000813395              -0.000098594               0.999999988               0.000798098              -0.000053104               0.999999988               0.000804503              -0.000474365               0.999999988               0.000792709              -0.000379785               0.999999988               0.000778960              -0.000342612               0.999999988               0.000769693              -0.000330175               0.999999988               0.000764584              -0.000328070               0.999999988               0.000762243              -0.000329867               0.999999988               0.000760987              -0.000331977               0.999999988               0.000759586              -0.000332254               0.999999988               0.000756814              -0.000329458               0.999999988               0.000751852              -0.000322596               0.999999988               0.000744057              -0.000310522               0.999999988               0.000733276              -0.000292907               0.999999988               0.000719410              -0.000269257               0.999999988               0.000702452              -0.000239563               0.999999988               0.000682409              -0.000203516               0.999999988               0.000659536              -0.000160939               0.999999988               0.000634526              -0.000112021               0.999999988               0.000763783              -0.000585482               0.999999988               0.000725411              -0.000474070               0.999999988               0.000700575              -0.000433986               0.999999988               0.000686385              -0.000422613               0.999999988               0.000678520              -0.000422584               0.999999988               0.000673505              -0.000426254               0.999999988               0.000668987              -0.000429485               0.999999988               0.000663168              -0.000429958               0.999999988               0.000654645              -0.000426051               0.999999988               0.000642470              -0.000417031               0.999999988               0.000626298              -0.000402345               0.999999988               0.000606247              -0.000381212               0.999999988               0.000582309              -0.000353653               0.999999988               0.000554566              -0.000319901               0.999999988               0.000523463              -0.000280350               0.999999988               0.000489758              -0.000235615               0.999999988               0.000454504              -0.000186885               0.999999988               0.000715456              -0.000691538               0.999999988               0.000650074              -0.000568377               0.999999988               0.000616708              -0.000527827               0.999999988               0.000599953              -0.000518482               0.999999988               0.000590834              -0.000520762               0.999999988               0.000584068              -0.000526049               0.999999988               0.000576454              -0.000530077               0.999999988               0.000565699              -0.000530159               0.999999988               0.000550348              -0.000524735               0.999999988               0.000529780              -0.000513382               0.999999988               0.000504104              -0.000496055               0.999999988               0.000473316              -0.000472027               0.999999988               0.000437980              -0.000441467               0.999999988               0.000398598              -0.000405210               0.999999988               0.000356203              -0.000364175               0.999999988               0.000311958              -0.000319971               0.999999988               0.000267227              -0.000274366               0.999999988               0.000660451              -0.000791360               0.999999988               0.000570211              -0.000662554               0.999999988               0.000532040              -0.000623267               0.999999988               0.000515506              -0.000616049               0.999999988               0.000506524              -0.000620293               0.999999988               0.000498441              -0.000626807               0.999999988               0.000487277              -0.000630917               0.999999988               0.000470544              -0.000630001               0.999999988               0.000447383              -0.000622689               0.999999988               0.000417520              -0.000609014               0.999999988               0.000381160              -0.000589150               0.999999988               0.000338820              -0.000562644               0.999999988               0.000291446              -0.000530296               0.999999988               0.000240312              -0.000493262               0.999999988               0.000186906              -0.000453132               0.999999988               0.000132534              -0.000411745               0.999999988               0.000078443              -0.000371077               0.999999988               0.000600543              -0.000883024               0.999999988               0.000488740              -0.000756365               0.999999988               0.000450975              -0.000718792               0.999999988               0.000436628              -0.000713250               0.999999988               0.000428610              -0.000718914               0.999999988               0.000418846              -0.000726084               0.999999988               0.000403198              -0.000729755               0.999999988               0.000379596              -0.000727500               0.999999988               0.000347617              -0.000718406               0.999999988               0.000307338              -0.000702609               0.999999988               0.000259306              -0.000680511               0.999999988               0.000204542              -0.000652531               0.999999988               0.000144599              -0.000620007               0.999999988               0.000081160              -0.000584615               0.999999988               0.000015797              -0.000548322               0.999999988              -0.000049853              -0.000512734               0.999999988              -0.000114914              -0.000478640               0.999999988               0.000538284              -0.000970001               0.999999988               0.000420219              -0.000862398               0.999999988               0.000380255              -0.000821939               0.999999988               0.000365759              -0.000812210               0.999999988               0.000358747              -0.000815572               0.999999988               0.000351155              -0.000823058               0.999999988               0.000338876              -0.000829595               0.999999988               0.000319838              -0.000832541               0.999999988               0.000293051              -0.000830567               0.999999988               0.000258509              -0.000823500               0.999999988               0.000216254              -0.000811444               0.999999988               0.000166912              -0.000794794               0.999999988               0.000111447              -0.000774148               0.999999988               0.000050872              -0.000750455               0.999999988              -0.000013605              -0.000724967               0.999999988              -0.000080580              -0.000699283               0.999999988              -0.000148214              -0.000674835               0.999999988               0.000470464              -0.001049355               0.999999988               0.000354059              -0.000965225               0.999999988               0.000312178              -0.000927963               0.999999988               0.000296600              -0.000916480               0.999999988               0.000289726              -0.000918444               0.999999988               0.000283528              -0.000926359               0.999999988               0.000273909              -0.000935536               0.999999988               0.000258820              -0.000943151               0.999999988               0.000237026              -0.000947623               0.999999988               0.000208194              -0.000948380               0.999999988               0.000171952              -0.000945348               0.999999988               0.000128523              -0.000938745               0.999999988               0.000078361              -0.000928907               0.999999988               0.000022167              -0.000916247               0.999999988              -0.000039513              -0.000901473               0.999999988              -0.000105607              -0.000885582               0.999999988              -0.000174083              -0.000869909               0.999999988               0.000398526              -0.001119016               0.999999988               0.000290452              -0.001061532               0.999999988               0.000248408              -0.001031846               0.999999988               0.000231617              -0.001021797               0.999999988               0.000224309              -0.001023890               0.999999988               0.000218717              -0.001032763               0.999999988               0.000210968              -0.001044518               0.999999988               0.000199220              -0.001056482               0.999999988               0.000182160              -0.001066940               0.999999988               0.000158883              -0.001075022               0.999999988               0.000128684              -0.001080379               0.999999988               0.000091451              -0.001082934               0.999999988               0.000047576              -0.001082864               0.999999988              -0.000002934              -0.001080439               0.999999988              -0.000060218              -0.001076088               0.999999988              -0.000123585              -0.001070209               0.999999988              -0.000191957              -0.001063769               0.999999988               0.000323075              -0.001177856               0.999999988               0.000229325              -0.001147457               0.999999988               0.000189801              -0.001128385               0.999999988               0.000172718              -0.001122344               0.999999988               0.000164812              -0.001126347               0.999999988               0.000159635              -0.001136938               0.999999988               0.000153281              -0.001151269               0.999999988               0.000144251              -0.001167282               0.999999988               0.000131312              -0.001183281               0.999999988               0.000113330              -0.001198211               0.999999988               0.000089345              -0.001211469               0.999999988               0.000058931              -0.001222740               0.999999988               0.000022003              -0.001232053               0.999999988              -0.000021727              -0.001239361               0.999999988              -0.000072694              -0.001244861               0.999999988              -0.000131138              -0.001248812               0.999999988              -0.000197046              -0.001251752               0.999999988               0.000244850              -0.001224735               0.999999988               0.000170320              -0.001218952               0.999999988               0.000136535              -0.001211764               0.999999988               0.000120845              -0.001211434               0.999999988               0.000113103              -0.001218569               0.999999988               0.000108352              -0.001231672               0.999999988               0.000103381              -0.001248812               0.999999988               0.000096612              -0.001268372               0.999999988               0.000087134              -0.001289272               0.999999988               0.000074051              -0.001310374               0.999999988               0.000056403              -0.001330768               0.999999988               0.000033246              -0.001350222               0.999999988               0.000004206              -0.001368465               0.999999988              -0.000030990              -0.001385206               0.999999988              -0.000073169              -0.001400267               0.999999988              -0.000123442              -0.001413696               0.999999988              -0.000183276              -0.001425764               0.999999988               0.000164483              -0.001258938               0.999999988               0.000112765              -0.001272724               0.999999988               0.000088004              -0.001276312               0.999999988               0.000075826              -0.001281980               0.999999988               0.000069579              -0.001292745               0.999999988               0.000065757              -0.001308541               0.999999988               0.000062257              -0.001328440               0.999999988               0.000057566              -0.001351266               0.999999988               0.000051247              -0.001376004               0.999999988               0.000042732              -0.001401799               0.999999988               0.000031035              -0.001428136               0.999999988               0.000015369              -0.001454523               0.999999988              -0.000004660              -0.001480522               0.999999988              -0.000029445              -0.001505827               0.999999988              -0.000059973              -0.001530046               0.999999988              -0.000097737              -0.001552720               0.999999988              -0.000144786              -0.001573483               0.999999988               0.000082618              -0.001279782               0.999999988               0.000056152              -0.001306099               0.999999988               0.000043073              -0.001317107               0.999999988               0.000036370              -0.001327286               0.999999988               0.000032850              -0.001340969               0.999999988               0.000030682              -0.001359018               0.999999988               0.000028770              -0.001381117               0.999999988               0.000026362              -0.001406248               0.999999988               0.000023246              -0.001433660               0.999999988               0.000019054              -0.001462783               0.999999988               0.000013099              -0.001493169               0.999999988               0.000005124              -0.001524263               0.999999988              -0.000005116              -0.001555609               0.999999988              -0.000018098              -0.001586800               0.999999988              -0.000034288              -0.001617355               0.999999988              -0.000054598              -0.001646717               0.999999988              -0.000080634              -0.001674091               0.999999988              -0.000000000              -0.001286748               0.999999988              -0.000000000              -0.001317391               0.999999988               0.000000000              -0.001331101               0.999999988              -0.000000000              -0.001342974               0.999999988               0.000000000              -0.001357768               0.999999988              -0.000000000              -0.001376666               0.999999988               0.000000000              -0.001399519               0.999999988               0.000000000              -0.001425455               0.999999988              -0.000000000              -0.001453892               0.999999988              -0.000000000              -0.001484216               0.999999988              -0.000000000              -0.001515929               0.999999988               0.000000000              -0.001548621               0.999999988              -0.000000000              -0.001581887               0.999999988               0.000000000              -0.001615227               0.999999988               0.000000000              -0.001647985               0.999999988              -0.000000000              -0.001679600               0.999999988              -0.000000000              -0.001709309               0.999999988               0.000879608               0.000000000               0.999999988               0.000925524               0.000000000               0.999999988               0.000944272               0.000000000               0.999999988               0.000954199               0.000000000               0.999999988               0.000961987              -0.000000000               0.999999988               0.000969992               0.000000000               0.999999988               0.000978915               0.000000000               0.999999988               0.000988734               0.000000000               0.999999988               0.000999175               0.000000000               0.999999988               0.001010038               0.000000000               0.999999988               0.001020864               0.000000000               0.999999988               0.001031343              -0.000000000               0.999999988               0.001041089               0.000000000               0.999999988               0.001049709              -0.000000000               0.999999988               0.001056695               0.000000000               0.999999988               0.001061398               0.000000000               0.999999988               0.001063128               0.000000000               0.999999988               0.000874765               0.000121120               0.999999988               0.000916687               0.000095499               0.999999988               0.000932831               0.000083459               0.999999988               0.000941036               0.000078207               0.999999988               0.000947574               0.000076122               0.999999988               0.000954539               0.000075603               0.999999988               0.000962467               0.000075554               0.999999988               0.000971255               0.000075212               0.999999988               0.000980694               0.000074347               0.999999988               0.000990416               0.000072498               0.999999988               0.000999870               0.000069317               0.999999988               0.001008721               0.000064527               0.999999988               0.001016561               0.000057737               0.999999988               0.001022944               0.000048562               0.999999988               0.001027471               0.000036462               0.999999988               0.001029739               0.000020551               0.999999988               0.001029126              -0.000000552               0.999999988               0.000860397               0.000241218               0.999999988               0.000890642               0.000190702               0.999999988               0.000899441               0.000167865               0.999999988               0.000902962               0.000158351               0.999999988               0.000906230               0.000155003               0.999999988               0.000910547               0.000154474               0.999999988               0.000915952               0.000154647               0.999999988               0.000922081               0.000154318               0.999999988               0.000928628               0.000152848               0.999999988               0.000935003               0.000149366               0.999999988               0.000940569               0.000143118               0.999999988               0.000944848               0.000133648               0.999999988               0.000947392               0.000120348               0.999999988               0.000947930               0.000102804               0.999999988               0.000946232               0.000080348               0.999999988               0.000942042               0.000051585               0.999999988               0.000935196               0.000014842               0.999999988               0.000836863               0.000359284               0.999999988               0.000848655               0.000285428               0.999999988               0.000846788               0.000254039               0.999999988               0.000843956               0.000242084               0.999999988               0.000842905               0.000238720               0.999999988               0.000843852               0.000238931               0.999999988               0.000846060               0.000239924               0.999999988               0.000848732               0.000239850               0.999999988               0.000851017               0.000237831               0.999999988               0.000852253               0.000232736               0.999999988               0.000851804               0.000223540               0.999999988               0.000849220               0.000209651               0.999999988               0.000844209               0.000190749               0.999999988               0.000836582               0.000166465               0.999999988               0.000826310               0.000136074               0.999999988               0.000813395               0.000098594               0.999999988               0.000798098               0.000053104               0.999999988               0.000804503               0.000474365               0.999999988               0.000792709               0.000379785               0.999999988               0.000778960               0.000342612               0.999999988               0.000769693               0.000330175               0.999999988               0.000764584               0.000328070               0.999999988               0.000762243               0.000329867               0.999999988               0.000760987               0.000331977               0.999999988               0.000759586               0.000332254               0.999999988               0.000756814               0.000329458               0.999999988               0.000751852               0.000322596               0.999999988               0.000744057               0.000310522               0.999999988               0.000733276               0.000292907               0.999999988               0.000719410               0.000269257               0.999999988               0.000702452               0.000239563               0.999999988               0.000682409               0.000203516               0.999999988               0.000659536               0.000160939               0.999999988               0.000634526               0.000112021               0.999999988               0.000763783               0.000585482               0.999999988               0.000725411               0.000474070               0.999999988               0.000700575               0.000433986               0.999999988               0.000686385               0.000422613               0.999999988               0.000678520               0.000422584               0.999999988               0.000673505               0.000426254               0.999999988               0.000668987               0.000429485               0.999999988               0.000663168               0.000429958               0.999999988               0.000654645               0.000426051               0.999999988               0.000642470               0.000417031               0.999999988               0.000626298               0.000402345               0.999999988               0.000606247               0.000381212               0.999999988               0.000582309               0.000353653               0.999999988               0.000554566               0.000319901               0.999999988               0.000523463               0.000280350               0.999999988               0.000489758               0.000235615               0.999999988               0.000454504               0.000186885               0.999999988               0.000715456               0.000691538               0.999999988               0.000650074               0.000568377               0.999999988               0.000616708               0.000527827               0.999999988               0.000599953               0.000518482               0.999999988               0.000590834               0.000520762               0.999999988               0.000584068               0.000526049               0.999999988               0.000576454               0.000530077               0.999999988               0.000565699               0.000530159               0.999999988               0.000550348               0.000524735               0.999999988               0.000529780               0.000513382               0.999999988               0.000504104               0.000496055               0.999999988               0.000473316               0.000472027               0.999999988               0.000437980               0.000441467               0.999999988               0.000398598               0.000405210               0.999999988               0.000356203               0.000364175               0.999999988               0.000311958               0.000319971               0.999999988               0.000267227               0.000274366               0.999999988               0.000660451               0.000791360               0.999999988               0.000570211               0.000662554               0.999999988               0.000532040               0.000623267               0.999999988               0.000515506               0.000616049               0.999999988               0.000506524               0.000620293               0.999999988               0.000498441               0.000626807               0.999999988               0.000487277               0.000630917               0.999999988               0.000470544               0.000630001               0.999999988               0.000447383               0.000622689               0.999999988               0.000417520               0.000609014               0.999999988               0.000381160               0.000589150               0.999999988               0.000338820               0.000562644               0.999999988               0.000291446               0.000530296               0.999999988               0.000240312               0.000493262               0.999999988               0.000186906               0.000453132               0.999999988               0.000132534               0.000411745               0.999999988               0.000078443               0.000371077               0.999999988               0.000600543               0.000883024               0.999999988               0.000488740               0.000756365               0.999999988               0.000450975               0.000718792               0.999999988               0.000436628               0.000713250               0.999999988               0.000428610               0.000718914               0.999999988               0.000418846               0.000726084               0.999999988               0.000403198               0.000729755               0.999999988               0.000379596               0.000727500               0.999999988               0.000347617               0.000718406               0.999999988               0.000307338               0.000702609               0.999999988               0.000259306               0.000680511               0.999999988               0.000204542               0.000652531               0.999999988               0.000144599               0.000620007               0.999999988               0.000081160               0.000584615               0.999999988               0.000015797               0.000548322               0.999999988              -0.000049853               0.000512734               0.999999988              -0.000114914               0.000478640               0.999999988               0.000538284               0.000970001               0.999999988               0.000420219               0.000862398               0.999999988               0.000380255               0.000821939               0.999999988               0.000365759               0.000812210               0.999999988               0.000358747               0.000815572               0.999999988               0.000351155               0.000823058               0.999999988               0.000338876               0.000829595               0.999999988               0.000319838               0.000832541               0.999999988               0.000293051               0.000830567               0.999999988               0.000258509               0.000823500               0.999999988               0.000216254               0.000811444               0.999999988               0.000166912               0.000794794               0.999999988               0.000111447               0.000774148               0.999999988               0.000050872               0.000750455               0.999999988              -0.000013605               0.000724967               0.999999988              -0.000080580               0.000699283               0.999999988              -0.000148214               0.000674835               0.999999988               0.000470464               0.001049355               0.999999988               0.000354059               0.000965225               0.999999988               0.000312178               0.000927963               0.999999988               0.000296600               0.000916480               0.999999988               0.000289726               0.000918444               0.999999988               0.000283528               0.000926359               0.999999988               0.000273909               0.000935536               0.999999988               0.000258820               0.000943151               0.999999988               0.000237026               0.000947623               0.999999988               0.000208194               0.000948380               0.999999988               0.000171952               0.000945348               0.999999988               0.000128523               0.000938745               0.999999988               0.000078361               0.000928907               0.999999988               0.000022167               0.000916247               0.999999988              -0.000039513               0.000901473               0.999999988              -0.000105607               0.000885582               0.999999988              -0.000174083               0.000869909               0.999999988               0.000398526               0.001119016               0.999999988               0.000290452               0.001061532               0.999999988               0.000248408               0.001031846               0.999999988               0.000231617               0.001021797               0.999999988               0.000224309               0.001023890               0.999999988               0.000218717               0.001032763               0.999999988               0.000210968               0.001044518               0.999999988               0.000199220               0.001056482               0.999999988               0.000182160               0.001066940               0.999999988               0.000158883               0.001075022               0.999999988               0.000128684               0.001080379               0.999999988               0.000091451               0.001082934               0.999999988               0.000047576               0.001082864               0.999999988              -0.000002934               0.001080439               0.999999988              -0.000060218               0.001076088               0.999999988              -0.000123585               0.001070209               0.999999988              -0.000191957               0.001063769               0.999999988               0.000323075               0.001177856               0.999999988               0.000229325               0.001147457               0.999999988               0.000189801               0.001128385               0.999999988               0.000172718               0.001122344               0.999999988               0.000164812               0.001126347               0.999999988               0.000159635               0.001136938               0.999999988               0.000153281               0.001151269               0.999999988               0.000144251               0.001167282               0.999999988               0.000131312               0.001183281               0.999999988               0.000113330               0.001198211               0.999999988               0.000089345               0.001211469               0.999999988               0.000058931               0.001222740               0.999999988               0.000022003               0.001232053               0.999999988              -0.000021727               0.001239361               0.999999988              -0.000072694               0.001244861               0.999999988              -0.000131138               0.001248812               0.999999988              -0.000197046               0.001251752               0.999999988               0.000244850               0.001224735               0.999999988               0.000170320               0.001218952               0.999999988               0.000136535               0.001211764               0.999999988               0.000120845               0.001211434               0.999999988               0.000113103               0.001218569               0.999999988               0.000108352               0.001231672               0.999999988               0.000103381               0.001248812               0.999999988               0.000096612               0.001268372               0.999999988               0.000087134               0.001289272               0.999999988               0.000074051               0.001310374               0.999999988               0.000056403               0.001330768               0.999999988               0.000033246               0.001350222               0.999999988               0.000004206               0.001368465               0.999999988              -0.000030990               0.001385206               0.999999988              -0.000073169               0.001400267               0.999999988              -0.000123442               0.001413696               0.999999988              -0.000183276               0.001425764               0.999999988               0.000164483               0.001258938               0.999999988               0.000112765               0.001272724               0.999999988               0.000088004               0.001276312               0.999999988               0.000075826               0.001281980               0.999999988               0.000069579               0.001292745               0.999999988               0.000065757               0.001308541               0.999999988               0.000062257               0.001328440               0.999999988               0.000057566               0.001351266               0.999999988               0.000051247               0.001376004               0.999999988               0.000042732               0.001401799               0.999999988               0.000031035               0.001428136               0.999999988               0.000015369               0.001454523               0.999999988              -0.000004660               0.001480522               0.999999988              -0.000029445               0.001505827               0.999999988              -0.000059973               0.001530046               0.999999988              -0.000097737               0.001552720               0.999999988              -0.000144786               0.001573483               0.999999988               0.000082618               0.001279782               0.999999988               0.000056152               0.001306099               0.999999988               0.000043073               0.001317107               0.999999988               0.000036370               0.001327286               0.999999988               0.000032850               0.001340969               0.999999988               0.000030682               0.001359018               0.999999988               0.000028770               0.001381117               0.999999988               0.000026362               0.001406248               0.999999988               0.000023246               0.001433660               0.999999988               0.000019054               0.001462783               0.999999988               0.000013099               0.001493169               0.999999988               0.000005124               0.001524263               0.999999988              -0.000005116               0.001555609               0.999999988              -0.000018098               0.001586800               0.999999988              -0.000034288               0.001617355               0.999999988              -0.000054598               0.001646717               0.999999988              -0.000080634               0.001674091               0.999999988              -0.000000000               0.001286748               0.999999988               0.000000000               0.001317391               0.999999988              -0.000000000               0.001331101               0.999999988               0.000000000               0.001342974               0.999999988               0.000000000               0.001357768               0.999999988               0.000000000               0.001376666               0.999999988              -0.000000000               0.001399519               0.999999988               0.000000000               0.001425455               0.999999988               0.000000000               0.001453892               0.999999988               0.000000000               0.001484216               0.999999988              -0.000000000               0.001515929               0.999999988              -0.000000000               0.001548621               0.999999988              -0.000000000               0.001581887               0.999999988              -0.000000000               0.001615227               0.999999988               0.000000000               0.001647985               0.999999988              -0.000000000               0.001679600               0.999999988              -0.000000000               0.001709309               0.999999988 </DataArray>
<DataArray type="Float64"                                    Name="stress"                                                      NumberOfComponents="10" format="ascii">
              0.002095592               0.021953868               0.000000000              -0.001958382               0.007970677               0.006012295               0.000000000               0.000000000               0.000000000               0.000000000               0.002005337               0.016778937               0.000000000              -0.001345363               0.006041377               0.004696015               0.000000000               0.000000000               0.000000000               0.000000000               0.002565137               0.012566839              -0.000000000              -0.000608927               0.004391880               0.003782953               0.000000000               0.000000000               0.000000000               0.000000000               0.002359239               0.010183981               0.000000000              -0.000388282               0.003524054               0.003135772               0.000000000               0.000000000               0.000000000               0.000000000               0.001945675               0.008659364               0.000000000              -0.000352792               0.003004023               0.002651231               0.000000000               0.000000000               0.000000000               0.000000000               0.001517699               0.007583732              -0.000000000              -0.000378829               0.002654162               0.002275333               0.000000000               0.000000000               0.000000000               0.000000000               0.001137000               0.006750064               0.000000000              -0.000417382               0.002389126               0.001971744               0.000000000               0.000000000               0.000000000               0.000000000               0.000817034               0.006046605               0.000000000              -0.000449437               0.002165327               0.001715890               0.000000000               0.000000000               0.000000000               0.000000000               0.000551465               0.005419198              -0.000000000              -0.000470599               0.001963248               0.001492648               0.000000000               0.000000000               0.000000000               0.000000000               0.000341136               0.004828675               0.000000000              -0.000475657               0.001768095               0.001292437               0.000000000               0.000000000               0.000000000               0.000000000               0.000179823               0.004247557               0.000000000              -0.000463510               0.001570342               0.001106832               0.000000000               0.000000000               0.000000000               0.000000000               0.000055638               0.003655849               0.000000000              -0.000436116               0.001363976               0.000927860               0.000000000               0.000000000               0.000000000               0.000000000              -0.000031123               0.003038183               0.000000000              -0.000391443               0.001143198               0.000751755               0.000000000               0.000000000               0.000000000               0.000000000              -0.000080402               0.002380668               0.000000000              -0.000327734               0.000902793               0.000575059               0.000000000               0.000000000               0.000000000               0.000000000              -0.000088629               0.001666040              -0.000000000              -0.000241490               0.000635838               0.000394347               0.000000000               0.000000000               0.000000000               0.000000000              -0.000053551               0.000865291               0.000000000              -0.000128243               0.000331175               0.000202932               0.000000000               0.000000000               0.000000000               0.000000000              -0.000091376               0.000250587              -0.000000000              -0.000065590               0.000105391               0.000039801               0.000000000               0.000000000               0.000000000               0.000000000               0.002150216               0.021479511              -0.001443679              -0.001878604               0.007785967               0.005907363               0.000000000               0.000000000               0.000000000               0.000000000               0.001939305               0.016478582              -0.000633605              -0.001332580               0.005936999               0.004604419               0.000000000               0.000000000               0.000000000               0.000000000               0.002370436               0.012450151               0.000167847              -0.000667354               0.004372460               0.003705106               0.000000000               0.000000000               0.000000000               0.000000000               0.002116384               0.010160971               0.000494401              -0.000476476               0.003545782               0.003069306               0.000000000               0.000000000               0.000000000               0.000000000               0.001696699               0.008687383               0.000618437              -0.000449660               0.003045652               0.002595992               0.000000000               0.000000000               0.000000000               0.000000000               0.001281461               0.007636509               0.000655185              -0.000474015               0.002703482               0.002229468               0.000000000               0.000000000               0.000000000               0.000000000               0.000920759               0.006813716               0.000649306              -0.000506429               0.002440025               0.001933597               0.000000000               0.000000000               0.000000000               0.000000000               0.000619795               0.006118419               0.000627225              -0.000532378               0.002216912               0.001684534               0.000000000               0.000000000               0.000000000               0.000000000               0.000374893               0.005496623               0.000596264              -0.000546492               0.002014353               0.001467861               0.000000000               0.000000000               0.000000000               0.000000000               0.000191526               0.004911463               0.000557887              -0.000542110               0.001817841               0.001275732               0.000000000               0.000000000               0.000000000               0.000000000               0.000058410               0.004334276               0.000517507              -0.000519880               0.001618037               0.001098158               0.000000000               0.000000000               0.000000000               0.000000000              -0.000037706               0.003747566               0.000474874              -0.000482584               0.001410038               0.000927453               0.000000000               0.000000000               0.000000000               0.000000000              -0.000096547               0.003141002               0.000427613              -0.000428830               0.001189933               0.000761104               0.000000000               0.000000000               0.000000000               0.000000000              -0.000120576               0.002507338               0.000370745              -0.000358632               0.000955315               0.000596683               0.000000000               0.000000000               0.000000000               0.000000000              -0.000111755               0.001834737               0.000290354              -0.000271250               0.000701989               0.000430740               0.000000000               0.000000000               0.000000000               0.000000000              -0.000065441               0.001103159               0.000167787              -0.000162435               0.000421861               0.000259426               0.000000000               0.000000000               0.000000000               0.000000000              -0.000090092               0.000556733               0.000104900              -0.000103376               0.000220034               0.000116658               0.000000000               0.000000000               0.000000000               0.000000000               0.002276940               0.020123680              -0.002669949              -0.001661605               0.007261694               0.005600090               0.000000000               0.000000000               0.000000000               0.000000000               0.001731872               0.015626487              -0.001163454              -0.001303856               0.005643396               0.004339539               0.000000000               0.000000000               0.000000000               0.000000000               0.001808816               0.012121920               0.000309418              -0.000836932               0.004319577               0.003482645               0.000000000               0.000000000               0.000000000               0.000000000               0.001433878               0.010096816               0.000886140              -0.000724396               0.003607037               0.002882641               0.000000000               0.000000000               0.000000000               0.000000000               0.001004384               0.008757699               0.001093020              -0.000718067               0.003158559               0.002440492               0.000000000               0.000000000               0.000000000               0.000000000               0.000630529               0.007772029               0.001142777              -0.000735054               0.002835668               0.002100614               0.000000000               0.000000000               0.000000000               0.000000000               0.000334196               0.006983085               0.001120868              -0.000747561               0.002576859               0.001829298               0.000000000               0.000000000               0.000000000               0.000000000               0.000102005               0.006305116               0.001073616              -0.000749886               0.002351646               0.001601760               0.000000000               0.000000000               0.000000000               0.000000000              -0.000073221               0.005690865               0.001015441              -0.000738815               0.002143207               0.001404393               0.000000000               0.000000000               0.000000000               0.000000000              -0.000185746               0.005111389               0.000945044              -0.000708577               0.001939972               0.001231394               0.000000000               0.000000000               0.000000000               0.000000000              -0.000247623               0.004542736               0.000869261              -0.000660699               0.001734463               0.001073764               0.000000000               0.000000000               0.000000000               0.000000000              -0.000271456               0.003974043               0.000789664              -0.000598550               0.001524185               0.000925634               0.000000000               0.000000000               0.000000000               0.000000000              -0.000263150               0.003406196               0.000702780              -0.000524455               0.001310205               0.000785751               0.000000000               0.000000000               0.000000000               0.000000000              -0.000230609               0.002838486               0.000600772              -0.000441288               0.001093248               0.000651960               0.000000000               0.000000000               0.000000000               0.000000000              -0.000173992               0.002269222               0.000460988              -0.000348899               0.000872699               0.000523800               0.000000000               0.000000000               0.000000000               0.000000000              -0.000092493               0.001700489               0.000260375              -0.000247245               0.000649239               0.000401994               0.000000000               0.000000000               0.000000000               0.000000000              -0.000087041               0.001308343               0.000158207              -0.000196183               0.000501504               0.000305321               0.000000000               0.000000000               0.000000000               0.000000000               0.002368672               0.018072188              -0.003507154              -0.001370770               0.006480925               0.005110155               0.000000000               0.000000000               0.000000000               0.000000000               0.001356089               0.014359036              -0.001518330              -0.001286344               0.005215079               0.003928735               0.000000000               0.000000000               0.000000000               0.000000000               0.000943520               0.011637927               0.000392778              -0.001100918               0.004246243               0.003145325               0.000000000               0.000000000               0.000000000               0.000000000               0.000437706               0.009988090               0.001095083              -0.001084369               0.003690786               0.002606417               0.000000000               0.000000000               0.000000000               0.000000000               0.000026193               0.008830973               0.001323501              -0.001094047               0.003308310               0.002214263               0.000000000               0.000000000               0.000000000               0.000000000              -0.000269098               0.007934335               0.001361987              -0.001092702               0.003008986               0.001916284               0.000000000               0.000000000               0.000000000               0.000000000              -0.000462403               0.007186128               0.001319258              -0.001071665               0.002752573               0.001680908               0.000000000               0.000000000               0.000000000               0.000000000              -0.000576337               0.006524531               0.001249098              -0.001031691               0.002518718               0.001487028               0.000000000               0.000000000               0.000000000               0.000000000              -0.000629869               0.005913938               0.001171141              -0.000975441               0.002296440               0.001320999               0.000000000               0.000000000               0.000000000               0.000000000              -0.000632801               0.005338060               0.001079532              -0.000904556               0.002080854               0.001176298               0.000000000               0.000000000               0.000000000               0.000000000              -0.000596834               0.004784393               0.000979558              -0.000821860               0.001868735               0.001046875               0.000000000               0.000000000               0.000000000               0.000000000              -0.000533315               0.004250695               0.000875303              -0.000731329               0.001660660               0.000929332               0.000000000               0.000000000               0.000000000               0.000000000              -0.000447785               0.003738487               0.000764138              -0.000635229               0.001457893               0.000822664               0.000000000               0.000000000               0.000000000               0.000000000              -0.000346990               0.003252210               0.000634941              -0.000536646               0.001262941               0.000726295               0.000000000               0.000000000               0.000000000               0.000000000              -0.000234364               0.002799847               0.000469738              -0.000437866               0.001079228               0.000641362               0.000000000               0.000000000               0.000000000               0.000000000              -0.000116308               0.002402201               0.000255696              -0.000343890               0.000915356               0.000571466               0.000000000               0.000000000               0.000000000               0.000000000              -0.000082835               0.002162412               0.000148920              -0.000301364               0.000821252               0.000519888               0.000000000               0.000000000               0.000000000               0.000000000               0.002274944               0.015574761              -0.003870630              -0.001093741               0.005556115               0.004462374               0.000000000               0.000000000               0.000000000               0.000000000               0.000779646               0.012855255              -0.001681274              -0.001314537               0.004723221               0.003408684               0.000000000               0.000000000               0.000000000               0.000000000              -0.000133130               0.011067295               0.000382304              -0.001433332               0.004166839               0.002733507               0.000000000               0.000000000               0.000000000               0.000000000              -0.000709823               0.009823034               0.001080571              -0.001494059               0.003772332               0.002278272               0.000000000               0.000000000               0.000000000               0.000000000              -0.001037464               0.008853886               0.001279361              -0.001495782               0.003449860               0.001954078               0.000000000               0.000000000               0.000000000               0.000000000              -0.001200117               0.008045270               0.001293914              -0.001455699               0.003166963               0.001711263               0.000000000               0.000000000               0.000000000               0.000000000              -0.001251379               0.007332440               0.001235900              -0.001385819               0.002906062               0.001520243               0.000000000               0.000000000               0.000000000               0.000000000              -0.001221977               0.006684545               0.001154911              -0.001293807               0.002659428               0.001365621               0.000000000               0.000000000               0.000000000               0.000000000              -0.001134875               0.006076591               0.001071159              -0.001185150               0.002420560               0.001235410               0.000000000               0.000000000               0.000000000               0.000000000              -0.001010611               0.005507904               0.000978464              -0.001067465               0.002191771               0.001124306               0.000000000               0.000000000               0.000000000               0.000000000              -0.000869036               0.004980448               0.000874626              -0.000948442               0.001976280               0.001027838               0.000000000               0.000000000               0.000000000               0.000000000              -0.000724029               0.004486054               0.000763198              -0.000832266               0.001772758               0.000940492               0.000000000               0.000000000               0.000000000               0.000000000              -0.000572917               0.004029264               0.000646022              -0.000718500               0.001582574               0.000864074               0.000000000               0.000000000               0.000000000               0.000000000              -0.000416402               0.003620508               0.000518613              -0.000608713               0.001409728               0.000801015               0.000000000               0.000000000               0.000000000               0.000000000              -0.000259187               0.003277270               0.000368867              -0.000506853               0.001261363               0.000754511               0.000000000               0.000000000               0.000000000               0.000000000              -0.000120400               0.003019721               0.000194816              -0.000422614               0.001147435               0.000724821               0.000000000               0.000000000               0.000000000               0.000000000              -0.000072306               0.002891700               0.000110564              -0.000388576               0.001093416               0.000704839               0.000000000               0.000000000               0.000000000               0.000000000               0.001872880               0.012884308              -0.003774061              -0.000908209               0.004597462               0.003689253               0.000000000               0.000000000               0.000000000               0.000000000               0.000008741               0.011275245              -0.001686845              -0.001406125               0.004227086               0.002820960               0.000000000               0.000000000               0.000000000               0.000000000              -0.001301605               0.010450807               0.000246891              -0.001794448               0.004081717               0.002287268               0.000000000               0.000000000               0.000000000               0.000000000              -0.001845722               0.009583850               0.000845433              -0.001890122               0.003824625               0.001934503               0.000000000               0.000000000               0.000000000               0.000000000              -0.002012716               0.008777496               0.000995054              -0.001851951               0.003543120               0.001691169               0.000000000               0.000000000               0.000000000               0.000000000              -0.001992574               0.008037761               0.000991976              -0.001751931               0.003263204               0.001511273               0.000000000               0.000000000               0.000000000               0.000000000              -0.001870531               0.007355873               0.000934607              -0.001620929               0.002992243               0.001371313               0.000000000               0.000000000               0.000000000               0.000000000              -0.001685415               0.006718719               0.000863132              -0.001471867               0.002730173               0.001258306               0.000000000               0.000000000               0.000000000               0.000000000              -0.001461914               0.006119288               0.000794888              -0.001313125               0.002477451               0.001164325               0.000000000               0.000000000               0.000000000               0.000000000              -0.001225292               0.005567304               0.000728246              -0.001155395               0.002240881               0.001085486               0.000000000               0.000000000               0.000000000               0.000000000              -0.000996415               0.005071943               0.000644144              -0.001007646               0.002026513               0.001018866               0.000000000               0.000000000               0.000000000               0.000000000              -0.000785967               0.004622281               0.000547334              -0.000872521               0.001831585               0.000959064               0.000000000               0.000000000               0.000000000               0.000000000              -0.000580261               0.004230141               0.000448519              -0.000746364               0.001658821               0.000912457               0.000000000               0.000000000               0.000000000               0.000000000              -0.000385821               0.003905650               0.000345930              -0.000632888               0.001512833               0.000879945               0.000000000               0.000000000               0.000000000               0.000000000              -0.000217974               0.003661648               0.000234671              -0.000539445               0.001400352               0.000860907               0.000000000               0.000000000               0.000000000               0.000000000              -0.000092616               0.003515880               0.000119045              -0.000474215               0.001330020               0.000855805               0.000000000               0.000000000               0.000000000               0.000000000              -0.000044271               0.003469967               0.000062526              -0.000450346               0.001306760               0.000856413               0.000000000               0.000000000               0.000000000               0.000000000               0.001101606               0.010224584              -0.003302904              -0.000864971               0.003696483               0.002831512               0.000000000               0.000000000               0.000000000               0.000000000              -0.000912172               0.009739046              -0.001595821              -0.001559442               0.003766130               0.002206688               0.000000000               0.000000000               0.000000000               0.000000000              -0.002426721               0.009800439              -0.000024480              -0.002135070               0.003978470               0.001843400               0.000000000               0.000000000               0.000000000               0.000000000              -0.002815237               0.009247915               0.000431569              -0.002211698               0.003819840               0.001608142               0.000000000               0.000000000               0.000000000               0.000000000              -0.002768194               0.008570294               0.000544181              -0.002109354               0.003559854               0.001450500               0.000000000               0.000000000               0.000000000               0.000000000              -0.002543957               0.007888140               0.000547821              -0.001939997               0.003276019               0.001336023               0.000000000               0.000000000               0.000000000               0.000000000              -0.002242357               0.007230900               0.000519947              -0.001744742               0.002991856               0.001247114               0.000000000               0.000000000               0.000000000               0.000000000              -0.001907923               0.006606121               0.000484736              -0.001541232               0.002715762               0.001174530               0.000000000               0.000000000               0.000000000               0.000000000              -0.001564641               0.006028409               0.000452421              -0.001340288               0.002456212               0.001115924               0.000000000               0.000000000               0.000000000               0.000000000              -0.001238566               0.005510824               0.000423767              -0.001153312               0.002221360               0.001068048               0.000000000               0.000000000               0.000000000               0.000000000              -0.000939294               0.005057194               0.000376824              -0.000984382               0.002013842               0.001029460               0.000000000               0.000000000               0.000000000               0.000000000              -0.000674636               0.004666710               0.000309536              -0.000836325               0.001834330               0.000998004               0.000000000               0.000000000               0.000000000               0.000000000              -0.000443916               0.004349584               0.000238497              -0.000710165               0.001686568               0.000976404               0.000000000               0.000000000               0.000000000               0.000000000              -0.000250220               0.004114160               0.000165053              -0.000608101               0.001574073               0.000965972               0.000000000               0.000000000               0.000000000               0.000000000              -0.000108548               0.003966521               0.000093961              -0.000536519               0.001501000               0.000964481               0.000000000               0.000000000               0.000000000               0.000000000              -0.000030520               0.003910434               0.000037390              -0.000500248               0.001470214               0.000969966               0.000000000               0.000000000               0.000000000               0.000000000              -0.000001649               0.003920968               0.000008682              -0.000490738               0.001470556               0.000979817               0.000000000               0.000000000               0.000000000               0.000000000               0.000003710               0.007768026              -0.002567652              -0.000969611               0.002912519               0.001942908               0.000000000               0.000000000               0.000000000               0.000000000              -0.001920767               0.008334076              -0.001462350              -0.001762044               0.003365345               0.001603301               0.000000000               0.000000000               0.000000000               0.000000000              -0.003391487               0.009115081              -0.000418683              -0.002411187               0.003842059               0.001430872               0.000000000               0.000000000               0.000000000               0.000000000              -0.003521769               0.008803911              -0.000092303              -0.002421146               0.003741656               0.001320510               0.000000000               0.000000000               0.000000000               0.000000000              -0.003233346               0.008234892               0.000020434              -0.002241861               0.003492224               0.001250363               0.000000000               0.000000000               0.000000000               0.000000000              -0.002814841               0.007607334               0.000064305              -0.002006477               0.003204578               0.001198101               0.000000000               0.000000000               0.000000000               0.000000000              -0.002353180               0.006980448               0.000090185              -0.001754994               0.002911791               0.001156796               0.000000000               0.000000000               0.000000000               0.000000000              -0.001894950               0.006386520               0.000105533              -0.001508917               0.002631791               0.001122874               0.000000000               0.000000000               0.000000000               0.000000000              -0.001461548               0.005852664               0.000116274              -0.001279660               0.002377422               0.001097762               0.000000000               0.000000000               0.000000000               0.000000000              -0.001062936               0.005388960               0.000127742              -0.001072218               0.002153708               0.001081490               0.000000000               0.000000000               0.000000000               0.000000000              -0.000713543               0.004991137               0.000120736              -0.000891468               0.001960852               0.001069383               0.000000000               0.000000000               0.000000000               0.000000000              -0.000419990               0.004672951               0.000090704              -0.000741613               0.001804839               0.001063226               0.000000000               0.000000000               0.000000000               0.000000000              -0.000192191               0.004446482               0.000053390              -0.000627880               0.001691439               0.001063559               0.000000000               0.000000000               0.000000000               0.000000000              -0.000036741               0.004312847               0.000015732              -0.000552882               0.001621895               0.001069013               0.000000000               0.000000000               0.000000000               0.000000000               0.000043130               0.004269779              -0.000012040              -0.000517547               0.001595761               0.001078214               0.000000000               0.000000000               0.000000000               0.000000000               0.000049558               0.004297224              -0.000017496              -0.000518567               0.001605250               0.001086682               0.000000000               0.000000000               0.000000000               0.000000000               0.000038664               0.004343550              -0.000018399              -0.000528443               0.001623983               0.001095540               0.000000000               0.000000000               0.000000000               0.000000000              -0.001284260               0.005696390              -0.001689950              -0.001193644               0.002296659               0.001103014               0.000000000               0.000000000               0.000000000               0.000000000              -0.002905513               0.007070044              -0.001323904              -0.001973318               0.003014430               0.001041112               0.000000000               0.000000000               0.000000000               0.000000000              -0.004151753               0.008411192              -0.000893900              -0.002608300               0.003673136               0.001064836               0.000000000               0.000000000               0.000000000               0.000000000              -0.004013589               0.008350637              -0.000650187              -0.002548919               0.003633158               0.001084238               0.000000000               0.000000000               0.000000000               0.000000000              -0.003522631               0.007918194              -0.000504446              -0.002310755               0.003409623               0.001098868               0.000000000               0.000000000               0.000000000               0.000000000              -0.002945050               0.007370700              -0.000401519              -0.002025726               0.003132117               0.001106391               0.000000000               0.000000000               0.000000000               0.000000000              -0.002361543               0.006799796              -0.000318228              -0.001735549               0.002845092               0.001109543               0.000000000               0.000000000               0.000000000               0.000000000              -0.001806444               0.006257884              -0.000251677              -0.001459649               0.002572490               0.001112841               0.000000000               0.000000000               0.000000000               0.000000000              -0.001302207               0.005777622              -0.000195740              -0.001210527               0.002329364               0.001118836               0.000000000               0.000000000               0.000000000               0.000000000              -0.000851473               0.005369219              -0.000145190              -0.000990452               0.002119872               0.001129420               0.000000000               0.000000000               0.000000000               0.000000000              -0.000470199               0.005023995              -0.000107231              -0.000804322               0.001942756               0.001138434               0.000000000               0.000000000               0.000000000               0.000000000              -0.000164943               0.004764055              -0.000088077              -0.000657359               0.001807122               0.001149763               0.000000000               0.000000000               0.000000000               0.000000000               0.000057363               0.004602949              -0.000078185              -0.000553856               0.001718920               0.001165064               0.000000000               0.000000000               0.000000000               0.000000000               0.000192537               0.004541950              -0.000066386              -0.000495541               0.001679149               0.001183608               0.000000000               0.000000000               0.000000000               0.000000000               0.000238283               0.004571227              -0.000047011              -0.000482046               0.001684409               0.001202363               0.000000000               0.000000000               0.000000000               0.000000000               0.000208167               0.004664388              -0.000022843              -0.000504985               0.001723109               0.001218124               0.000000000               0.000000000               0.000000000               0.000000000               0.000166902               0.004728307              -0.000008915              -0.000528449               0.001752236               0.001223787               0.000000000               0.000000000               0.000000000               0.000000000              -0.002763347               0.003781378              -0.000777828              -0.001508924               0.001763421               0.000254497               0.000000000               0.000000000               0.000000000               0.000000000              -0.003741006               0.005593436              -0.001172842              -0.002102052               0.002565144               0.000463092               0.000000000               0.000000000               0.000000000               0.000000000              -0.004619402               0.007333093              -0.001386464              -0.002648906               0.003327308               0.000678402               0.000000000               0.000000000               0.000000000               0.000000000              -0.004332801               0.007652469              -0.001232630              -0.002581353               0.003411248               0.000829895               0.000000000               0.000000000               0.000000000               0.000000000              -0.003762477               0.007487343              -0.001052597              -0.002346841               0.003278036               0.000931195               0.000000000               0.000000000               0.000000000               0.000000000              -0.003133316               0.007133497              -0.000892297              -0.002066675               0.003066700               0.001000025               0.000000000               0.000000000               0.000000000               0.000000000              -0.002512533               0.006709814              -0.000756282              -0.001780922               0.002830223               0.001049301               0.000000000               0.000000000               0.000000000               0.000000000              -0.001921857               0.006279988              -0.000640725              -0.001505691               0.002595205               0.001089514               0.000000000               0.000000000               0.000000000               0.000000000              -0.001379400               0.005885361              -0.000540289              -0.001252942               0.002379415               0.001126473               0.000000000               0.000000000               0.000000000               0.000000000              -0.000890353               0.005547031              -0.000448488              -0.001027259               0.002191411               0.001164153               0.000000000               0.000000000               0.000000000               0.000000000              -0.000468533               0.005261852              -0.000362792              -0.000833429               0.002031743               0.001198314               0.000000000               0.000000000               0.000000000               0.000000000              -0.000121634               0.005038460              -0.000290262              -0.000675419               0.001904609               0.001229191               0.000000000               0.000000000               0.000000000               0.000000000               0.000142225               0.004880809              -0.000225786              -0.000556765               0.001812508               0.001255743               0.000000000               0.000000000               0.000000000               0.000000000               0.000319035               0.004793761              -0.000160105              -0.000479581               0.001757765               0.001278184               0.000000000               0.000000000               0.000000000               0.000000000               0.000409420               0.004787000              -0.000091111              -0.000444841               0.001743931               0.001299090               0.000000000               0.000000000               0.000000000               0.000000000               0.000426423               0.004865181              -0.000033302              -0.000448238               0.001771124               0.001322886               0.000000000               0.000000000               0.000000000               0.000000000               0.000401054               0.004916132              -0.000004382              -0.000464120               0.001793401               0.001329281               0.000000000               0.000000000               0.000000000               0.000000000              -0.004610558               0.002055543               0.000096458              -0.001985899               0.001347138              -0.000638760               0.000000000               0.000000000               0.000000000               0.000000000              -0.004671739               0.004095997              -0.000964142              -0.002263897               0.002119950              -0.000143947               0.000000000               0.000000000               0.000000000               0.000000000              -0.005001796               0.006038829              -0.001777880              -0.002630521               0.002889763               0.000259242               0.000000000               0.000000000               0.000000000               0.000000000              -0.004580809               0.006715095              -0.001779843              -0.002557184               0.003090737               0.000533553               0.000000000               0.000000000               0.000000000               0.000000000              -0.003964466               0.006855430              -0.001604407              -0.002343598               0.003066319               0.000722721               0.000000000               0.000000000               0.000000000               0.000000000              -0.003317254               0.006743237              -0.001404950              -0.002086870               0.002943346               0.000856476               0.000000000               0.000000000               0.000000000               0.000000000              -0.002687191               0.006506874              -0.001225339              -0.001821051               0.002775953               0.000954902               0.000000000               0.000000000               0.000000000               0.000000000              -0.002080696               0.006219610              -0.001070724              -0.001557708               0.002592418               0.001034710               0.000000000               0.000000000               0.000000000               0.000000000              -0.001504676               0.005932562              -0.000935426              -0.001305821               0.002412774               0.001106954               0.000000000               0.000000000               0.000000000               0.000000000              -0.000974986               0.005672132              -0.000806229              -0.001074634               0.002248903               0.001174269               0.000000000               0.000000000               0.000000000               0.000000000              -0.000504216               0.005446427              -0.000677524              -0.000869883               0.002105418               0.001235536               0.000000000               0.000000000               0.000000000               0.000000000              -0.000101259               0.005257422              -0.000555214              -0.000695148               0.001984173               0.001289024               0.000000000               0.000000000               0.000000000               0.000000000               0.000229980               0.005104701              -0.000439415              -0.000551844               0.001885498               0.001333654               0.000000000               0.000000000               0.000000000               0.000000000               0.000481521               0.004992713              -0.000320639              -0.000443518               0.001812060               0.001368542               0.000000000               0.000000000               0.000000000               0.000000000               0.000644510               0.004931907              -0.000197189              -0.000374796               0.001768885               0.001394088               0.000000000               0.000000000               0.000000000               0.000000000               0.000723003               0.004939385              -0.000088643              -0.000346296               0.001761877               0.001415581               0.000000000               0.000000000               0.000000000               0.000000000               0.000726045               0.004953403              -0.000036465              -0.000346908               0.001766754               0.001419846               0.000000000               0.000000000               0.000000000               0.000000000              -0.006706072               0.000671442               0.000840308              -0.002598705               0.001090041              -0.001508663               0.000000000               0.000000000               0.000000000               0.000000000              -0.005737268               0.002692360              -0.000694497              -0.002488017               0.001726780              -0.000761236               0.000000000               0.000000000               0.000000000               0.000000000              -0.005321507               0.004561264              -0.001970635              -0.002565718               0.002375644              -0.000190074               0.000000000               0.000000000               0.000000000               0.000000000              -0.004683635               0.005472751              -0.002160554              -0.002440452               0.002637715               0.000197263               0.000000000               0.000000000               0.000000000               0.000000000              -0.004006679               0.005887351              -0.002039700              -0.002238419               0.002708570               0.000470151               0.000000000               0.000000000               0.000000000               0.000000000              -0.003339766               0.006025603              -0.001837092              -0.002005608               0.002677050               0.000671442               0.000000000               0.000000000               0.000000000               0.000000000              -0.002708122               0.005999258              -0.001636959              -0.001765449               0.002588215               0.000822766               0.000000000               0.000000000               0.000000000               0.000000000              -0.002100858               0.005885001              -0.001463303              -0.001523444               0.002469462               0.000946018               0.000000000               0.000000000               0.000000000               0.000000000              -0.001512507               0.005735286              -0.001307051              -0.001284098               0.002339775               0.001055677               0.000000000               0.000000000               0.000000000               0.000000000              -0.000956645               0.005581572              -0.001152620              -0.001056436               0.002212651               0.001156214               0.000000000               0.000000000               0.000000000               0.000000000              -0.000446277               0.005435710              -0.000996018              -0.000846816               0.002094157               0.001247341               0.000000000               0.000000000               0.000000000               0.000000000               0.000009337               0.005305173              -0.000844842              -0.000659644               0.001988255               0.001328611               0.000000000               0.000000000               0.000000000               0.000000000               0.000405150               0.005193855              -0.000694637              -0.000497300               0.001897034               0.001399735               0.000000000               0.000000000               0.000000000               0.000000000               0.000730860               0.005103393              -0.000528929              -0.000363851               0.001822398               0.001458547               0.000000000               0.000000000               0.000000000               0.000000000               0.000973582               0.005033308              -0.000350700              -0.000264070               0.001765776               0.001501706               0.000000000               0.000000000               0.000000000               0.000000000               0.001121256               0.004999345              -0.000174023              -0.000204447               0.001734580               0.001530134               0.000000000               0.000000000               0.000000000               0.000000000               0.001162462               0.004992929              -0.000086329              -0.000188193               0.001727024               0.001538831               0.000000000               0.000000000               0.000000000               0.000000000              -0.008908807              -0.000299873               0.001339976              -0.003303316               0.001001141              -0.002302176               0.000000000               0.000000000               0.000000000               0.000000000              -0.006884378               0.001458064              -0.000411124              -0.002763896               0.001407310              -0.001356586               0.000000000               0.000000000               0.000000000               0.000000000              -0.005609372               0.003025324              -0.001940677              -0.002481676               0.001835654              -0.000646022               0.000000000               0.000000000               0.000000000               0.000000000              -0.004671744               0.004035461              -0.002289074              -0.002256332               0.002097249              -0.000159083               0.000000000               0.000000000               0.000000000               0.000000000              -0.003898496               0.004657348              -0.002249666              -0.002044100               0.002233800               0.000189699               0.000000000               0.000000000               0.000000000               0.000000000              -0.003203271               0.005018625              -0.002082588              -0.001828551               0.002282374               0.000453824               0.000000000               0.000000000               0.000000000               0.000000000              -0.002563577               0.005206931              -0.001890744              -0.001612204               0.002273027               0.000660823               0.000000000               0.000000000               0.000000000               0.000000000              -0.001966632               0.005281960              -0.001715398              -0.001397729               0.002226545               0.000828816               0.000000000               0.000000000               0.000000000               0.000000000              -0.001390909               0.005289721              -0.001554547              -0.001182804               0.002157490               0.000974687               0.000000000               0.000000000               0.000000000               0.000000000              -0.000828666               0.005262644              -0.001395454              -0.000968579               0.002077056               0.001108478               0.000000000               0.000000000               0.000000000               0.000000000              -0.000285720               0.005220912              -0.001233116              -0.000759758               0.001993539               0.001233781               0.000000000               0.000000000               0.000000000               0.000000000               0.000222659               0.005180996              -0.001072621              -0.000564127               0.001915024               0.001350897               0.000000000               0.000000000               0.000000000               0.000000000               0.000682392               0.005139605              -0.000907958              -0.000386553               0.001842035               0.001455482               0.000000000               0.000000000               0.000000000               0.000000000               0.001090532               0.005095547              -0.000723027              -0.000227994               0.001774496               0.001546503               0.000000000               0.000000000               0.000000000               0.000000000               0.001437020               0.005053315              -0.000510191              -0.000092782               0.001715349               0.001622567               0.000000000               0.000000000               0.000000000               0.000000000               0.001694354               0.005021310              -0.000268311               0.000007718               0.001671180               0.001678899               0.000000000               0.000000000               0.000000000               0.000000000               0.001809375               0.005016159              -0.000144889               0.000051495               0.001654871               0.001706366               0.000000000               0.000000000               0.000000000               0.000000000              -0.011009235              -0.000888103               0.001497741              -0.004017448               0.001043107              -0.002974340               0.000000000               0.000000000               0.000000000               0.000000000              -0.008015473               0.000460982              -0.000172065              -0.003063422               0.001174793              -0.001888629               0.000000000               0.000000000               0.000000000               0.000000000              -0.005874750               0.001588236              -0.001685889              -0.002401558               0.001329922              -0.001071636               0.000000000               0.000000000               0.000000000               0.000000000              -0.004589038               0.002574476              -0.002115608              -0.002042695               0.001539046              -0.000503650               0.000000000               0.000000000               0.000000000               0.000000000              -0.003676420               0.003328150              -0.002151008              -0.001794673               0.001707595              -0.000087078               0.000000000               0.000000000               0.000000000               0.000000000              -0.002942943               0.003867345              -0.002040032              -0.001587019               0.001818107               0.000231089               0.000000000               0.000000000               0.000000000               0.000000000              -0.002297294               0.004240048              -0.001883557              -0.001391489               0.001877164               0.000485675               0.000000000               0.000000000               0.000000000               0.000000000              -0.001712662               0.004494128              -0.001727361              -0.001204012               0.001899364               0.000695352               0.000000000               0.000000000               0.000000000               0.000000000              -0.001155285               0.004664089              -0.001582012              -0.001016241               0.001893427               0.000877186               0.000000000               0.000000000               0.000000000               0.000000000              -0.000604417               0.004768742              -0.001439194              -0.000822748               0.001863814               0.001041066               0.000000000               0.000000000               0.000000000               0.000000000              -0.000051864               0.004845978              -0.001290716              -0.000625196               0.001823708               0.001198513               0.000000000               0.000000000               0.000000000               0.000000000               0.000495870               0.004915014              -0.001139600              -0.000428425               0.001781130               0.001352705               0.000000000               0.000000000               0.000000000               0.000000000               0.001026534               0.004965106              -0.000987668              -0.000235688               0.001733582               0.001497893               0.000000000               0.000000000               0.000000000               0.000000000               0.001535713               0.004993972              -0.000818466              -0.000048355               0.001680759               0.001632404               0.000000000               0.000000000               0.000000000               0.000000000               0.002012525               0.005005521              -0.000608050               0.000129005               0.001625489               0.001754494               0.000000000               0.000000000               0.000000000               0.000000000               0.002433472               0.005005871              -0.000334611               0.000286815               0.001573002               0.001859817               0.000000000               0.000000000               0.000000000               0.000000000               0.002678971               0.005025126              -0.000191288               0.000376470               0.001549535               0.001926005               0.000000000               0.000000000               0.000000000               0.000000000              -0.012768789              -0.001182188               0.001277653              -0.004640519               0.001152769              -0.003487750               0.000000000               0.000000000               0.000000000               0.000000000              -0.008990250              -0.000259620              -0.000025685              -0.003338889               0.001026416              -0.002312473               0.000000000               0.000000000               0.000000000               0.000000000              -0.006099720               0.000414147              -0.001236990              -0.002339161               0.000917763              -0.001421399               0.000000000               0.000000000               0.000000000               0.000000000              -0.004480010               0.001305259              -0.001629966              -0.001843159               0.001049465              -0.000793694               0.000000000               0.000000000               0.000000000               0.000000000              -0.003422412               0.002116493              -0.001702489              -0.001547964               0.001221477              -0.000326487               0.000000000               0.000000000               0.000000000               0.000000000              -0.002639736               0.002778266              -0.001646132              -0.001337182               0.001371805               0.000034624               0.000000000               0.000000000               0.000000000               0.000000000              -0.001990980               0.003293368              -0.001540380              -0.001158286               0.001483873               0.000325587               0.000000000               0.000000000               0.000000000               0.000000000              -0.001414216               0.003684362              -0.001426418              -0.000990875               0.001558399               0.000567525               0.000000000               0.000000000               0.000000000               0.000000000              -0.000870689               0.003981731              -0.001320017              -0.000824223               0.001601971               0.000777748               0.000000000               0.000000000               0.000000000               0.000000000              -0.000332633               0.004217534              -0.001211598              -0.000651928               0.001623140               0.000971212               0.000000000               0.000000000               0.000000000               0.000000000               0.000216310               0.004417797              -0.001096458              -0.000471108               0.001629620               0.001158512               0.000000000               0.000000000               0.000000000               0.000000000               0.000787366               0.004589591              -0.000980306              -0.000278437               0.001622660               0.001344224               0.000000000               0.000000000               0.000000000               0.000000000               0.001379399               0.004736320              -0.000864277              -0.000074766               0.001603679               0.001528914               0.000000000               0.000000000               0.000000000               0.000000000               0.001984738               0.004854718              -0.000732483               0.000137435               0.001572411               0.001709847               0.000000000               0.000000000               0.000000000               0.000000000               0.002602405               0.004936992              -0.000559928               0.000358774               0.001526056               0.001884830               0.000000000               0.000000000               0.000000000               0.000000000               0.003230516               0.004980122              -0.000318273               0.000588922               0.001463717               0.002052639               0.000000000               0.000000000               0.000000000               0.000000000               0.003663684               0.005035205              -0.000193023               0.000744473               0.001430227               0.002174700               0.000000000               0.000000000               0.000000000               0.000000000              -0.013945483              -0.001300966               0.000734362              -0.005066932               0.001255313              -0.003811619               0.000000000               0.000000000               0.000000000               0.000000000              -0.009653133              -0.000695206               0.000020259              -0.003533022               0.000945932              -0.002587090               0.000000000               0.000000000               0.000000000               0.000000000              -0.006255163              -0.000356761              -0.000652427              -0.002301089               0.000648105              -0.001652985               0.000000000               0.000000000               0.000000000               0.000000000              -0.004390455               0.000439580              -0.000886870              -0.001701367               0.000713644              -0.000987723               0.000000000               0.000000000               0.000000000               0.000000000              -0.003223402               0.001264421              -0.000942496              -0.001366826               0.000877076              -0.000489750               0.000000000               0.000000000               0.000000000               0.000000000              -0.002396291               0.001995530              -0.000922302              -0.001148048               0.001047852              -0.000100196               0.000000000               0.000000000               0.000000000               0.000000000              -0.001741449               0.002592679              -0.000870480              -0.000977126               0.001189926               0.000212800               0.000000000               0.000000000               0.000000000               0.000000000              -0.001168475               0.003066492              -0.000812226              -0.000821488               0.001295983               0.000474495               0.000000000               0.000000000               0.000000000               0.000000000              -0.000633394               0.003454349              -0.000758252              -0.000669315               0.001374543               0.000705228               0.000000000               0.000000000               0.000000000               0.000000000              -0.000104743               0.003783746              -0.000699437              -0.000512246               0.001431985               0.000919739               0.000000000               0.000000000               0.000000000               0.000000000               0.000445838               0.004068768              -0.000635309              -0.000341406               0.001470044               0.001128638               0.000000000               0.000000000               0.000000000               0.000000000               0.001033821               0.004314999              -0.000573052              -0.000151692               0.001488883               0.001337191               0.000000000               0.000000000               0.000000000               0.000000000               0.001664437               0.004529791              -0.000508804               0.000057939               0.001490602               0.001548541               0.000000000               0.000000000               0.000000000               0.000000000               0.002339394               0.004709362              -0.000434024               0.000288600               0.001473572               0.001762171               0.000000000               0.000000000               0.000000000               0.000000000               0.003070736               0.004848824              -0.000336050               0.000545418               0.001434453               0.001979870               0.000000000               0.000000000               0.000000000               0.000000000               0.003878557               0.004940919              -0.000193485               0.000836836               0.001368011               0.002204847               0.000000000               0.000000000               0.000000000               0.000000000               0.004479798               0.005035319              -0.000120531               0.001050499               0.001328257               0.002378755               0.000000000               0.000000000               0.000000000               0.000000000              -0.014359051              -0.001328839               0.000000000              -0.005218536               0.001296557              -0.003921979               0.000000000               0.000000000               0.000000000               0.000000000              -0.009888209              -0.000838574              -0.000000000              -0.003603254               0.000921554              -0.002681701               0.000000000               0.000000000               0.000000000               0.000000000              -0.006312415              -0.000623471               0.000000000              -0.002289220               0.000555246              -0.001733974               0.000000000               0.000000000               0.000000000               0.000000000              -0.004356944               0.000132960               0.000000000              -0.001650473               0.000594474              -0.001055999               0.000000000               0.000000000               0.000000000               0.000000000              -0.003148052               0.000957192              -0.000000000              -0.001300167               0.000752448              -0.000547719               0.000000000               0.000000000               0.000000000               0.000000000              -0.002303049               0.001707599               0.000000000              -0.001077091               0.000928224              -0.000148868               0.000000000               0.000000000               0.000000000               0.000000000              -0.001642689               0.002330656               0.000000000              -0.000907338               0.001079324               0.000171986               0.000000000               0.000000000               0.000000000               0.000000000              -0.001070977               0.002835547              -0.000000000              -0.000756058               0.001197192               0.000441134               0.000000000               0.000000000               0.000000000               0.000000000              -0.000541545               0.003255956               0.000000000              -0.000610073               0.001288665               0.000678593               0.000000000               0.000000000               0.000000000               0.000000000              -0.000018437               0.003612708               0.000000000              -0.000458501               0.001357058               0.000898556               0.000000000               0.000000000               0.000000000               0.000000000               0.000536008               0.003926077              -0.000000000              -0.000289756               0.001405264               0.001115508               0.000000000               0.000000000               0.000000000               0.000000000               0.001133702               0.004203631               0.000000000              -0.000100315               0.001434635               0.001334319               0.000000000               0.000000000               0.000000000               0.000000000               0.001779931               0.004446354               0.000000000               0.000111679               0.001444877               0.001556556               0.000000000               0.000000000               0.000000000               0.000000000               0.002483514               0.004646502               0.000000000               0.000350501               0.001431985               0.001782486               0.000000000               0.000000000               0.000000000               0.000000000               0.003258052               0.004803200               0.000000000               0.000621363               0.001393930               0.002015293               0.000000000               0.000000000               0.000000000               0.000000000               0.004132636               0.004915589              -0.000000000               0.000935281               0.001326753               0.002262034               0.000000000               0.000000000               0.000000000               0.000000000               0.004797701               0.005027752               0.000000000               0.001170657               0.001285682               0.002456339               0.000000000               0.000000000               0.000000000               0.000000000               0.000000000               0.000000000               0.000000000               0.000000000               0.000000000               0.000000000               0.000000000               0.000000000               0.000000000               0.000000000               0.000000000               0.000000000               0.000000000               0.000000000               0.000000000               0.000000000               0.000000000               0.000000000               0.000000000               0.000000000               0.000000000               0.000000000               0.000000000               0.000000000               0.000000000               0.000000000               0.000000000               0.000000000               0.000000000               0.000000000               0.000000000               0.000000000               0.000000000               0.000000000               0.000000000               0.000000000               0.000000000               0.000000000               0.000000000               0.000000000               0.000000000               0.000000000               0.000000000               0.000000000               0.000000000               0.000000000               0.000000000               0.000000000               0.000000000               0.000000000               0.000000000               0.000000000               0.000000000               0.000000000               0.000000000               0.000000000               0.000000000               0.000000000               0.000000000               0.000000000               0.000000000               0.000000000               0.000000000               0.000000000               0.000000000               0.000000000               0.000000000               0.000000000               0.000000000               0.000000000               0.000000000               0.000000000               0.000000000               0.000000000               0.000000000               0.000000000               0.000000000               0.000000000               0.000000000               0.000000000               0.000000000               0.000000000               0.000000000               0.000000000               0.000000000               0.000000000               0.000000000               0.000000000               0.000000000               0.000000000               0.000000000               0.000000000               0.000000000               0.000000000               0.000000000               0.000000000               0.000000000               0.000000000               0.000000000               0.000000000               0.000000000               0.000000000               0.000000000               0.000000000               0.000000000               0.000000000               0.000000000               0.000000000               0.000000000               0.000000000               0.000000000               0.000000000               0.000000000               0.000000000               0.000000000               0.000000000               0.000000000               0.000000000               0.000000000               0.000000000               0.000000000               0.000000000               0.000000000               0.000000000               0.000000000               0.000000000               0.000000000               0.000000000               0.000000000               0.000000000               0.000000000               0.000000000               0.000000000               0.000000000               0.000000000               0.000000000               0.000000000               0.000000000               0.000000000               0.000000000               0.000000000               0.000000000               0.000000000               0.000000000               0.000000000               0.000000000               0.000000000               0.000000000               0.000000000               0.000000000               0.000000000               0.000000000               0.000000000               0.000000000               0.000000000               0.000000000               0.000000000               0.000000000               0.000000000               0.000000000               0.000000000               0.000000000               0.000000000               0.000000000               0.000000000               0.000000000               0.000000000               0.000000000               0.000000000               0.000000000               0.002150216               0.021479511               0.001443679              -0.001878604               0.007785967               0.005907363               0.000000000               0.000000000               0.000000000               0.000000000               0.001939305               0.016478582               0.000633605              -0.001332580               0.005936999               0.004604419               0.000000000               0.000000000               0.000000000               0.000000000               0.002370436               0.012450151              -0.000167847              -0.000667354               0.004372460               0.003705106               0.000000000               0.000000000               0.000000000               0.000000000               0.002116384               0.010160971              -0.000494401              -0.000476476               0.003545782               0.003069306               0.000000000               0.000000000               0.000000000               0.000000000               0.001696699               0.008687383              -0.000618437              -0.000449660               0.003045652               0.002595992               0.000000000               0.000000000               0.000000000               0.000000000               0.001281461               0.007636509              -0.000655185              -0.000474015               0.002703482               0.002229468               0.000000000               0.000000000               0.000000000               0.000000000               0.000920759               0.006813716              -0.000649306              -0.000506429               0.002440025               0.001933597               0.000000000               0.000000000               0.000000000               0.000000000               0.000619795               0.006118419              -0.000627225              -0.000532378               0.002216912               0.001684534               0.000000000               0.000000000               0.000000000               0.000000000               0.000374893               0.005496623              -0.000596264              -0.000546492               0.002014353               0.001467861               0.000000000               0.000000000               0.000000000               0.000000000               0.000191526               0.004911463              -0.000557887              -0.000542110               0.001817841               0.001275732               0.000000000               0.000000000               0.000000000               0.000000000               0.000058410               0.004334276              -0.000517507              -0.000519880               0.001618037               0.001098158               0.000000000               0.000000000               0.000000000               0.000000000              -0.000037706               0.003747566              -0.000474874              -0.000482584               0.001410038               0.000927453               0.000000000               0.000000000               0.000000000               0.000000000              -0.000096547               0.003141002              -0.000427613              -0.000428830               0.001189933               0.000761104               0.000000000               0.000000000               0.000000000               0.000000000              -0.000120576               0.002507338              -0.000370745              -0.000358632               0.000955315               0.000596683               0.000000000               0.000000000               0.000000000               0.000000000              -0.000111755               0.001834737              -0.000290354              -0.000271250               0.000701989               0.000430740               0.000000000               0.000000000               0.000000000               0.000000000              -0.000065441               0.001103159              -0.000167787              -0.000162435               0.000421861               0.000259426               0.000000000               0.000000000               0.000000000               0.000000000              -0.000090092               0.000556733              -0.000104900              -0.000103376               0.000220034               0.000116658               0.000000000               0.000000000               0.000000000               0.000000000               0.002276940               0.020123680               0.002669949              -0.001661605               0.007261694               0.005600090               0.000000000               0.000000000               0.000000000               0.000000000               0.001731872               0.015626487               0.001163454              -0.001303856               0.005643396               0.004339539               0.000000000               0.000000000               0.000000000               0.000000000               0.001808816               0.012121920              -0.000309418              -0.000836932               0.004319577               0.003482645               0.000000000               0.000000000               0.000000000               0.000000000               0.001433878               0.010096816              -0.000886140              -0.000724396               0.003607037               0.002882641               0.000000000               0.000000000               0.000000000               0.000000000               0.001004384               0.008757699              -0.001093020              -0.000718067               0.003158559               0.002440492               0.000000000               0.000000000               0.000000000               0.000000000               0.000630529               0.007772029              -0.001142777              -0.000735054               0.002835668               0.002100614               0.000000000               0.000000000               0.000000000               0.000000000               0.000334196               0.006983085              -0.001120868              -0.000747561               0.002576859               0.001829298               0.000000000               0.000000000               0.000000000               0.000000000               0.000102005               0.006305116              -0.001073616              -0.000749886               0.002351646               0.001601760               0.000000000               0.000000000               0.000000000               0.000000000              -0.000073221               0.005690865              -0.001015441              -0.000738815               0.002143207               0.001404393               0.000000000               0.000000000               0.000000000               0.000000000              -0.000185746               0.005111389              -0.000945044              -0.000708577               0.001939972               0.001231394               0.000000000               0.000000000               0.000000000               0.000000000              -0.000247623               0.004542736              -0.000869261              -0.000660699               0.001734463               0.001073764               0.000000000               0.000000000               0.000000000               0.000000000              -0.000271456               0.003974043              -0.000789664              -0.000598550               0.001524185               0.000925634               0.000000000               0.000000000               0.000000000               0.000000000              -0.000263150               0.003406196              -0.000702780              -0.000524455               0.001310205               0.000785751               0.000000000               0.000000000               0.000000000               0.000000000              -0.000230609               0.002838486              -0.000600772              -0.000441288               0.001093248               0.000651960               0.000000000               0.000000000               0.000000000               0.000000000              -0.000173992               0.002269222              -0.000460988              -0.000348899               0.000872699               0.000523800               0.000000000               0.000000000               0.000000000               0.000000000              -0.000092493               0.001700489              -0.000260375              -0.000247245               0.000649239               0.000401994               0.000000000               0.000000000               0.000000000               0.000000000              -0.000087041               0.001308343              -0.000158207              -0.000196183               0.000501504               0.000305321               0.000000000               0.000000000               0.000000000               0.000000000               0.002368672               0.018072188               0.003507154              -0.001370770               0.006480925               0.005110155               0.000000000               0.000000000               0.000000000               0.000000000               0.001356089               0.014359036               0.001518330              -0.001286344               0.005215079               0.003928735               0.000000000               0.000000000               0.000000000               0.000000000               0.000943520               0.011637927              -0.000392778              -0.001100918               0.004246243               0.003145325               0.000000000               0.000000000               0.000000000               0.000000000               0.000437706               0.009988090              -0.001095083              -0.001084369               0.003690786               0.002606417               0.000000000               0.000000000               0.000000000               0.000000000               0.000026193               0.008830973              -0.001323501              -0.001094047               0.003308310               0.002214263               0.000000000               0.000000000               0.000000000               0.000000000              -0.000269098               0.007934335              -0.001361987              -0.001092702               0.003008986               0.001916284               0.000000000               0.000000000               0.000000000               0.000000000              -0.000462403               0.007186128              -0.001319258              -0.001071665               0.002752573               0.001680908               0.000000000               0.000000000               0.000000000               0.000000000              -0.000576337               0.006524531              -0.001249098              -0.001031691               0.002518718               0.001487028               0.000000000               0.000000000               0.000000000               0.000000000              -0.000629869               0.005913938              -0.001171141              -0.000975441               0.002296440               0.001320999               0.000000000               0.000000000               0.000000000               0.000000000              -0.000632801               0.005338060              -0.001079532              -0.000904556               0.002080854               0.001176298               0.000000000               0.000000000               0.000000000               0.000000000              -0.000596834               0.004784393              -0.000979558              -0.000821860               0.001868735               0.001046875               0.000000000               0.000000000               0.000000000               0.000000000              -0.000533315               0.004250695              -0.000875303              -0.000731329               0.001660660               0.000929332               0.000000000               0.000000000               0.000000000               0.000000000              -0.000447785               0.003738487              -0.000764138              -0.000635229               0.001457893               0.000822664               0.000000000               0.000000000               0.000000000               0.000000000              -0.000346990               0.003252210              -0.000634941              -0.000536646               0.001262941               0.000726295               0.000000000               0.000000000               0.000000000               0.000000000              -0.000234364               0.002799847              -0.000469738              -0.000437866               0.001079228               0.000641362               0.000000000               0.000000000               0.000000000               0.000000000              -0.000116308               0.002402201              -0.000255696              -0.000343890               0.000915356               0.000571466               0.000000000               0.000000000               0.000000000               0.000000000              -0.000082835               0.002162412              -0.000148920              -0.000301364               0.000821252               0.000519888               0.000000000               0.000000000               0.000000000               0.000000000               0.002274944               0.015574761               0.003870630              -0.001093741               0.005556115               0.004462374               0.000000000               0.000000000               0.000000000               0.000000000               0.000779646               0.012855255               0.001681274              -0.001314537               0.004723221               0.003408684               0.000000000               0.000000000               0.000000000               0.000000000              -0.000133130               0.011067295              -0.000382304              -0.001433332               0.004166839               0.002733507               0.000000000               0.000000000               0.000000000               0.000000000              -0.000709823               0.009823034              -0.001080571              -0.001494059               0.003772332               0.002278272               0.000000000               0.000000000               0.000000000               0.000000000              -0.001037464               0.008853886              -0.001279361              -0.001495782               0.003449860               0.001954078               0.000000000               0.000000000               0.000000000               0.000000000              -0.001200117               0.008045270              -0.001293914              -0.001455699               0.003166963               0.001711263               0.000000000               0.000000000               0.000000000               0.000000000              -0.001251379               0.007332440              -0.001235900              -0.001385819               0.002906062               0.001520243               0.000000000               0.000000000               0.000000000               0.000000000              -0.001221977               0.006684545              -0.001154911              -0.001293807               0.002659428               0.001365621               0.000000000               0.000000000               0.000000000               0.000000000              -0.001134875               0.006076591              -0.001071159              -0.001185150               0.002420560               0.001235410               0.000000000               0.000000000               0.000000000               0.000000000              -0.001010611               0.005507904              -0.000978464              -0.001067465               0.002191771               0.001124306               0.000000000               0.000000000               0.000000000               0.000000000              -0.000869036               0.004980448              -0.000874626              -0.000948442               0.001976280               0.001027838               0.000000000               0.000000000               0.000000000               0.000000000              -0.000724029               0.004486054              -0.000763198              -0.000832266               0.001772758               0.000940492               0.000000000               0.000000000               0.000000000               0.000000000              -0.000572917               0.004029264              -0.000646022              -0.000718500               0.001582574               0.000864074               0.000000000               0.000000000               0.000000000               0.000000000              -0.000416402               0.003620508              -0.000518613              -0.000608713               0.001409728               0.000801015               0.000000000               0.000000000               0.000000000               0.000000000              -0.000259187               0.003277270              -0.000368867              -0.000506853               0.001261363               0.000754511               0.000000000               0.000000000               0.000000000               0.000000000              -0.000120400               0.003019721              -0.000194816              -0.000422614               0.001147435               0.000724821               0.000000000               0.000000000               0.000000000               0.000000000              -0.000072306               0.002891700              -0.000110564              -0.000388576               0.001093416               0.000704839               0.000000000               0.000000000               0.000000000               0.000000000               0.001872880               0.012884308               0.003774061              -0.000908209               0.004597462               0.003689253               0.000000000               0.000000000               0.000000000               0.000000000               0.000008741               0.011275245               0.001686845              -0.001406125               0.004227086               0.002820960               0.000000000               0.000000000               0.000000000               0.000000000              -0.001301605               0.010450807              -0.000246891              -0.001794448               0.004081717               0.002287268               0.000000000               0.000000000               0.000000000               0.000000000              -0.001845722               0.009583850              -0.000845433              -0.001890122               0.003824625               0.001934503               0.000000000               0.000000000               0.000000000               0.000000000              -0.002012716               0.008777496              -0.000995054              -0.001851951               0.003543120               0.001691169               0.000000000               0.000000000               0.000000000               0.000000000              -0.001992574               0.008037761              -0.000991976              -0.001751931               0.003263204               0.001511273               0.000000000               0.000000000               0.000000000               0.000000000              -0.001870531               0.007355873              -0.000934607              -0.001620929               0.002992243               0.001371313               0.000000000               0.000000000               0.000000000               0.000000000              -0.001685415               0.006718719              -0.000863132              -0.001471867               0.002730173               0.001258306               0.000000000               0.000000000               0.000000000               0.000000000              -0.001461914               0.006119288              -0.000794888              -0.001313125               0.002477451               0.001164325               0.000000000               0.000000000               0.000000000               0.000000000              -0.001225292               0.005567304              -0.000728246              -0.001155395               0.002240881               0.001085486               0.000000000               0.000000000               0.000000000               0.000000000              -0.000996415               0.005071943              -0.000644144              -0.001007646               0.002026513               0.001018866               0.000000000               0.000000000               0.000000000               0.000000000              -0.000785967               0.004622281              -0.000547334              -0.000872521               0.001831585               0.000959064               0.000000000               0.000000000               0.000000000               0.000000000              -0.000580261               0.004230141              -0.000448519              -0.000746364               0.001658821               0.000912457               0.000000000               0.000000000               0.000000000               0.000000000              -0.000385821               0.003905650              -0.000345930              -0.000632888               0.001512833               0.000879945               0.000000000               0.000000000               0.000000000               0.000000000              -0.000217974               0.003661648              -0.000234671              -0.000539445               0.001400352               0.000860907               0.000000000               0.000000000               0.000000000               0.000000000              -0.000092616               0.003515880              -0.000119045              -0.000474215               0.001330020               0.000855805               0.000000000               0.000000000               0.000000000               0.000000000              -0.000044271               0.003469967              -0.000062526              -0.000450346               0.001306760               0.000856413               0.000000000               0.000000000               0.000000000               0.000000000               0.001101606               0.010224584               0.003302904              -0.000864971               0.003696483               0.002831512               0.000000000               0.000000000               0.000000000               0.000000000              -0.000912172               0.009739046               0.001595821              -0.001559442               0.003766130               0.002206688               0.000000000               0.000000000               0.000000000               0.000000000              -0.002426721               0.009800439               0.000024480              -0.002135070               0.003978470               0.001843400               0.000000000               0.000000000               0.000000000               0.000000000              -0.002815237               0.009247915              -0.000431569              -0.002211698               0.003819840               0.001608142               0.000000000               0.000000000               0.000000000               0.000000000              -0.002768194               0.008570294              -0.000544181              -0.002109354               0.003559854               0.001450500               0.000000000               0.000000000               0.000000000               0.000000000              -0.002543957               0.007888140              -0.000547821              -0.001939997               0.003276019               0.001336023               0.000000000               0.000000000               0.000000000               0.000000000              -0.002242357               0.007230900              -0.000519947              -0.001744742               0.002991856               0.001247114               0.000000000               0.000000000               0.000000000               0.000000000              -0.001907923               0.006606121              -0.000484736              -0.001541232               0.002715762               0.001174530               0.000000000               0.000000000               0.000000000               0.000000000              -0.001564641               0.006028409              -0.000452421              -0.001340288               0.002456212               0.001115924               0.000000000               0.000000000               0.000000000               0.000000000              -0.001238566               0.005510824              -0.000423767              -0.001153312               0.002221360               0.001068048               0.000000000               0.000000000               0.000000000               0.000000000              -0.000939294               0.005057194              -0.000376824              -0.000984382               0.002013842               0.001029460               0.000000000               0.000000000               0.000000000               0.000000000              -0.000674636               0.004666710              -0.000309536              -0.000836325               0.001834330               0.000998004               0.000000000               0.000000000               0.000000000               0.000000000              -0.000443916               0.004349584              -0.000238497              -0.000710165               0.001686568               0.000976404               0.000000000               0.000000000               0.000000000               0.000000000              -0.000250220               0.004114160              -0.000165053              -0.000608101               0.001574073               0.000965972               0.000000000               0.000000000               0.000000000               0.000000000              -0.000108548               0.003966521              -0.000093961              -0.000536519               0.001501000               0.000964481               0.000000000               0.000000000               0.000000000               0.000000000              -0.000030520               0.003910434              -0.000037390              -0.000500248               0.001470214               0.000969966               0.000000000               0.000000000               0.000000000               0.000000000              -0.000001649               0.003920968              -0.000008682              -0.000490738               0.001470556               0.000979817               0.000000000               0.000000000               0.000000000               0.000000000               0.000003710               0.007768026               0.002567652              -0.000969611               0.002912519               0.001942908               0.000000000               0.000000000               0.000000000               0.000000000              -0.001920767               0.008334076               0.001462350              -0.001762044               0.003365345               0.001603301               0.000000000               0.000000000               0.000000000               0.000000000              -0.003391487               0.009115081               0.000418683              -0.002411187               0.003842059               0.001430872               0.000000000               0.000000000               0.000000000               0.000000000              -0.003521769               0.008803911               0.000092303              -0.002421146               0.003741656               0.001320510               0.000000000               0.000000000               0.000000000               0.000000000              -0.003233346               0.008234892              -0.000020434              -0.002241861               0.003492224               0.001250363               0.000000000               0.000000000               0.000000000               0.000000000              -0.002814841               0.007607334              -0.000064305              -0.002006477               0.003204578               0.001198101               0.000000000               0.000000000               0.000000000               0.000000000              -0.002353180               0.006980448              -0.000090185              -0.001754994               0.002911791               0.001156796               0.000000000               0.000000000               0.000000000               0.000000000              -0.001894950               0.006386520              -0.000105533              -0.001508917               0.002631791               0.001122874               0.000000000               0.000000000               0.000000000               0.000000000              -0.001461548               0.005852664              -0.000116274              -0.001279660               0.002377422               0.001097762               0.000000000               0.000000000               0.000000000               0.000000000              -0.001062936               0.005388960              -0.000127742              -0.001072218               0.002153708               0.001081490               0.000000000               0.000000000               0.000000000               0.000000000              -0.000713543               0.004991137              -0.000120736              -0.000891468               0.001960852               0.001069383               0.000000000               0.000000000               0.000000000               0.000000000              -0.000419990               0.004672951              -0.000090704              -0.000741613               0.001804839               0.001063226               0.000000000               0.000000000               0.000000000               0.000000000              -0.000192191               0.004446482              -0.000053390              -0.000627880               0.001691439               0.001063559               0.000000000               0.000000000               0.000000000               0.000000000              -0.000036741               0.004312847              -0.000015732              -0.000552882               0.001621895               0.001069013               0.000000000               0.000000000               0.000000000               0.000000000               0.000043130               0.004269779               0.000012040              -0.000517547               0.001595761               0.001078214               0.000000000               0.000000000               0.000000000               0.000000000               0.000049558               0.004297224               0.000017496              -0.000518567               0.001605250               0.001086682               0.000000000               0.000000000               0.000000000               0.000000000               0.000038664               0.004343550               0.000018399              -0.000528443               0.001623983               0.001095540               0.000000000               0.000000000               0.000000000               0.000000000              -0.001284260               0.005696390               0.001689950              -0.001193644               0.002296659               0.001103014               0.000000000               0.000000000               0.000000000               0.000000000              -0.002905513               0.007070044               0.001323904              -0.001973318               0.003014430               0.001041112               0.000000000               0.000000000               0.000000000               0.000000000              -0.004151753               0.008411192               0.000893900              -0.002608300               0.003673136               0.001064836               0.000000000               0.000000000               0.000000000               0.000000000              -0.004013589               0.008350637               0.000650187              -0.002548919               0.003633158               0.001084238               0.000000000               0.000000000               0.000000000               0.000000000              -0.003522631               0.007918194               0.000504446              -0.002310755               0.003409623               0.001098868               0.000000000               0.000000000               0.000000000               0.000000000              -0.002945050               0.007370700               0.000401519              -0.002025726               0.003132117               0.001106391               0.000000000               0.000000000               0.000000000               0.000000000              -0.002361543               0.006799796               0.000318228              -0.001735549               0.002845092               0.001109543               0.000000000               0.000000000               0.000000000               0.000000000              -0.001806444               0.006257884               0.000251677              -0.001459649               0.002572490               0.001112841               0.000000000               0.000000000               0.000000000               0.000000000              -0.001302207               0.005777622               0.000195740              -0.001210527               0.002329364               0.001118836               0.000000000               0.000000000               0.000000000               0.000000000              -0.000851473               0.005369219               0.000145190              -0.000990452               0.002119872               0.001129420               0.000000000               0.000000000               0.000000000               0.000000000              -0.000470199               0.005023995               0.000107231              -0.000804322               0.001942756               0.001138434               0.000000000               0.000000000               0.000000000               0.000000000              -0.000164943               0.004764055               0.000088077              -0.000657359               0.001807122               0.001149763               0.000000000               0.000000000               0.000000000               0.000000000               0.000057363               0.004602949               0.000078185              -0.000553856               0.001718920               0.001165064               0.000000000               0.000000000               0.000000000               0.000000000               0.000192537               0.004541950               0.000066386              -0.000495541               0.001679149               0.001183608               0.000000000               0.000000000               0.000000000               0.000000000               0.000238283               0.004571227               0.000047011              -0.000482046               0.001684409               0.001202363               0.000000000               0.000000000               0.000000000               0.000000000               0.000208167               0.004664388               0.000022843              -0.000504985               0.001723109               0.001218124               0.000000000               0.000000000               0.000000000               0.000000000               0.000166902               0.004728307               0.000008915              -0.000528449               0.001752236               0.001223787               0.000000000               0.000000000               0.000000000               0.000000000              -0.002763347               0.003781378               0.000777828              -0.001508924               0.001763421               0.000254497               0.000000000               0.000000000               0.000000000               0.000000000              -0.003741006               0.005593436               0.001172842              -0.002102052               0.002565144               0.000463092               0.000000000               0.000000000               0.000000000               0.000000000              -0.004619402               0.007333093               0.001386464              -0.002648906               0.003327308               0.000678402               0.000000000               0.000000000               0.000000000               0.000000000              -0.004332801               0.007652469               0.001232630              -0.002581353               0.003411248               0.000829895               0.000000000               0.000000000               0.000000000               0.000000000              -0.003762477               0.007487343               0.001052597              -0.002346841               0.003278036               0.000931195               0.000000000               0.000000000               0.000000000               0.000000000              -0.003133316               0.007133497               0.000892297              -0.002066675               0.003066700               0.001000025               0.000000000               0.000000000               0.000000000               0.000000000              -0.002512533               0.006709814               0.000756282              -0.001780922               0.002830223               0.001049301               0.000000000               0.000000000               0.000000000               0.000000000              -0.001921857               0.006279988               0.000640725              -0.001505691               0.002595205               0.001089514               0.000000000               0.000000000               0.000000000               0.000000000              -0.001379400               0.005885361               0.000540289              -0.001252942               0.002379415               0.001126473               0.000000000               0.000000000               0.000000000               0.000000000              -0.000890353               0.005547031               0.000448488              -0.001027259               0.002191411               0.001164153               0.000000000               0.000000000               0.000000000               0.000000000              -0.000468533               0.005261852               0.000362792              -0.000833429               0.002031743               0.001198314               0.000000000               0.000000000               0.000000000               0.000000000              -0.000121634               0.005038460               0.000290262              -0.000675419               0.001904609               0.001229191               0.000000000               0.000000000               0.000000000               0.000000000               0.000142225               0.004880809               0.000225786              -0.000556765               0.001812508               0.001255743               0.000000000               0.000000000               0.000000000               0.000000000               0.000319035               0.004793761               0.000160105              -0.000479581               0.001757765               0.001278184               0.000000000               0.000000000               0.000000000               0.000000000               0.000409420               0.004787000               0.000091111              -0.000444841               0.001743931               0.001299090               0.000000000               0.000000000               0.000000000               0.000000000               0.000426423               0.004865181               0.000033302              -0.000448238               0.001771124               0.001322886               0.000000000               0.000000000               0.000000000               0.000000000               0.000401054               0.004916132               0.000004382              -0.000464120               0.001793401               0.001329281               0.000000000               0.000000000               0.000000000               0.000000000              -0.004610558               0.002055543              -0.000096458              -0.001985899               0.001347138              -0.000638760               0.000000000               0.000000000               0.000000000               0.000000000              -0.004671739               0.004095997               0.000964142              -0.002263897               0.002119950              -0.000143947               0.000000000               0.000000000               0.000000000               0.000000000              -0.005001796               0.006038829               0.001777880              -0.002630521               0.002889763               0.000259242               0.000000000               0.000000000               0.000000000               0.000000000              -0.004580809               0.006715095               0.001779843              -0.002557184               0.003090737               0.000533553               0.000000000               0.000000000               0.000000000               0.000000000              -0.003964466               0.006855430               0.001604407              -0.002343598               0.003066319               0.000722721               0.000000000               0.000000000               0.000000000               0.000000000              -0.003317254               0.006743237               0.001404950              -0.002086870               0.002943346               0.000856476               0.000000000               0.000000000               0.000000000               0.000000000              -0.002687191               0.006506874               0.001225339              -0.001821051               0.002775953               0.000954902               0.000000000               0.000000000               0.000000000               0.000000000              -0.002080696               0.006219610               0.001070724              -0.001557708               0.002592418               0.001034710               0.000000000               0.000000000               0.000000000               0.000000000              -0.001504676               0.005932562               0.000935426              -0.001305821               0.002412774               0.001106954               0.000000000               0.000000000               0.000000000               0.000000000              -0.000974986               0.005672132               0.000806229              -0.001074634               0.002248903               0.001174269               0.000000000               0.000000000               0.000000000               0.000000000              -0.000504216               0.005446427               0.000677524              -0.000869883               0.002105418               0.001235536               0.000000000               0.000000000               0.000000000               0.000000000              -0.000101259               0.005257422               0.000555214              -0.000695148               0.001984173               0.001289024               0.000000000               0.000000000               0.000000000               0.000000000               0.000229980               0.005104701               0.000439415              -0.000551844               0.001885498               0.001333654               0.000000000               0.000000000               0.000000000               0.000000000               0.000481521               0.004992713               0.000320639              -0.000443518               0.001812060               0.001368542               0.000000000               0.000000000               0.000000000               0.000000000               0.000644510               0.004931907               0.000197189              -0.000374796               0.001768885               0.001394088               0.000000000               0.000000000               0.000000000               0.000000000               0.000723003               0.004939385               0.000088643              -0.000346296               0.001761877               0.001415581               0.000000000               0.000000000               0.000000000               0.000000000               0.000726045               0.004953403               0.000036465              -0.000346908               0.001766754               0.001419846               0.000000000               0.000000000               0.000000000               0.000000000              -0.006706072               0.000671442              -0.000840308              -0.002598705               0.001090041              -0.001508663               0.000000000               0.000000000               0.000000000               0.000000000              -0.005737268               0.002692360               0.000694497              -0.002488017               0.001726780              -0.000761236               0.000000000               0.000000000               0.000000000               0.000000000              -0.005321507               0.004561264               0.001970635              -0.002565718               0.002375644              -0.000190074               0.000000000               0.000000000               0.000000000               0.000000000              -0.004683635               0.005472751               0.002160554              -0.002440452               0.002637715               0.000197263               0.000000000               0.000000000               0.000000000               0.000000000              -0.004006679               0.005887351               0.002039700              -0.002238419               0.002708570               0.000470151               0.000000000               0.000000000               0.000000000               0.000000000              -0.003339766               0.006025603               0.001837092              -0.002005608               0.002677050               0.000671442               0.000000000               0.000000000               0.000000000               0.000000000              -0.002708122               0.005999258               0.001636959              -0.001765449               0.002588215               0.000822766               0.000000000               0.000000000               0.000000000               0.000000000              -0.002100858               0.005885001               0.001463303              -0.001523444               0.002469462               0.000946018               0.000000000               0.000000000               0.000000000               0.000000000              -0.001512507               0.005735286               0.001307051              -0.001284098               0.002339775               0.001055677               0.000000000               0.000000000               0.000000000               0.000000000              -0.000956645               0.005581572               0.001152620              -0.001056436               0.002212651               0.001156214               0.000000000               0.000000000               0.000000000               0.000000000              -0.000446277               0.005435710               0.000996018              -0.000846816               0.002094157               0.001247341               0.000000000               0.000000000               0.000000000               0.000000000               0.000009337               0.005305173               0.000844842              -0.000659644               0.001988255               0.001328611               0.000000000               0.000000000               0.000000000               0.000000000               0.000405150               0.005193855               0.000694637              -0.000497300               0.001897034               0.001399735               0.000000000               0.000000000               0.000000000               0.000000000               0.000730860               0.005103393               0.000528929              -0.000363851               0.001822398               0.001458547               0.000000000               0.000000000               0.000000000               0.000000000               0.000973582               0.005033308               0.000350700              -0.000264070               0.001765776               0.001501706               0.000000000               0.000000000               0.000000000               0.000000000               0.001121256               0.004999345               0.000174023              -0.000204447               0.001734580               0.001530134               0.000000000               0.000000000               0.000000000               0.000000000               0.001162462               0.004992929               0.000086329              -0.000188193               0.001727024               0.001538831               0.000000000               0.000000000               0.000000000               0.000000000              -0.008908807              -0.000299873              -0.001339976              -0.003303316               0.001001141              -0.002302176               0.000000000               0.000000000               0.000000000               0.000000000              -0.006884378               0.001458064               0.000411124              -0.002763896               0.001407310              -0.001356586               0.000000000               0.000000000               0.000000000               0.000000000              -0.005609372               0.003025324               0.001940677              -0.002481676               0.001835654              -0.000646022               0.000000000               0.000000000               0.000000000               0.000000000              -0.004671744               0.004035461               0.002289074              -0.002256332               0.002097249              -0.000159083               0.000000000               0.000000000               0.000000000               0.000000000              -0.003898496               0.004657348               0.002249666              -0.002044100               0.002233800               0.000189699               0.000000000               0.000000000               0.000000000               0.000000000              -0.003203271               0.005018625               0.002082588              -0.001828551               0.002282374               0.000453824               0.000000000               0.000000000               0.000000000               0.000000000              -0.002563577               0.005206931               0.001890744              -0.001612204               0.002273027               0.000660823               0.000000000               0.000000000               0.000000000               0.000000000              -0.001966632               0.005281960               0.001715398              -0.001397729               0.002226545               0.000828816               0.000000000               0.000000000               0.000000000               0.000000000              -0.001390909               0.005289721               0.001554547              -0.001182804               0.002157490               0.000974687               0.000000000               0.000000000               0.000000000               0.000000000              -0.000828666               0.005262644               0.001395454              -0.000968579               0.002077056               0.001108478               0.000000000               0.000000000               0.000000000               0.000000000              -0.000285720               0.005220912               0.001233116              -0.000759758               0.001993539               0.001233781               0.000000000               0.000000000               0.000000000               0.000000000               0.000222659               0.005180996               0.001072621              -0.000564127               0.001915024               0.001350897               0.000000000               0.000000000               0.000000000               0.000000000               0.000682392               0.005139605               0.000907958              -0.000386553               0.001842035               0.001455482               0.000000000               0.000000000               0.000000000               0.000000000               0.001090532               0.005095547               0.000723027              -0.000227994               0.001774496               0.001546503               0.000000000               0.000000000               0.000000000               0.000000000               0.001437020               0.005053315               0.000510191              -0.000092782               0.001715349               0.001622567               0.000000000               0.000000000               0.000000000               0.000000000               0.001694354               0.005021310               0.000268311               0.000007718               0.001671180               0.001678899               0.000000000               0.000000000               0.000000000               0.000000000               0.001809375               0.005016159               0.000144889               0.000051495               0.001654871               0.001706366               0.000000000               0.000000000               0.000000000               0.000000000              -0.011009235              -0.000888103              -0.001497741              -0.004017448               0.001043107              -0.002974340               0.000000000               0.000000000               0.000000000               0.000000000              -0.008015473               0.000460982               0.000172065              -0.003063422               0.001174793              -0.001888629               0.000000000               0.000000000               0.000000000               0.000000000              -0.005874750               0.001588236               0.001685889              -0.002401558               0.001329922              -0.001071636               0.000000000               0.000000000               0.000000000               0.000000000              -0.004589038               0.002574476               0.002115608              -0.002042695               0.001539046              -0.000503650               0.000000000               0.000000000               0.000000000               0.000000000              -0.003676420               0.003328150               0.002151008              -0.001794673               0.001707595              -0.000087078               0.000000000               0.000000000               0.000000000               0.000000000              -0.002942943               0.003867345               0.002040032              -0.001587019               0.001818107               0.000231089               0.000000000               0.000000000               0.000000000               0.000000000              -0.002297294               0.004240048               0.001883557              -0.001391489               0.001877164               0.000485675               0.000000000               0.000000000               0.000000000               0.000000000              -0.001712662               0.004494128               0.001727361              -0.001204012               0.001899364               0.000695352               0.000000000               0.000000000               0.000000000               0.000000000              -0.001155285               0.004664089               0.001582012              -0.001016241               0.001893427               0.000877186               0.000000000               0.000000000               0.000000000               0.000000000              -0.000604417               0.004768742               0.001439194              -0.000822748               0.001863814               0.001041066               0.000000000               0.000000000               0.000000000               0.000000000              -0.000051864               0.004845978               0.001290716              -0.000625196               0.001823708               0.001198513               0.000000000               0.000000000               0.000000000               0.000000000               0.000495870               0.004915014               0.001139600              -0.000428425               0.001781130               0.001352705               0.000000000               0.000000000               0.000000000               0.000000000               0.001026534               0.004965106               0.000987668              -0.000235688               0.001733582               0.001497893               0.000000000               0.000000000               0.000000000               0.000000000               0.001535713               0.004993972               0.000818466              -0.000048355               0.001680759               0.001632404               0.000000000               0.000000000               0.000000000               0.000000000               0.002012525               0.005005521               0.000608050               0.000129005               0.001625489               0.001754494               0.000000000               0.000000000               0.000000000               0.000000000               0.002433472               0.005005871               0.000334611               0.000286815               0.001573002               0.001859817               0.000000000               0.000000000               0.000000000               0.000000000               0.002678971               0.005025126               0.000191288               0.000376470               0.001549535               0.001926005               0.000000000               0.000000000               0.000000000               0.000000000              -0.012768789              -0.001182188              -0.001277653              -0.004640519               0.001152769              -0.003487750               0.000000000               0.000000000               0.000000000               0.000000000              -0.008990250              -0.000259620               0.000025685              -0.003338889               0.001026416              -0.002312473               0.000000000               0.000000000               0.000000000               0.000000000              -0.006099720               0.000414147               0.001236990              -0.002339161               0.000917763              -0.001421399               0.000000000               0.000000000               0.000000000               0.000000000              -0.004480010               0.001305259               0.001629966              -0.001843159               0.001049465              -0.000793694               0.000000000               0.000000000               0.000000000               0.000000000              -0.003422412               0.002116493               0.001702489              -0.001547964               0.001221477              -0.000326487               0.000000000               0.000000000               0.000000000               0.000000000              -0.002639736               0.002778266               0.001646132              -0.001337182               0.001371805               0.000034624               0.000000000               0.000000000               0.000000000               0.000000000              -0.001990980               0.003293368               0.001540380              -0.001158286               0.001483873               0.000325587               0.000000000               0.000000000               0.000000000               0.000000000              -0.001414216               0.003684362               0.001426418              -0.000990875               0.001558399               0.000567525               0.000000000               0.000000000               0.000000000               0.000000000              -0.000870689               0.003981731               0.001320017              -0.000824223               0.001601971               0.000777748               0.000000000               0.000000000               0.000000000               0.000000000              -0.000332633               0.004217534               0.001211598              -0.000651928               0.001623140               0.000971212               0.000000000               0.000000000               0.000000000               0.000000000               0.000216310               0.004417797               0.001096458              -0.000471108               0.001629620               0.001158512               0.000000000               0.000000000               0.000000000               0.000000000               0.000787366               0.004589591               0.000980306              -0.000278437               0.001622660               0.001344224               0.000000000               0.000000000               0.000000000               0.000000000               0.001379399               0.004736320               0.000864277              -0.000074766               0.001603679               0.001528914               0.000000000               0.000000000               0.000000000               0.000000000               0.001984738               0.004854718               0.000732483               0.000137435               0.001572411               0.001709847               0.000000000               0.000000000               0.000000000               0.000000000               0.002602405               0.004936992               0.000559928               0.000358774               0.001526056               0.001884830               0.000000000               0.000000000               0.000000000               0.000000000               0.003230516               0.004980122               0.000318273               0.000588922               0.001463717               0.002052639               0.000000000               0.000000000               0.000000000               0.000000000               0.003663684               0.005035205               0.000193023               0.000744473               0.001430227               0.002174700               0.000000000               0.000000000               0.000000000               0.000000000              -0.013945483              -0.001300966              -0.000734362              -0.005066932               0.001255313              -0.003811619               0.000000000               0.000000000               0.000000000               0.000000000              -0.009653133              -0.000695206              -0.000020259              -0.003533022               0.000945932              -0.002587090               0.000000000               0.000000000               0.000000000               0.000000000              -0.006255163              -0.000356761               0.000652427              -0.002301089               0.000648105              -0.001652985               0.000000000               0.000000000               0.000000000               0.000000000              -0.004390455               0.000439580               0.000886870              -0.001701367               0.000713644              -0.000987723               0.000000000               0.000000000               0.000000000               0.000000000              -0.003223402               0.001264421               0.000942496              -0.001366826               0.000877076              -0.000489750               0.000000000               0.000000000               0.000000000               0.000000000              -0.002396291               0.001995530               0.000922302              -0.001148048               0.001047852              -0.000100196               0.000000000               0.000000000               0.000000000               0.000000000              -0.001741449               0.002592679               0.000870480              -0.000977126               0.001189926               0.000212800               0.000000000               0.000000000               0.000000000               0.000000000              -0.001168475               0.003066492               0.000812226              -0.000821488               0.001295983               0.000474495               0.000000000               0.000000000               0.000000000               0.000000000              -0.000633394               0.003454349               0.000758252              -0.000669315               0.001374543               0.000705228               0.000000000               0.000000000               0.000000000               0.000000000              -0.000104743               0.003783746               0.000699437              -0.000512246               0.001431985               0.000919739               0.000000000               0.000000000               0.000000000               0.000000000               0.000445838               0.004068768               0.000635309              -0.000341406               0.001470044               0.001128638               0.000000000               0.000000000               0.000000000               0.000000000               0.001033821               0.004314999               0.000573052              -0.000151692               0.001488883               0.001337191               0.000000000               0.000000000               0.000000000               0.000000000               0.001664437               0.004529791               0.000508804               0.000057939               0.001490602               0.001548541               0.000000000               0.000000000               0.000000000               0.000000000               0.002339394               0.004709362               0.000434024               0.000288600               0.001473572               0.001762171               0.000000000               0.000000000               0.000000000               0.000000000               0.003070736               0.004848824               0.000336050               0.000545418               0.001434453               0.001979870               0.000000000               0.000000000               0.000000000               0.000000000               0.003878557               0.004940919               0.000193485               0.000836836               0.001368011               0.002204847               0.000000000               0.000000000               0.000000000               0.000000000               0.004479798               0.005035319               0.000120531               0.001050499               0.001328257               0.002378755               0.000000000               0.000000000               0.000000000               0.000000000              -0.014359051              -0.001328839              -0.000000000              -0.005218536               0.001296557              -0.003921979               0.000000000               0.000000000               0.000000000               0.000000000              -0.009888209              -0.000838574              -0.000000000              -0.003603254               0.000921554              -0.002681701               0.000000000               0.000000000               0.000000000               0.000000000              -0.006312415              -0.000623471               0.000000000              -0.002289220               0.000555246              -0.001733974               0.000000000               0.000000000               0.000000000               0.000000000              -0.004356944               0.000132960               0.000000000              -0.001650473               0.000594474              -0.001055999               0.000000000               0.000000000               0.000000000               0.000000000              -0.003148052               0.000957192              -0.000000000              -0.001300167               0.000752448              -0.000547719               0.000000000               0.000000000               0.000000000               0.000000000              -0.002303049               0.001707599               0.000000000              -0.001077091               0.000928224              -0.000148868               0.000000000               0.000000000               0.000000000               0.000000000              -0.001642689               0.002330656              -0.000000000              -0.000907338               0.001079324               0.000171986               0.000000000               0.000000000               0.000000000               0.000000000              -0.001070977               0.002835547               0.000000000              -0.000756058               0.001197192               0.000441134               0.000000000               0.000000000               0.000000000               0.000000000              -0.000541545               0.003255956               0.000000000              -0.000610073               0.001288665               0.000678593               0.000000000               0.000000000               0.000000000               0.000000000              -0.000018437               0.003612708              -0.000000000              -0.000458501               0.001357058               0.000898556               0.000000000               0.000000000               0.000000000               0.000000000               0.000536008               0.003926077              -0.000000000              -0.000289756               0.001405264               0.001115508               0.000000000               0.000000000               0.000000000               0.000000000               0.001133702               0.004203631               0.000000000              -0.000100315               0.001434635               0.001334319               0.000000000               0.000000000               0.000000000               0.000000000               0.001779931               0.004446354              -0.000000000               0.000111679               0.001444877               0.001556556               0.000000000               0.000000000               0.000000000               0.000000000               0.002483514               0.004646502              -0.000000000               0.000350501               0.001431985               0.001782486               0.000000000               0.000000000               0.000000000               0.000000000               0.003258052               0.004803200               0.000000000               0.000621363               0.001393930               0.002015293               0.000000000               0.000000000               0.000000000               0.000000000               0.004132636               0.004915589               0.000000000               0.000935281               0.001326753               0.002262034               0.000000000               0.000000000               0.000000000               0.000000000               0.004797701               0.005027752              -0.000000000               0.001170657               0.001285682               0.002456339               0.000000000               0.000000000               0.000000000               0.000000000               0.002095592               0.021953868               0.000000000              -0.001958382               0.007970677               0.006012295               0.000000000               0.000000000               0.000000000               0.000000000               0.002005337               0.016778937               0.000000000              -0.001345363               0.006041377               0.004696015               0.000000000               0.000000000               0.000000000               0.000000000               0.002565137               0.012566839               0.000000000              -0.000608927               0.004391880               0.003782953               0.000000000               0.000000000               0.000000000               0.000000000               0.002359239               0.010183981               0.000000000              -0.000388282               0.003524054               0.003135772               0.000000000               0.000000000               0.000000000               0.000000000               0.001945675               0.008659364               0.000000000              -0.000352792               0.003004023               0.002651231               0.000000000               0.000000000               0.000000000               0.000000000               0.001517699               0.007583732              -0.000000000              -0.000378829               0.002654162               0.002275333               0.000000000               0.000000000               0.000000000               0.000000000               0.001137000               0.006750064              -0.000000000              -0.000417382               0.002389126               0.001971744               0.000000000               0.000000000               0.000000000               0.000000000               0.000817034               0.006046605              -0.000000000              -0.000449437               0.002165327               0.001715890               0.000000000               0.000000000               0.000000000               0.000000000               0.000551465               0.005419198               0.000000000              -0.000470599               0.001963248               0.001492648               0.000000000               0.000000000               0.000000000               0.000000000               0.000341136               0.004828675              -0.000000000              -0.000475657               0.001768095               0.001292437               0.000000000               0.000000000               0.000000000               0.000000000               0.000179823               0.004247557              -0.000000000              -0.000463510               0.001570342               0.001106832               0.000000000               0.000000000               0.000000000               0.000000000               0.000055638               0.003655849              -0.000000000              -0.000436116               0.001363976               0.000927860               0.000000000               0.000000000               0.000000000               0.000000000              -0.000031123               0.003038183               0.000000000              -0.000391443               0.001143198               0.000751755               0.000000000               0.000000000               0.000000000               0.000000000              -0.000080402               0.002380668               0.000000000              -0.000327734               0.000902793               0.000575059               0.000000000               0.000000000               0.000000000               0.000000000              -0.000088629               0.001666040              -0.000000000              -0.000241490               0.000635838               0.000394347               0.000000000               0.000000000               0.000000000               0.000000000              -0.000053551               0.000865291              -0.000000000              -0.000128243               0.000331175               0.000202932               0.000000000               0.000000000               0.000000000               0.000000000              -0.000091376               0.000250587               0.000000000              -0.000065590               0.000105391               0.000039801               0.000000000               0.000000000               0.000000000               0.000000000               0.002150216               0.021479511              -0.001443679              -0.001878604               0.007785967               0.005907363               0.000000000               0.000000000               0.000000000               0.000000000               0.001939305               0.016478582              -0.000633605              -0.001332580               0.005936999               0.004604419               0.000000000               0.000000000               0.000000000               0.000000000               0.002370436               0.012450151               0.000167847              -0.000667354               0.004372460               0.003705106               0.000000000               0.000000000               0.000000000               0.000000000               0.002116384               0.010160971               0.000494401              -0.000476476               0.003545782               0.003069306               0.000000000               0.000000000               0.000000000               0.000000000               0.001696699               0.008687383               0.000618437              -0.000449660               0.003045652               0.002595992               0.000000000               0.000000000               0.000000000               0.000000000               0.001281461               0.007636509               0.000655185              -0.000474015               0.002703482               0.002229468               0.000000000               0.000000000               0.000000000               0.000000000               0.000920759               0.006813716               0.000649306              -0.000506429               0.002440025               0.001933597               0.000000000               0.000000000               0.000000000               0.000000000               0.000619795               0.006118419               0.000627225              -0.000532378               0.002216912               0.001684534               0.000000000               0.000000000               0.000000000               0.000000000               0.000374893               0.005496623               0.000596264              -0.000546492               0.002014353               0.001467861               0.000000000               0.000000000               0.000000000               0.000000000               0.000191526               0.004911463               0.000557887              -0.000542110               0.001817841               0.001275732               0.000000000               0.000000000               0.000000000               0.000000000               0.000058410               0.004334276               0.000517507              -0.000519880               0.001618037               0.001098158               0.000000000               0.000000000               0.000000000               0.000000000              -0.000037706               0.003747566               0.000474874              -0.000482584               0.001410038               0.000927453               0.000000000               0.000000000               0.000000000               0.000000000              -0.000096547               0.003141002               0.000427613              -0.000428830               0.001189933               0.000761104               0.000000000               0.000000000               0.000000000               0.000000000              -0.000120576               0.002507338               0.000370745              -0.000358632               0.000955315               0.000596683               0.000000000               0.000000000               0.000000000               0.000000000              -0.000111755               0.001834737               0.000290354              -0.000271250               0.000701989               0.000430740               0.000000000               0.000000000               0.000000000               0.000000000              -0.000065441               0.001103159               0.000167787              -0.000162435               0.000421861               0.000259426               0.000000000               0.000000000               0.000000000               0.000000000              -0.000090092               0.000556733               0.000104900              -0.000103376               0.000220034               0.000116658               0.000000000               0.000000000               0.000000000               0.000000000               0.002276940               0.020123680              -0.002669949              -0.001661605               0.007261694               0.005600090               0.000000000               0.000000000               0.000000000               0.000000000               0.001731872               0.015626487              -0.001163454              -0.001303856               0.005643396               0.004339539               0.000000000               0.000000000               0.000000000               0.000000000               0.001808816               0.012121920               0.000309418              -0.000836932               0.004319577               0.003482645               0.000000000               0.000000000               0.000000000               0.000000000               0.001433878               0.010096816               0.000886140              -0.000724396               0.003607037               0.002882641               0.000000000               0.000000000               0.000000000               0.000000000               0.001004384               0.008757699               0.001093020              -0.000718067               0.003158559               0.002440492               0.000000000               0.000000000               0.000000000               0.000000000               0.000630529               0.007772029               0.001142777              -0.000735054               0.002835668               0.002100614               0.000000000               0.000000000               0.000000000               0.000000000               0.000334196               0.006983085               0.001120868              -0.000747561               0.002576859               0.001829298               0.000000000               0.000000000               0.000000000               0.000000000               0.000102005               0.006305116               0.001073616              -0.000749886               0.002351646               0.001601760               0.000000000               0.000000000               0.000000000               0.000000000              -0.000073221               0.005690865               0.001015441              -0.000738815               0.002143207               0.001404393               0.000000000               0.000000000               0.000000000               0.000000000              -0.000185746               0.005111389               0.000945044              -0.000708577               0.001939972               0.001231394               0.000000000               0.000000000               0.000000000               0.000000000              -0.000247623               0.004542736               0.000869261              -0.000660699               0.001734463               0.001073764               0.000000000               0.000000000               0.000000000               0.000000000              -0.000271456               0.003974043               0.000789664              -0.000598550               0.001524185               0.000925634               0.000000000               0.000000000               0.000000000               0.000000000              -0.000263150               0.003406196               0.000702780              -0.000524455               0.001310205               0.000785751               0.000000000               0.000000000               0.000000000               0.000000000              -0.000230609               0.002838486               0.000600772              -0.000441288               0.001093248               0.000651960               0.000000000               0.000000000               0.000000000               0.000000000              -0.000173992               0.002269222               0.000460988              -0.000348899               0.000872699               0.000523800               0.000000000               0.000000000               0.000000000               0.000000000              -0.000092493               0.001700489               0.000260375              -0.000247245               0.000649239               0.000401994               0.000000000               0.000000000               0.000000000               0.000000000              -0.000087041               0.001308343               0.000158207              -0.000196183               0.000501504               0.000305321               0.000000000               0.000000000               0.000000000               0.000000000               0.002368672               0.018072188              -0.003507154              -0.001370770               0.006480925               0.005110155               0.000000000               0.000000000               0.000000000               0.000000000               0.001356089               0.014359036              -0.001518330              -0.001286344               0.005215079               0.003928735               0.000000000               0.000000000               0.000000000               0.000000000               0.000943520               0.011637927               0.000392778              -0.001100918               0.004246243               0.003145325               0.000000000               0.000000000               0.000000000               0.000000000               0.000437706               0.009988090               0.001095083              -0.001084369               0.003690786               0.002606417               0.000000000               0.000000000               0.000000000               0.000000000               0.000026193               0.008830973               0.001323501              -0.001094047               0.003308310               0.002214263               0.000000000               0.000000000               0.000000000               0.000000000              -0.000269098               0.007934335               0.001361987              -0.001092702               0.003008986               0.001916284               0.000000000               0.000000000               0.000000000               0.000000000              -0.000462403               0.007186128               0.001319258              -0.001071665               0.002752573               0.001680908               0.000000000               0.000000000               0.000000000               0.000000000              -0.000576337               0.006524531               0.001249098              -0.001031691               0.002518718               0.001487028               0.000000000               0.000000000               0.000000000               0.000000000              -0.000629869               0.005913938               0.001171141              -0.000975441               0.002296440               0.001320999               0.000000000               0.000000000               0.000000000               0.000000000              -0.000632801               0.005338060               0.001079532              -0.000904556               0.002080854               0.001176298               0.000000000               0.000000000               0.000000000               0.000000000              -0.000596834               0.004784393               0.000979558              -0.000821860               0.001868735               0.001046875               0.000000000               0.000000000               0.000000000               0.000000000              -0.000533315               0.004250695               0.000875303              -0.000731329               0.001660660               0.000929332               0.000000000               0.000000000               0.000000000               0.000000000              -0.000447785               0.003738487               0.000764138              -0.000635229               0.001457893               0.000822664               0.000000000               0.000000000               0.000000000               0.000000000              -0.000346990               0.003252210               0.000634941              -0.000536646               0.001262941               0.000726295               0.000000000               0.000000000               0.000000000               0.000000000              -0.000234364               0.002799847               0.000469738              -0.000437866               0.001079228               0.000641362               0.000000000               0.000000000               0.000000000               0.000000000              -0.000116308               0.002402201               0.000255696              -0.000343890               0.000915356               0.000571466               0.000000000               0.000000000               0.000000000               0.000000000              -0.000082835               0.002162412               0.000148920              -0.000301364               0.000821252               0.000519888               0.000000000               0.000000000               0.000000000               0.000000000               0.002274944               0.015574761              -0.003870630              -0.001093741               0.005556115               0.004462374               0.000000000               0.000000000               0.000000000               0.000000000               0.000779646               0.012855255              -0.001681274              -0.001314537               0.004723221               0.003408684               0.000000000               0.000000000               0.000000000               0.000000000              -0.000133130               0.011067295               0.000382304              -0.001433332               0.004166839               0.002733507               0.000000000               0.000000000               0.000000000               0.000000000              -0.000709823               0.009823034               0.001080571              -0.001494059               0.003772332               0.002278272               0.000000000               0.000000000               0.000000000               0.000000000              -0.001037464               0.008853886               0.001279361              -0.001495782               0.003449860               0.001954078               0.000000000               0.000000000               0.000000000               0.000000000              -0.001200117               0.008045270               0.001293914              -0.001455699               0.003166963               0.001711263               0.000000000               0.000000000               0.000000000               0.000000000              -0.001251379               0.007332440               0.001235900              -0.001385819               0.002906062               0.001520243               0.000000000               0.000000000               0.000000000               0.000000000              -0.001221977               0.006684545               0.001154911              -0.001293807               0.002659428               0.001365621               0.000000000               0.000000000               0.000000000               0.000000000              -0.001134875               0.006076591               0.001071159              -0.001185150               0.002420560               0.001235410               0.000000000               0.000000000               0.000000000               0.000000000              -0.001010611               0.005507904               0.000978464              -0.001067465               0.002191771               0.001124306               0.000000000               0.000000000               0.000000000               0.000000000              -0.000869036               0.004980448               0.000874626              -0.000948442               0.001976280               0.001027838               0.000000000               0.000000000               0.000000000               0.000000000              -0.000724029               0.004486054               0.000763198              -0.000832266               0.001772758               0.000940492               0.000000000               0.000000000               0.000000000               0.000000000              -0.000572917               0.004029264               0.000646022              -0.000718500               0.001582574               0.000864074               0.000000000               0.000000000               0.000000000               0.000000000              -0.000416402               0.003620508               0.000518613              -0.000608713               0.001409728               0.000801015               0.000000000               0.000000000               0.000000000               0.000000000              -0.000259187               0.003277270               0.000368867              -0.000506853               0.001261363               0.000754511               0.000000000               0.000000000               0.000000000               0.000000000              -0.000120400               0.003019721               0.000194816              -0.000422614               0.001147435               0.000724821               0.000000000               0.000000000               0.000000000               0.000000000              -0.000072306               0.002891700               0.000110564              -0.000388576               0.001093416               0.000704839               0.000000000               0.000000000               0.000000000               0.000000000               0.001872880               0.012884308              -0.003774061              -0.000908209               0.004597462               0.003689253               0.000000000               0.000000000               0.000000000               0.000000000               0.000008741               0.011275245              -0.001686845              -0.001406125               0.004227086               0.002820960               0.000000000               0.000000000               0.000000000               0.000000000              -0.001301605               0.010450807               0.000246891              -0.001794448               0.004081717               0.002287268               0.000000000               0.000000000               0.000000000               0.000000000              -0.001845722               0.009583850               0.000845433              -0.001890122               0.003824625               0.001934503               0.000000000               0.000000000               0.000000000               0.000000000              -0.002012716               0.008777496               0.000995054              -0.001851951               0.003543120               0.001691169               0.000000000               0.000000000               0.000000000               0.000000000              -0.001992574               0.008037761               0.000991976              -0.001751931               0.003263204               0.001511273               0.000000000               0.000000000               0.000000000               0.000000000              -0.001870531               0.007355873               0.000934607              -0.001620929               0.002992243               0.001371313               0.000000000               0.000000000               0.000000000               0.000000000              -0.001685415               0.006718719               0.000863132              -0.001471867               0.002730173               0.001258306               0.000000000               0.000000000               0.000000000               0.000000000              -0.001461914               0.006119288               0.000794888              -0.001313125               0.002477451               0.001164325               0.000000000               0.000000000               0.000000000               0.000000000              -0.001225292               0.005567304               0.000728246              -0.001155395               0.002240881               0.001085486               0.000000000               0.000000000               0.000000000               0.000000000              -0.000996415               0.005071943               0.000644144              -0.001007646               0.002026513               0.001018866               0.000000000               0.000000000               0.000000000               0.000000000              -0.000785967               0.004622281               0.000547334              -0.000872521               0.001831585               0.000959064               0.000000000               0.000000000               0.000000000               0.000000000              -0.000580261               0.004230141               0.000448519              -0.000746364               0.001658821               0.000912457               0.000000000               0.000000000               0.000000000               0.000000000              -0.000385821               0.003905650               0.000345930              -0.000632888               0.001512833               0.000879945               0.000000000               0.000000000               0.000000000               0.000000000              -0.000217974               0.003661648               0.000234671              -0.000539445               0.001400352               0.000860907               0.000000000               0.000000000               0.000000000               0.000000000              -0.000092616               0.003515880               0.000119045              -0.000474215               0.001330020               0.000855805               0.000000000               0.000000000               0.000000000               0.000000000              -0.000044271               0.003469967               0.000062526              -0.000450346               0.001306760               0.000856413               0.000000000               0.000000000               0.000000000               0.000000000               0.001101606               0.010224584              -0.003302904              -0.000864971               0.003696483               0.002831512               0.000000000               0.000000000               0.000000000               0.000000000              -0.000912172               0.009739046              -0.001595821              -0.001559442               0.003766130               0.002206688               0.000000000               0.000000000               0.000000000               0.000000000              -0.002426721               0.009800439              -0.000024480              -0.002135070               0.003978470               0.001843400               0.000000000               0.000000000               0.000000000               0.000000000              -0.002815237               0.009247915               0.000431569              -0.002211698               0.003819840               0.001608142               0.000000000               0.000000000               0.000000000               0.000000000              -0.002768194               0.008570294               0.000544181              -0.002109354               0.003559854               0.001450500               0.000000000               0.000000000               0.000000000               0.000000000              -0.002543957               0.007888140               0.000547821              -0.001939997               0.003276019               0.001336023               0.000000000               0.000000000               0.000000000               0.000000000              -0.002242357               0.007230900               0.000519947              -0.001744742               0.002991856               0.001247114               0.000000000               0.000000000               0.000000000               0.000000000              -0.001907923               0.006606121               0.000484736              -0.001541232               0.002715762               0.001174530               0.000000000               0.000000000               0.000000000               0.000000000              -0.001564641               0.006028409               0.000452421              -0.001340288               0.002456212               0.001115924               0.000000000               0.000000000               0.000000000               0.000000000              -0.001238566               0.005510824               0.000423767              -0.001153312               0.002221360               0.001068048               0.000000000               0.000000000               0.000000000               0.000000000              -0.000939294               0.005057194               0.000376824              -0.000984382               0.002013842               0.001029460               0.000000000               0.000000000               0.000000000               0.000000000              -0.000674636               0.004666710               0.000309536              -0.000836325               0.001834330               0.000998004               0.000000000               0.000000000               0.000000000               0.000000000              -0.000443916               0.004349584               0.000238497              -0.000710165               0.001686568               0.000976404               0.000000000               0.000000000               0.000000000               0.000000000              -0.000250220               0.004114160               0.000165053              -0.000608101               0.001574073               0.000965972               0.000000000               0.000000000               0.000000000               0.000000000              -0.000108548               0.003966521               0.000093961              -0.000536519               0.001501000               0.000964481               0.000000000               0.000000000               0.000000000               0.000000000              -0.000030520               0.003910434               0.000037390              -0.000500248               0.001470214               0.000969966               0.000000000               0.000000000               0.000000000               0.000000000              -0.000001649               0.003920968               0.000008682              -0.000490738               0.001470556               0.000979817               0.000000000               0.000000000               0.000000000               0.000000000               0.000003710               0.007768026              -0.002567652              -0.000969611               0.002912519               0.001942908               0.000000000               0.000000000               0.000000000               0.000000000              -0.001920767               0.008334076              -0.001462350              -0.001762044               0.003365345               0.001603301               0.000000000               0.000000000               0.000000000               0.000000000              -0.003391487               0.009115081              -0.000418683              -0.002411187               0.003842059               0.001430872               0.000000000               0.000000000               0.000000000               0.000000000              -0.003521769               0.008803911              -0.000092303              -0.002421146               0.003741656               0.001320510               0.000000000               0.000000000               0.000000000               0.000000000              -0.003233346               0.008234892               0.000020434              -0.002241861               0.003492224               0.001250363               0.000000000               0.000000000               0.000000000               0.000000000              -0.002814841               0.007607334               0.000064305              -0.002006477               0.003204578               0.001198101               0.000000000               0.000000000               0.000000000               0.000000000              -0.002353180               0.006980448               0.000090185              -0.001754994               0.002911791               0.001156796               0.000000000               0.000000000               0.000000000               0.000000000              -0.001894950               0.006386520               0.000105533              -0.001508917               0.002631791               0.001122874               0.000000000               0.000000000               0.000000000               0.000000000              -0.001461548               0.005852664               0.000116274              -0.001279660               0.002377422               0.001097762               0.000000000               0.000000000               0.000000000               0.000000000              -0.001062936               0.005388960               0.000127742              -0.001072218               0.002153708               0.001081490               0.000000000               0.000000000               0.000000000               0.000000000              -0.000713543               0.004991137               0.000120736              -0.000891468               0.001960852               0.001069383               0.000000000               0.000000000               0.000000000               0.000000000              -0.000419990               0.004672951               0.000090704              -0.000741613               0.001804839               0.001063226               0.000000000               0.000000000               0.000000000               0.000000000              -0.000192191               0.004446482               0.000053390              -0.000627880               0.001691439               0.001063559               0.000000000               0.000000000               0.000000000               0.000000000              -0.000036741               0.004312847               0.000015732              -0.000552882               0.001621895               0.001069013               0.000000000               0.000000000               0.000000000               0.000000000               0.000043130               0.004269779              -0.000012040              -0.000517547               0.001595761               0.001078214               0.000000000               0.000000000               0.000000000               0.000000000               0.000049558               0.004297224              -0.000017496              -0.000518567               0.001605250               0.001086682               0.000000000               0.000000000               0.000000000               0.000000000               0.000038664               0.004343550              -0.000018399              -0.000528443               0.001623983               0.001095540               0.000000000               0.000000000               0.000000000               0.000000000              -0.001284260               0.005696390              -0.001689950              -0.001193644               0.002296659               0.001103014               0.000000000               0.000000000               0.000000000               0.000000000              -0.002905513               0.007070044              -0.001323904              -0.001973318               0.003014430               0.001041112               0.000000000               0.000000000               0.000000000               0.000000000              -0.004151753               0.008411192              -0.000893900              -0.002608300               0.003673136               0.001064836               0.000000000               0.000000000               0.000000000               0.000000000              -0.004013589               0.008350637              -0.000650187              -0.002548919               0.003633158               0.001084238               0.000000000               0.000000000               0.000000000               0.000000000              -0.003522631               0.007918194              -0.000504446              -0.002310755               0.003409623               0.001098868               0.000000000               0.000000000               0.000000000               0.000000000              -0.002945050               0.007370700              -0.000401519              -0.002025726               0.003132117               0.001106391               0.000000000               0.000000000               0.000000000               0.000000000              -0.002361543               0.006799796              -0.000318228              -0.001735549               0.002845092               0.001109543               0.000000000               0.000000000               0.000000000               0.000000000              -0.001806444               0.006257884              -0.000251677              -0.001459649               0.002572490               0.001112841               0.000000000               0.000000000               0.000000000               0.000000000              -0.001302207               0.005777622              -0.000195740              -0.001210527               0.002329364               0.001118836               0.000000000               0.000000000               0.000000000               0.000000000              -0.000851473               0.005369219              -0.000145190              -0.000990452               0.002119872               0.001129420               0.000000000               0.000000000               0.000000000               0.000000000              -0.000470199               0.005023995              -0.000107231              -0.000804322               0.001942756               0.001138434               0.000000000               0.000000000               0.000000000               0.000000000              -0.000164943               0.004764055              -0.000088077              -0.000657359               0.001807122               0.001149763               0.000000000               0.000000000               0.000000000               0.000000000               0.000057363               0.004602949              -0.000078185              -0.000553856               0.001718920               0.001165064               0.000000000               0.000000000               0.000000000               0.000000000               0.000192537               0.004541950              -0.000066386              -0.000495541               0.001679149               0.001183608               0.000000000               0.000000000               0.000000000               0.000000000               0.000238283               0.004571227              -0.000047011              -0.000482046               0.001684409               0.001202363               0.000000000               0.000000000               0.000000000               0.000000000               0.000208167               0.004664388              -0.000022843              -0.000504985               0.001723109               0.001218124               0.000000000               0.000000000               0.000000000               0.000000000               0.000166902               0.004728307              -0.000008915              -0.000528449               0.001752236               0.001223787               0.000000000               0.000000000               0.000000000               0.000000000              -0.002763347               0.003781378              -0.000777828              -0.001508924               0.001763421               0.000254497               0.000000000               0.000000000               0.000000000               0.000000000              -0.003741006               0.005593436              -0.001172842              -0.002102052               0.002565144               0.000463092               0.000000000               0.000000000               0.000000000               0.000000000              -0.004619402               0.007333093              -0.001386464              -0.002648906               0.003327308               0.000678402               0.000000000               0.000000000               0.000000000               0.000000000              -0.004332801               0.007652469              -0.001232630              -0.002581353               0.003411248               0.000829895               0.000000000               0.000000000               0.000000000               0.000000000              -0.003762477               0.007487343              -0.001052597              -0.002346841               0.003278036               0.000931195               0.000000000               0.000000000               0.000000000               0.000000000              -0.003133316               0.007133497              -0.000892297              -0.002066675               0.003066700               0.001000025               0.000000000               0.000000000               0.000000000               0.000000000              -0.002512533               0.006709814              -0.000756282              -0.001780922               0.002830223               0.001049301               0.000000000               0.000000000               0.000000000               0.000000000              -0.001921857               0.006279988              -0.000640725              -0.001505691               0.002595205               0.001089514               0.000000000               0.000000000               0.000000000               0.000000000              -0.001379400               0.005885361              -0.000540289              -0.001252942               0.002379415               0.001126473               0.000000000               0.000000000               0.000000000               0.000000000              -0.000890353               0.005547031              -0.000448488              -0.001027259               0.002191411               0.001164153               0.000000000               0.000000000               0.000000000               0.000000000              -0.000468533               0.005261852              -0.000362792              -0.000833429               0.002031743               0.001198314               0.000000000               0.000000000               0.000000000               0.000000000              -0.000121634               0.005038460              -0.000290262              -0.000675419               0.001904609               0.001229191               0.000000000               0.000000000               0.000000000               0.000000000               0.000142225               0.004880809              -0.000225786              -0.000556765               0.001812508               0.001255743               0.000000000               0.000000000               0.000000000               0.000000000               0.000319035               0.004793761              -0.000160105              -0.000479581               0.001757765               0.001278184               0.000000000               0.000000000               0.000000000               0.000000000               0.000409420               0.004787000              -0.000091111              -0.000444841               0.001743931               0.001299090               0.000000000               0.000000000               0.000000000               0.000000000               0.000426423               0.004865181              -0.000033302              -0.000448238               0.001771124               0.001322886               0.000000000               0.000000000               0.000000000               0.000000000               0.000401054               0.004916132              -0.000004382              -0.000464120               0.001793401               0.001329281               0.000000000               0.000000000               0.000000000               0.000000000              -0.004610558               0.002055543               0.000096458              -0.001985899               0.001347138              -0.000638760               0.000000000               0.000000000               0.000000000               0.000000000              -0.004671739               0.004095997              -0.000964142              -0.002263897               0.002119950              -0.000143947               0.000000000               0.000000000               0.000000000               0.000000000              -0.005001796               0.006038829              -0.001777880              -0.002630521               0.002889763               0.000259242               0.000000000               0.000000000               0.000000000               0.000000000              -0.004580809               0.006715095              -0.001779843              -0.002557184               0.003090737               0.000533553               0.000000000               0.000000000               0.000000000               0.000000000              -0.003964466               0.006855430              -0.001604407              -0.002343598               0.003066319               0.000722721               0.000000000               0.000000000               0.000000000               0.000000000              -0.003317254               0.006743237              -0.001404950              -0.002086870               0.002943346               0.000856476               0.000000000               0.000000000               0.000000000               0.000000000              -0.002687191               0.006506874              -0.001225339              -0.001821051               0.002775953               0.000954902               0.000000000               0.000000000               0.000000000               0.000000000              -0.002080696               0.006219610              -0.001070724              -0.001557708               0.002592418               0.001034710               0.000000000               0.000000000               0.000000000               0.000000000              -0.001504676               0.005932562              -0.000935426              -0.001305821               0.002412774               0.001106954               0.000000000               0.000000000               0.000000000               0.000000000              -0.000974986               0.005672132              -0.000806229              -0.001074634               0.002248903               0.001174269               0.000000000               0.000000000               0.000000000               0.000000000              -0.000504216               0.005446427              -0.000677524              -0.000869883               0.002105418               0.001235536               0.000000000               0.000000000               0.000000000               0.000000000              -0.000101259               0.005257422              -0.000555214              -0.000695148               0.001984173               0.001289024               0.000000000               0.000000000               0.000000000               0.000000000               0.000229980               0.005104701              -0.000439415              -0.000551844               0.001885498               0.001333654               0.000000000               0.000000000               0.000000000               0.000000000               0.000481521               0.004992713              -0.000320639              -0.000443518               0.001812060               0.001368542               0.000000000               0.000000000               0.000000000               0.000000000               0.000644510               0.004931907              -0.000197189              -0.000374796               0.001768885               0.001394088               0.000000000               0.000000000               0.000000000               0.000000000               0.000723003               0.004939385              -0.000088643              -0.000346296               0.001761877               0.001415581               0.000000000               0.000000000               0.000000000               0.000000000               0.000726045               0.004953403              -0.000036465              -0.000346908               0.001766754               0.001419846               0.000000000               0.000000000               0.000000000               0.000000000              -0.006706072               0.000671442               0.000840308              -0.002598705               0.001090041              -0.001508663               0.000000000               0.000000000               0.000000000               0.000000000              -0.005737268               0.002692360              -0.000694497              -0.002488017               0.001726780              -0.000761236               0.000000000               0.000000000               0.000000000               0.000000000              -0.005321507               0.004561264              -0.001970635              -0.002565718               0.002375644              -0.000190074               0.000000000               0.000000000               0.000000000               0.000000000              -0.004683635               0.005472751              -0.002160554              -0.002440452               0.002637715               0.000197263               0.000000000               0.000000000               0.000000000               0.000000000              -0.004006679               0.005887351              -0.002039700              -0.002238419               0.002708570               0.000470151               0.000000000               0.000000000               0.000000000               0.000000000              -0.003339766               0.006025603              -0.001837092              -0.002005608               0.002677050               0.000671442               0.000000000               0.000000000               0.000000000               0.000000000              -0.002708122               0.005999258              -0.001636959              -0.001765449               0.002588215               0.000822766               0.000000000               0.000000000               0.000000000               0.000000000              -0.002100858               0.005885001              -0.001463303              -0.001523444               0.002469462               0.000946018               0.000000000               0.000000000               0.000000000               0.000000000              -0.001512507               0.005735286              -0.001307051              -0.001284098               0.002339775               0.001055677               0.000000000               0.000000000               0.000000000               0.000000000              -0.000956645               0.005581572              -0.001152620              -0.001056436               0.002212651               0.001156214               0.000000000               0.000000000               0.000000000               0.000000000              -0.000446277               0.005435710              -0.000996018              -0.000846816               0.002094157               0.001247341               0.000000000               0.000000000               0.000000000               0.000000000               0.000009337               0.005305173              -0.000844842              -0.000659644               0.001988255               0.001328611               0.000000000               0.000000000               0.000000000               0.000000000               0.000405150               0.005193855              -0.000694637              -0.000497300               0.001897034               0.001399735               0.000000000               0.000000000               0.000000000               0.000000000               0.000730860               0.005103393              -0.000528929              -0.000363851               0.001822398               0.001458547               0.000000000               0.000000000               0.000000000               0.000000000               0.000973582               0.005033308              -0.000350700              -0.000264070               0.001765776               0.001501706               0.000000000               0.000000000               0.000000000               0.000000000               0.001121256               0.004999345              -0.000174023              -0.000204447               0.001734580               0.001530134               0.000000000               0.000000000               0.000000000               0.000000000               0.001162462               0.004992929              -0.000086329              -0.000188193               0.001727024               0.001538831               0.000000000               0.000000000               0.000000000               0.000000000              -0.008908807              -0.000299873               0.001339976              -0.003303316               0.001001141              -0.002302176               0.000000000               0.000000000               0.000000000               0.000000000              -0.006884378               0.001458064              -0.000411124              -0.002763896               0.001407310              -0.001356586               0.000000000               0.000000000               0.000000000               0.000000000              -0.005609372               0.003025324              -0.001940677              -0.002481676               0.001835654              -0.000646022               0.000000000               0.000000000               0.000000000               0.000000000              -0.004671744               0.004035461              -0.002289074              -0.002256332               0.002097249              -0.000159083               0.000000000               0.000000000               0.000000000               0.000000000              -0.003898496               0.004657348              -0.002249666              -0.002044100               0.002233800               0.000189699               0.000000000               0.000000000               0.000000000               0.000000000              -0.003203271               0.005018625              -0.002082588              -0.001828551               0.002282374               0.000453824               0.000000000               0.000000000               0.000000000               0.000000000              -0.002563577               0.005206931              -0.001890744              -0.001612204               0.002273027               0.000660823               0.000000000               0.000000000               0.000000000               0.000000000              -0.001966632               0.005281960              -0.001715398              -0.001397729               0.002226545               0.000828816               0.000000000               0.000000000               0.000000000               0.000000000              -0.001390909               0.005289721              -0.001554547              -0.001182804               0.002157490               0.000974687               0.000000000               0.000000000               0.000000000               0.000000000              -0.000828666               0.005262644              -0.001395454              -0.000968579               0.002077056               0.001108478               0.000000000               0.000000000               0.000000000               0.000000000              -0.000285720               0.005220912              -0.001233116              -0.000759758               0.001993539               0.001233781               0.000000000               0.000000000               0.000000000               0.000000000               0.000222659               0.005180996              -0.001072621              -0.000564127               0.001915024               0.001350897               0.000000000               0.000000000               0.000000000               0.000000000               0.000682392               0.005139605              -0.000907958              -0.000386553               0.001842035               0.001455482               0.000000000               0.000000000               0.000000000               0.000000000               0.001090532               0.005095547              -0.000723027              -0.000227994               0.001774496               0.001546503               0.000000000               0.000000000               0.000000000               0.000000000               0.001437020               0.005053315              -0.000510191              -0.000092782               0.001715349               0.001622567               0.000000000               0.000000000               0.000000000               0.000000000               0.001694354               0.005021310              -0.000268311               0.000007718               0.001671180               0.001678899               0.000000000               0.000000000               0.000000000               0.000000000               0.001809375               0.005016159              -0.000144889               0.000051495               0.001654871               0.001706366               0.000000000               0.000000000               0.000000000               0.000000000              -0.011009235              -0.000888103               0.001497741              -0.004017448               0.001043107              -0.002974340               0.000000000               0.000000000               0.000000000               0.000000000              -0.008015473               0.000460982              -0.000172065              -0.003063422               0.001174793              -0.001888629               0.000000000               0.000000000               0.000000000               0.000000000              -0.005874750               0.001588236              -0.001685889              -0.002401558               0.001329922              -0.001071636               0.000000000               0.000000000               0.000000000               0.000000000              -0.004589038               0.002574476              -0.002115608              -0.002042695               0.001539046              -0.000503650               0.000000000               0.000000000               0.000000000               0.000000000              -0.003676420               0.003328150              -0.002151008              -0.001794673               0.001707595              -0.000087078               0.000000000               0.000000000               0.000000000               0.000000000              -0.002942943               0.003867345              -0.002040032              -0.001587019               0.001818107               0.000231089               0.000000000               0.000000000               0.000000000               0.000000000              -0.002297294               0.004240048              -0.001883557              -0.001391489               0.001877164               0.000485675               0.000000000               0.000000000               0.000000000               0.000000000              -0.001712662               0.004494128              -0.001727361              -0.001204012               0.001899364               0.000695352               0.000000000               0.000000000               0.000000000               0.000000000              -0.001155285               0.004664089              -0.001582012              -0.001016241               0.001893427               0.000877186               0.000000000               0.000000000               0.000000000               0.000000000              -0.000604417               0.004768742              -0.001439194              -0.000822748               0.001863814               0.001041066               0.000000000               0.000000000               0.000000000               0.000000000              -0.000051864               0.004845978              -0.001290716              -0.000625196               0.001823708               0.001198513               0.000000000               0.000000000               0.000000000               0.000000000               0.000495870               0.004915014              -0.001139600              -0.000428425               0.001781130               0.001352705               0.000000000               0.000000000               0.000000000               0.000000000               0.001026534               0.004965106              -0.000987668              -0.000235688               0.001733582               0.001497893               0.000000000               0.000000000               0.000000000               0.000000000               0.001535713               0.004993972              -0.000818466              -0.000048355               0.001680759               0.001632404               0.000000000               0.000000000               0.000000000               0.000000000               0.002012525               0.005005521              -0.000608050               0.000129005               0.001625489               0.001754494               0.000000000               0.000000000               0.000000000               0.000000000               0.002433472               0.005005871              -0.000334611               0.000286815               0.001573002               0.001859817               0.000000000               0.000000000               0.000000000               0.000000000               0.002678971               0.005025126              -0.000191288               0.000376470               0.001549535               0.001926005               0.000000000               0.000000000               0.000000000               0.000000000              -0.012768789              -0.001182188               0.001277653              -0.004640519               0.001152769              -0.003487750               0.000000000               0.000000000               0.000000000               0.000000000              -0.008990250              -0.000259620              -0.000025685              -0.003338889               0.001026416              -0.002312473               0.000000000               0.000000000               0.000000000               0.000000000              -0.006099720               0.000414147              -0.001236990              -0.002339161               0.000917763              -0.001421399               0.000000000               0.000000000               0.000000000               0.000000000              -0.004480010               0.001305259              -0.001629966              -0.001843159               0.001049465              -0.000793694               0.000000000               0.000000000               0.000000000               0.000000000              -0.003422412               0.002116493              -0.001702489              -0.001547964               0.001221477              -0.000326487               0.000000000               0.000000000               0.000000000               0.000000000              -0.002639736               0.002778266              -0.001646132              -0.001337182               0.001371805               0.000034624               0.000000000               0.000000000               0.000000000               0.000000000              -0.001990980               0.003293368              -0.001540380              -0.001158286               0.001483873               0.000325587               0.000000000               0.000000000               0.000000000               0.000000000              -0.001414216               0.003684362              -0.001426418              -0.000990875               0.001558399               0.000567525               0.000000000               0.000000000               0.000000000               0.000000000              -0.000870689               0.003981731              -0.001320017              -0.000824223               0.001601971               0.000777748               0.000000000               0.000000000               0.000000000               0.000000000              -0.000332633               0.004217534              -0.001211598              -0.000651928               0.001623140               0.000971212               0.000000000               0.000000000               0.000000000               0.000000000               0.000216310               0.004417797              -0.001096458              -0.000471108               0.001629620               0.001158512               0.000000000               0.000000000               0.000000000               0.000000000               0.000787366               0.004589591              -0.000980306              -0.000278437               0.001622660               0.001344224               0.000000000               0.000000000               0.000000000               0.000000000               0.001379399               0.004736320              -0.000864277              -0.000074766               0.001603679               0.001528914               0.000000000               0.000000000               0.000000000               0.000000000               0.001984738               0.004854718              -0.000732483               0.000137435               0.001572411               0.001709847               0.000000000               0.000000000               0.000000000               0.000000000               0.002602405               0.004936992              -0.000559928               0.000358774               0.001526056               0.001884830               0.000000000               0.000000000               0.000000000               0.000000000               0.003230516               0.004980122              -0.000318273               0.000588922               0.001463717               0.002052639               0.000000000               0.000000000               0.000000000               0.000000000               0.003663684               0.005035205              -0.000193023               0.000744473               0.001430227               0.002174700               0.000000000               0.000000000               0.000000000               0.000000000              -0.013945483              -0.001300966               0.000734362              -0.005066932               0.001255313              -0.003811619               0.000000000               0.000000000               0.000000000               0.000000000              -0.009653133              -0.000695206               0.000020259              -0.003533022               0.000945932              -0.002587090               0.000000000               0.000000000               0.000000000               0.000000000              -0.006255163              -0.000356761              -0.000652427              -0.002301089               0.000648105              -0.001652985               0.000000000               0.000000000               0.000000000               0.000000000              -0.004390455               0.000439580              -0.000886870              -0.001701367               0.000713644              -0.000987723               0.000000000               0.000000000               0.000000000               0.000000000              -0.003223402               0.001264421              -0.000942496              -0.001366826               0.000877076              -0.000489750               0.000000000               0.000000000               0.000000000               0.000000000              -0.002396291               0.001995530              -0.000922302              -0.001148048               0.001047852              -0.000100196               0.000000000               0.000000000               0.000000000               0.000000000              -0.001741449               0.002592679              -0.000870480              -0.000977126               0.001189926               0.000212800               0.000000000               0.000000000               0.000000000               0.000000000              -0.001168475               0.003066492              -0.000812226              -0.000821488               0.001295983               0.000474495               0.000000000               0.000000000               0.000000000               0.000000000              -0.000633394               0.003454349              -0.000758252              -0.000669315               0.001374543               0.000705228               0.000000000               0.000000000               0.000000000               0.000000000              -0.000104743               0.003783746              -0.000699437              -0.000512246               0.001431985               0.000919739               0.000000000               0.000000000               0.000000000               0.000000000               0.000445838               0.004068768              -0.000635309              -0.000341406               0.001470044               0.001128638               0.000000000               0.000000000               0.000000000               0.000000000               0.001033821               0.004314999              -0.000573052              -0.000151692               0.001488883               0.001337191               0.000000000               0.000000000               0.000000000               0.000000000               0.001664437               0.004529791              -0.000508804               0.000057939               0.001490602               0.001548541               0.000000000               0.000000000               0.000000000               0.000000000               0.002339394               0.004709362              -0.000434024               0.000288600               0.001473572               0.001762171               0.000000000               0.000000000               0.000000000               0.000000000               0.003070736               0.004848824              -0.000336050               0.000545418               0.001434453               0.001979870               0.000000000               0.000000000               0.000000000               0.000000000               0.003878557               0.004940919              -0.000193485               0.000836836               0.001368011               0.002204847               0.000000000               0.000000000               0.000000000               0.000000000               0.004479798               0.005035319              -0.000120531               0.001050499               0.001328257               0.002378755               0.000000000               0.000000000               0.000000000               0.000000000               0.000000000               0.000000000               0.000000000               0.000000000               0.000000000               0.000000000               0.000000000               0.000000000               0.000000000               0.000000000               0.000000000               0.000000000               0.000000000               0.000000000               0.000000000               0.000000000               0.000000000               0.000000000               0.000000000               0.000000000               0.000000000               0.000000000               0.000000000               0.000000000               0.000000000               0.000000000               0.000000000               0.000000000               0.000000000               0.000000000               0.000000000               0.000000000               0.000000000               0.000000000               0.000000000               0.000000000               0.000000000               0.000000000               0.000000000               0.000000000               0.000000000               0.000000000               0.000000000               0.000000000               0.000000000               0.000000000               0.000000000               0.000000000               0.000000000               0.000000000               0.000000000               0.000000000               0.000000000               0.000000000               0.000000000               0.000000000               0.000000000               0.000000000               0.000000000               0.000000000               0.000000000               0.000000000               0.000000000               0.000000000               0.000000000               0.000000000               0.000000000               0.000000000               0.000000000               0.000000000               0.000000000               0.000000000               0.000000000               0.000000000               0.000000000               0.000000000               0.000000000               0.000000000               0.000000000               0.000000000               0.000000000               0.000000000               0.000000000               0.000000000               0.000000000               0.000000000               0.000000000               0.000000000               0.000000000               0.000000000               0.000000000               0.000000000               0.000000000               0.000000000               0.000000000               0.000000000               0.000000000               0.000000000               0.000000000               0.000000000               0.000000000               0.000000000               0.000000000               0.000000000               0.000000000               0.000000000               0.000000000               0.000000000               0.000000000               0.000000000               0.000000000               0.000000000               0.000000000               0.000000000               0.000000000               0.000000000               0.000000000               0.000000000               0.000000000               0.000000000               0.000000000               0.000000000               0.000000000               0.000000000               0.000000000               0.000000000               0.000000000               0.000000000               0.000000000               0.000000000               0.000000000               0.000000000               0.000000000               0.000000000               0.000000000               0.000000000               0.000000000               0.000000000               0.000000000               0.000000000               0.000000000               0.000000000               0.000000000               0.000000000               0.000000000               0.000000000               0.000000000               0.000000000               0.000000000               0.000000000               0.000000000               0.000000000               0.000000000               0.000000000               0.000000000               0.000000000               0.000000000               0.000000000               0.000000000               0.000000000               0.000000000               0.000000000               0.000000000               0.000000000               0.000000000               0.000000000               0.000000000               0.000000000               0.000000000               0.000000000               0.000000000               0.000000000               0.000000000               0.000000000               0.000000000               0.000000000               0.000000000               0.000000000               0.000000000               0.000000000               0.000000000               0.000000000               0.000000000               0.000000000               0.000000000               0.000000000               0.000000000               0.000000000               0.000000000               0.000000000               0.000000000               0.000000000               0.000000000               0.000000000               0.000000000               0.000000000               0.000000000               0.000000000               0.000000000               0.000000000               0.000000000               0.000000000               0.000000000               0.000000000               0.000000000               0.000000000               0.000000000               0.000000000               0.000000000               0.000000000               0.000000000               0.000000000               0.000000000               0.000000000               0.000000000               0.000000000               0.000000000               0.000000000               0.000000000               0.000000000               0.000000000               0.000000000               0.000000000               0.000000000               0.000000000               0.000000000               0.000000000               0.000000000               0.000000000               0.000000000               0.000000000               0.000000000               0.000000000               0.000000000               0.000000000               0.000000000               0.000000000               0.000000000               0.000000000               0.000000000               0.000000000               0.000000000               0.000000000               0.000000000               0.000000000               0.000000000               0.000000000               0.000000000               0.000000000               0.000000000               0.000000000               0.000000000               0.000000000               0.000000000               0.000000000               0.000000000               0.000000000               0.000000000               0.000000000               0.000000000               0.000000000               0.000000000               0.000000000               0.000000000               0.000000000               0.000000000               0.000000000               0.000000000               0.000000000               0.000000000               0.000000000               0.000000000               0.000000000               0.000000000               0.000000000               0.000000000               0.000000000               0.000000000               0.000000000               0.000000000               0.000000000               0.000000000               0.000000000               0.000000000               0.000000000               0.000000000               0.000000000               0.000000000               0.000000000               0.000000000               0.000000000               0.000000000               0.000000000               0.000000000               0.000000000               0.000000000               0.000000000               0.000000000               0.000000000               0.000000000               0.000000000               0.000000000               0.000000000               0.000000000               0.000000000               0.000000000               0.000000000               0.000000000               0.000000000               0.000000000               0.000000000               0.000000000               0.000000000               0.000000000               0.000000000               0.000000000               0.000000000               0.000000000               0.000000000               0.000000000               0.000000000               0.000000000               0.000000000               0.000000000               0.000000000               0.000000000               0.000000000               0.000000000               0.000000000               0.000000000               0.000000000               0.000000000               0.000000000               0.000000000               0.000000000               0.000000000               0.000000000               0.000000000               0.000000000               0.000000000               0.002150216               0.021479511               0.001443679              -0.001878604               0.007785967               0.005907363               0.000000000               0.000000000               0.000000000               0.000000000               0.001939305               0.016478582               0.000633605              -0.001332580               0.005936999               0.004604419               0.000000000               0.000000000               0.000000000               0.000000000               0.002370436               0.012450151              -0.000167847              -0.000667354               0.004372460               0.003705106               0.000000000               0.000000000               0.000000000               0.000000000               0.002116384               0.010160971              -0.000494401              -0.000476476               0.003545782               0.003069306               0.000000000               0.000000000               0.000000000               0.000000000               0.001696699               0.008687383              -0.000618437              -0.000449660               0.003045652               0.002595992               0.000000000               0.000000000               0.000000000               0.000000000               0.001281461               0.007636509              -0.000655185              -0.000474015               0.002703482               0.002229468               0.000000000               0.000000000               0.000000000               0.000000000               0.000920759               0.006813716              -0.000649306              -0.000506429               0.002440025               0.001933597               0.000000000               0.000000000               0.000000000               0.000000000               0.000619795               0.006118419              -0.000627225              -0.000532378               0.002216912               0.001684534               0.000000000               0.000000000               0.000000000               0.000000000               0.000374893               0.005496623              -0.000596264              -0.000546492               0.002014353               0.001467861               0.000000000               0.000000000               0.000000000               0.000000000               0.000191526               0.004911463              -0.000557887              -0.000542110               0.001817841               0.001275732               0.000000000               0.000000000               0.000000000               0.000000000               0.000058410               0.004334276              -0.000517507              -0.000519880               0.001618037               0.001098158               0.000000000               0.000000000               0.000000000               0.000000000              -0.000037706               0.003747566              -0.000474874              -0.000482584               0.001410038               0.000927453               0.000000000               0.000000000               0.000000000               0.000000000              -0.000096547               0.003141002              -0.000427613              -0.000428830               0.001189933               0.000761104               0.000000000               0.000000000               0.000000000               0.000000000              -0.000120576               0.002507338              -0.000370745              -0.000358632               0.000955315               0.000596683               0.000000000               0.000000000               0.000000000               0.000000000              -0.000111755               0.001834737              -0.000290354              -0.000271250               0.000701989               0.000430740               0.000000000               0.000000000               0.000000000               0.000000000              -0.000065441               0.001103159              -0.000167787              -0.000162435               0.000421861               0.000259426               0.000000000               0.000000000               0.000000000               0.000000000              -0.000090092               0.000556733              -0.000104900              -0.000103376               0.000220034               0.000116658               0.000000000               0.000000000               0.000000000               0.000000000               0.002276940               0.020123680               0.002669949              -0.001661605               0.007261694               0.005600090               0.000000000               0.000000000               0.000000000               0.000000000               0.001731872               0.015626487               0.001163454              -0.001303856               0.005643396               0.004339539               0.000000000               0.000000000               0.000000000               0.000000000               0.001808816               0.012121920              -0.000309418              -0.000836932               0.004319577               0.003482645               0.000000000               0.000000000               0.000000000               0.000000000               0.001433878               0.010096816              -0.000886140              -0.000724396               0.003607037               0.002882641               0.000000000               0.000000000               0.000000000               0.000000000               0.001004384               0.008757699              -0.001093020              -0.000718067               0.003158559               0.002440492               0.000000000               0.000000000               0.000000000               0.000000000               0.000630529               0.007772029              -0.001142777              -0.000735054               0.002835668               0.002100614               0.000000000               0.000000000               0.000000000               0.000000000               0.000334196               0.006983085              -0.001120868              -0.000747561               0.002576859               0.001829298               0.000000000               0.000000000               0.000000000               0.000000000               0.000102005               0.006305116              -0.001073616              -0.000749886               0.002351646               0.001601760               0.000000000               0.000000000               0.000000000               0.000000000              -0.000073221               0.005690865              -0.001015441              -0.000738815               0.002143207               0.001404393               0.000000000               0.000000000               0.000000000               0.000000000              -0.000185746               0.005111389              -0.000945044              -0.000708577               0.001939972               0.001231394               0.000000000               0.000000000               0.000000000               0.000000000              -0.000247623               0.004542736              -0.000869261              -0.000660699               0.001734463               0.001073764               0.000000000               0.000000000               0.000000000               0.000000000              -0.000271456               0.003974043              -0.000789664              -0.000598550               0.001524185               0.000925634               0.000000000               0.000000000               0.000000000               0.000000000              -0.000263150               0.003406196              -0.000702780              -0.000524455               0.001310205               0.000785751               0.000000000               0.000000000               0.000000000               0.000000000              -0.000230609               0.002838486              -0.000600772              -0.000441288               0.001093248               0.000651960               0.000000000               0.000000000               0.000000000               0.000000000              -0.000173992               0.002269222              -0.000460988              -0.000348899               0.000872699               0.000523800               0.000000000               0.000000000               0.000000000               0.000000000              -0.000092493               0.001700489              -0.000260375              -0.000247245               0.000649239               0.000401994               0.000000000               0.000000000               0.000000000               0.000000000              -0.000087041               0.001308343              -0.000158207              -0.000196183               0.000501504               0.000305321               0.000000000               0.000000000               0.000000000               0.000000000               0.002368672               0.018072188               0.003507154              -0.001370770               0.006480925               0.005110155               0.000000000               0.000000000               0.000000000               0.000000000               0.001356089               0.014359036               0.001518330              -0.001286344               0.005215079               0.003928735               0.000000000               0.000000000               0.000000000               0.000000000               0.000943520               0.011637927              -0.000392778              -0.001100918               0.004246243               0.003145325               0.000000000               0.000000000               0.000000000               0.000000000               0.000437706               0.009988090              -0.001095083              -0.001084369               0.003690786               0.002606417               0.000000000               0.000000000               0.000000000               0.000000000               0.000026193               0.008830973              -0.001323501              -0.001094047               0.003308310               0.002214263               0.000000000               0.000000000               0.000000000               0.000000000              -0.000269098               0.007934335              -0.001361987              -0.001092702               0.003008986               0.001916284               0.000000000               0.000000000               0.000000000               0.000000000              -0.000462403               0.007186128              -0.001319258              -0.001071665               0.002752573               0.001680908               0.000000000               0.000000000               0.000000000               0.000000000              -0.000576337               0.006524531              -0.001249098              -0.001031691               0.002518718               0.001487028               0.000000000               0.000000000               0.000000000               0.000000000              -0.000629869               0.005913938              -0.001171141              -0.000975441               0.002296440               0.001320999               0.000000000               0.000000000               0.000000000               0.000000000              -0.000632801               0.005338060              -0.001079532              -0.000904556               0.002080854               0.001176298               0.000000000               0.000000000               0.000000000               0.000000000              -0.000596834               0.004784393              -0.000979558              -0.000821860               0.001868735               0.001046875               0.000000000               0.000000000               0.000000000               0.000000000              -0.000533315               0.004250695              -0.000875303              -0.000731329               0.001660660               0.000929332               0.000000000               0.000000000               0.000000000               0.000000000              -0.000447785               0.003738487              -0.000764138              -0.000635229               0.001457893               0.000822664               0.000000000               0.000000000               0.000000000               0.000000000              -0.000346990               0.003252210              -0.000634941              -0.000536646               0.001262941               0.000726295               0.000000000               0.000000000               0.000000000               0.000000000              -0.000234364               0.002799847              -0.000469738              -0.000437866               0.001079228               0.000641362               0.000000000               0.000000000               0.000000000               0.000000000              -0.000116308               0.002402201              -0.000255696              -0.000343890               0.000915356               0.000571466               0.000000000               0.000000000               0.000000000               0.000000000              -0.000082835               0.002162412              -0.000148920              -0.000301364               0.000821252               0.000519888               0.000000000               0.000000000               0.000000000               0.000000000               0.002274944               0.015574761               0.003870630              -0.001093741               0.005556115               0.004462374               0.000000000               0.000000000               0.000000000               0.000000000               0.000779646               0.012855255               0.001681274              -0.001314537               0.004723221               0.003408684               0.000000000               0.000000000               0.000000000               0.000000000              -0.000133130               0.011067295              -0.000382304              -0.001433332               0.004166839               0.002733507               0.000000000               0.000000000               0.000000000               0.000000000              -0.000709823               0.009823034              -0.001080571              -0.001494059               0.003772332               0.002278272               0.000000000               0.000000000               0.000000000               0.000000000              -0.001037464               0.008853886              -0.001279361              -0.001495782               0.003449860               0.001954078               0.000000000               0.000000000               0.000000000               0.000000000              -0.001200117               0.008045270              -0.001293914              -0.001455699               0.003166963               0.001711263               0.000000000               0.000000000               0.000000000               0.000000000              -0.001251379               0.007332440              -0.001235900              -0.001385819               0.002906062               0.001520243               0.000000000               0.000000000               0.000000000               0.000000000              -0.001221977               0.006684545              -0.001154911              -0.001293807               0.002659428               0.001365621               0.000000000               0.000000000               0.000000000               0.000000000              -0.001134875               0.006076591              -0.001071159              -0.001185150               0.002420560               0.001235410               0.000000000               0.000000000               0.000000000               0.000000000              -0.001010611               0.005507904              -0.000978464              -0.001067465               0.002191771               0.001124306               0.000000000               0.000000000               0.000000000               0.000000000              -0.000869036               0.004980448              -0.000874626              -0.000948442               0.001976280               0.001027838               0.000000000               0.000000000               0.000000000               0.000000000              -0.000724029               0.004486054              -0.000763198              -0.000832266               0.001772758               0.000940492               0.000000000               0.000000000               0.000000000               0.000000000              -0.000572917               0.004029264              -0.000646022              -0.000718500               0.001582574               0.000864074               0.000000000               0.000000000               0.000000000               0.000000000              -0.000416402               0.003620508              -0.000518613              -0.000608713               0.001409728               0.000801015               0.000000000               0.000000000               0.000000000               0.000000000              -0.000259187               0.003277270              -0.000368867              -0.000506853               0.001261363               0.000754511               0.000000000               0.000000000               0.000000000               0.000000000              -0.000120400               0.003019721              -0.000194816              -0.000422614               0.001147435               0.000724821               0.000000000               0.000000000               0.000000000               0.000000000              -0.000072306               0.002891700              -0.000110564              -0.000388576               0.001093416               0.000704839               0.000000000               0.000000000               0.000000000               0.000000000               0.001872880               0.012884308               0.003774061              -0.000908209               0.004597462               0.003689253               0.000000000               0.000000000               0.000000000               0.000000000               0.000008741               0.011275245               0.001686845              -0.001406125               0.004227086               0.002820960               0.000000000               0.000000000               0.000000000               0.000000000              -0.001301605               0.010450807              -0.000246891              -0.001794448               0.004081717               0.002287268               0.000000000               0.000000000               0.000000000               0.000000000              -0.001845722               0.009583850              -0.000845433              -0.001890122               0.003824625               0.001934503               0.000000000               0.000000000               0.000000000               0.000000000              -0.002012716               0.008777496              -0.000995054              -0.001851951               0.003543120               0.001691169               0.000000000               0.000000000               0.000000000               0.000000000              -0.001992574               0.008037761              -0.000991976              -0.001751931               0.003263204               0.001511273               0.000000000               0.000000000               0.000000000               0.000000000              -0.001870531               0.007355873              -0.000934607              -0.001620929               0.002992243               0.001371313               0.000000000               0.000000000               0.000000000               0.000000000              -0.001685415               0.006718719              -0.000863132              -0.001471867               0.002730173               0.001258306               0.000000000               0.000000000               0.000000000               0.000000000              -0.001461914               0.006119288              -0.000794888              -0.001313125               0.002477451               0.001164325               0.000000000               0.000000000               0.000000000               0.000000000              -0.001225292               0.005567304              -0.000728246              -0.001155395               0.002240881               0.001085486               0.000000000               0.000000000               0.000000000               0.000000000              -0.000996415               0.005071943              -0.000644144              -0.001007646               0.002026513               0.001018866               0.000000000               0.000000000               0.000000000               0.000000000              -0.000785967               0.004622281              -0.000547334              -0.000872521               0.001831585               0.000959064               0.000000000               0.000000000               0.000000000               0.000000000              -0.000580261               0.004230141              -0.000448519              -0.000746364               0.001658821               0.000912457               0.000000000               0.000000000               0.000000000               0.000000000              -0.000385821               0.003905650              -0.000345930              -0.000632888               0.001512833               0.000879945               0.000000000               0.000000000               0.000000000               0.000000000              -0.000217974               0.003661648              -0.000234671              -0.000539445               0.001400352               0.000860907               0.000000000               0.000000000               0.000000000               0.000000000              -0.000092616               0.003515880              -0.000119045              -0.000474215               0.001330020               0.000855805               0.000000000               0.000000000               0.000000000               0.000000000              -0.000044271               0.003469967              -0.000062526              -0.000450346               0.001306760               0.000856413               0.000000000               0.000000000               0.000000000               0.000000000               0.001101606               0.010224584               0.003302904              -0.000864971               0.003696483               0.002831512               0.000000000               0.000000000               0.000000000               0.000000000              -0.000912172               0.009739046               0.001595821              -0.001559442               0.003766130               0.002206688               0.000000000               0.000000000               0.000000000               0.000000000              -0.002426721               0.009800439               0.000024480              -0.002135070               0.003978470               0.001843400               0.000000000               0.000000000               0.000000000               0.000000000              -0.002815237               0.009247915              -0.000431569              -0.002211698               0.003819840               0.001608142               0.000000000               0.000000000               0.000000000               0.000000000              -0.002768194               0.008570294              -0.000544181              -0.002109354               0.003559854               0.001450500               0.000000000               0.000000000               0.000000000               0.000000000              -0.002543957               0.007888140              -0.000547821              -0.001939997               0.003276019               0.001336023               0.000000000               0.000000000               0.000000000               0.000000000              -0.002242357               0.007230900              -0.000519947              -0.001744742               0.002991856               0.001247114               0.000000000               0.000000000               0.000000000               0.000000000              -0.001907923               0.006606121              -0.000484736              -0.001541232               0.002715762               0.001174530               0.000000000               0.000000000               0.000000000               0.000000000              -0.001564641               0.006028409              -0.000452421              -0.001340288               0.002456212               0.001115924               0.000000000               0.000000000               0.000000000               0.000000000              -0.001238566               0.005510824              -0.000423767              -0.001153312               0.002221360               0.001068048               0.000000000               0.000000000               0.000000000               0.000000000              -0.000939294               0.005057194              -0.000376824              -0.000984382               0.002013842               0.001029460               0.000000000               0.000000000               0.000000000               0.000000000              -0.000674636               0.004666710              -0.000309536              -0.000836325               0.001834330               0.000998004               0.000000000               0.000000000               0.000000000               0.000000000              -0.000443916               0.004349584              -0.000238497              -0.000710165               0.001686568               0.000976404               0.000000000               0.000000000               0.000000000               0.000000000              -0.000250220               0.004114160              -0.000165053              -0.000608101               0.001574073               0.000965972               0.000000000               0.000000000               0.000000000               0.000000000              -0.000108548               0.003966521              -0.000093961              -0.000536519               0.001501000               0.000964481               0.000000000               0.000000000               0.000000000               0.000000000              -0.000030520               0.003910434              -0.000037390              -0.000500248               0.001470214               0.000969966               0.000000000               0.000000000               0.000000000               0.000000000              -0.000001649               0.003920968              -0.000008682              -0.000490738               0.001470556               0.000979817               0.000000000               0.000000000               0.000000000               0.000000000               0.000003710               0.007768026               0.002567652              -0.000969611               0.002912519               0.001942908               0.000000000               0.000000000               0.000000000               0.000000000              -0.001920767               0.008334076               0.001462350              -0.001762044               0.003365345               0.001603301               0.000000000               0.000000000               0.000000000               0.000000000              -0.003391487               0.009115081               0.000418683              -0.002411187               0.003842059               0.001430872               0.000000000               0.000000000               0.000000000               0.000000000              -0.003521769               0.008803911               0.000092303              -0.002421146               0.003741656               0.001320510               0.000000000               0.000000000               0.000000000               0.000000000              -0.003233346               0.008234892              -0.000020434              -0.002241861               0.003492224               0.001250363               0.000000000               0.000000000               0.000000000               0.000000000              -0.002814841               0.007607334              -0.000064305              -0.002006477               0.003204578               0.001198101               0.000000000               0.000000000               0.000000000               0.000000000              -0.002353180               0.006980448              -0.000090185              -0.001754994               0.002911791               0.001156796               0.000000000               0.000000000               0.000000000               0.000000000              -0.001894950               0.006386520              -0.000105533              -0.001508917               0.002631791               0.001122874               0.000000000               0.000000000               0.000000000               0.000000000              -0.001461548               0.005852664              -0.000116274              -0.001279660               0.002377422               0.001097762               0.000000000               0.000000000               0.000000000               0.000000000              -0.001062936               0.005388960              -0.000127742              -0.001072218               0.002153708               0.001081490               0.000000000               0.000000000               0.000000000               0.000000000              -0.000713543               0.004991137              -0.000120736              -0.000891468               0.001960852               0.001069383               0.000000000               0.000000000               0.000000000               0.000000000              -0.000419990               0.004672951              -0.000090704              -0.000741613               0.001804839               0.001063226               0.000000000               0.000000000               0.000000000               0.000000000              -0.000192191               0.004446482              -0.000053390              -0.000627880               0.001691439               0.001063559               0.000000000               0.000000000               0.000000000               0.000000000              -0.000036741               0.004312847              -0.000015732              -0.000552882               0.001621895               0.001069013               0.000000000               0.000000000               0.000000000               0.000000000               0.000043130               0.004269779               0.000012040              -0.000517547               0.001595761               0.001078214               0.000000000               0.000000000               0.000000000               0.000000000               0.000049558               0.004297224               0.000017496              -0.000518567               0.001605250               0.001086682               0.000000000               0.000000000               0.000000000               0.000000000               0.000038664               0.004343550               0.000018399              -0.000528443               0.001623983               0.001095540               0.000000000               0.000000000               0.000000000               0.000000000              -0.001284260               0.005696390               0.001689950              -0.001193644               0.002296659               0.001103014               0.000000000               0.000000000               0.000000000               0.000000000              -0.002905513               0.007070044               0.001323904              -0.001973318               0.003014430               0.001041112               0.000000000               0.000000000               0.000000000               0.000000000              -0.004151753               0.008411192               0.000893900              -0.002608300               0.003673136               0.001064836               0.000000000               0.000000000               0.000000000               0.000000000              -0.004013589               0.008350637               0.000650187              -0.002548919               0.003633158               0.001084238               0.000000000               0.000000000               0.000000000               0.000000000              -0.003522631               0.007918194               0.000504446              -0.002310755               0.003409623               0.001098868               0.000000000               0.000000000               0.000000000               0.000000000              -0.002945050               0.007370700               0.000401519              -0.002025726               0.003132117               0.001106391               0.000000000               0.000000000               0.000000000               0.000000000              -0.002361543               0.006799796               0.000318228              -0.001735549               0.002845092               0.001109543               0.000000000               0.000000000               0.000000000               0.000000000              -0.001806444               0.006257884               0.000251677              -0.001459649               0.002572490               0.001112841               0.000000000               0.000000000               0.000000000               0.000000000              -0.001302207               0.005777622               0.000195740              -0.001210527               0.002329364               0.001118836               0.000000000               0.000000000               0.000000000               0.000000000              -0.000851473               0.005369219               0.000145190              -0.000990452               0.002119872               0.001129420               0.000000000               0.000000000               0.000000000               0.000000000              -0.000470199               0.005023995               0.000107231              -0.000804322               0.001942756               0.001138434               0.000000000               0.000000000               0.000000000               0.000000000              -0.000164943               0.004764055               0.000088077              -0.000657359               0.001807122               0.001149763               0.000000000               0.000000000               0.000000000               0.000000000               0.000057363               0.004602949               0.000078185              -0.000553856               0.001718920               0.001165064               0.000000000               0.000000000               0.000000000               0.000000000               0.000192537               0.004541950               0.000066386              -0.000495541               0.001679149               0.001183608               0.000000000               0.000000000               0.000000000               0.000000000               0.000238283               0.004571227               0.000047011              -0.000482046               0.001684409               0.001202363               0.000000000               0.000000000               0.000000000               0.000000000               0.000208167               0.004664388               0.000022843              -0.000504985               0.001723109               0.001218124               0.000000000               0.000000000               0.000000000               0.000000000               0.000166902               0.004728307               0.000008915              -0.000528449               0.001752236               0.001223787               0.000000000               0.000000000               0.000000000               0.000000000              -0.002763347               0.003781378               0.000777828              -0.001508924               0.001763421               0.000254497               0.000000000               0.000000000               0.000000000               0.000000000              -0.003741006               0.005593436               0.001172842              -0.002102052               0.002565144               0.000463092               0.000000000               0.000000000               0.000000000               0.000000000              -0.004619402               0.007333093               0.001386464              -0.002648906               0.003327308               0.000678402               0.000000000               0.000000000               0.000000000               0.000000000              -0.004332801               0.007652469               0.001232630              -0.002581353               0.003411248               0.000829895               0.000000000               0.000000000               0.000000000               0.000000000              -0.003762477               0.007487343               0.001052597              -0.002346841               0.003278036               0.000931195               0.000000000               0.000000000               0.000000000               0.000000000              -0.003133316               0.007133497               0.000892297              -0.002066675               0.003066700               0.001000025               0.000000000               0.000000000               0.000000000               0.000000000              -0.002512533               0.006709814               0.000756282              -0.001780922               0.002830223               0.001049301               0.000000000               0.000000000               0.000000000               0.000000000              -0.001921857               0.006279988               0.000640725              -0.001505691               0.002595205               0.001089514               0.000000000               0.000000000               0.000000000               0.000000000              -0.001379400               0.005885361               0.000540289              -0.001252942               0.002379415               0.001126473               0.000000000               0.000000000               0.000000000               0.000000000              -0.000890353               0.005547031               0.000448488              -0.001027259               0.002191411               0.001164153               0.000000000               0.000000000               0.000000000               0.000000000              -0.000468533               0.005261852               0.000362792              -0.000833429               0.002031743               0.001198314               0.000000000               0.000000000               0.000000000               0.000000000              -0.000121634               0.005038460               0.000290262              -0.000675419               0.001904609               0.001229191               0.000000000               0.000000000               0.000000000               0.000000000               0.000142225               0.004880809               0.000225786              -0.000556765               0.001812508               0.001255743               0.000000000               0.000000000               0.000000000               0.000000000               0.000319035               0.004793761               0.000160105              -0.000479581               0.001757765               0.001278184               0.000000000               0.000000000               0.000000000               0.000000000               0.000409420               0.004787000               0.000091111              -0.000444841               0.001743931               0.001299090               0.000000000               0.000000000               0.000000000               0.000000000               0.000426423               0.004865181               0.000033302              -0.000448238               0.001771124               0.001322886               0.000000000               0.000000000               0.000000000               0.000000000               0.000401054               0.004916132               0.000004382              -0.000464120               0.001793401               0.001329281               0.000000000               0.000000000               0.000000000               0.000000000              -0.004610558               0.002055543              -0.000096458              -0.001985899               0.001347138              -0.000638760               0.000000000               0.000000000               0.000000000               0.000000000              -0.004671739               0.004095997               0.000964142              -0.002263897               0.002119950              -0.000143947               0.000000000               0.000000000               0.000000000               0.000000000              -0.005001796               0.006038829               0.001777880              -0.002630521               0.002889763               0.000259242               0.000000000               0.000000000               0.000000000               0.000000000              -0.004580809               0.006715095               0.001779843              -0.002557184               0.003090737               0.000533553               0.000000000               0.000000000               0.000000000               0.000000000              -0.003964466               0.006855430               0.001604407              -0.002343598               0.003066319               0.000722721               0.000000000               0.000000000               0.000000000               0.000000000              -0.003317254               0.006743237               0.001404950              -0.002086870               0.002943346               0.000856476               0.000000000               0.000000000               0.000000000               0.000000000              -0.002687191               0.006506874               0.001225339              -0.001821051               0.002775953               0.000954902               0.000000000               0.000000000               0.000000000               0.000000000              -0.002080696               0.006219610               0.001070724              -0.001557708               0.002592418               0.001034710               0.000000000               0.000000000               0.000000000               0.000000000              -0.001504676               0.005932562               0.000935426              -0.001305821               0.002412774               0.001106954               0.000000000               0.000000000               0.000000000               0.000000000              -0.000974986               0.005672132               0.000806229              -0.001074634               0.002248903               0.001174269               0.000000000               0.000000000               0.000000000               0.000000000              -0.000504216               0.005446427               0.000677524              -0.000869883               0.002105418               0.001235536               0.000000000               0.000000000               0.000000000               0.000000000              -0.000101259               0.005257422               0.000555214              -0.000695148               0.001984173               0.001289024               0.000000000               0.000000000               0.000000000               0.000000000               0.000229980               0.005104701               0.000439415              -0.000551844               0.001885498               0.001333654               0.000000000               0.000000000               0.000000000               0.000000000               0.000481521               0.004992713               0.000320639              -0.000443518               0.001812060               0.001368542               0.000000000               0.000000000               0.000000000               0.000000000               0.000644510               0.004931907               0.000197189              -0.000374796               0.001768885               0.001394088               0.000000000               0.000000000               0.000000000               0.000000000               0.000723003               0.004939385               0.000088643              -0.000346296               0.001761877               0.001415581               0.000000000               0.000000000               0.000000000               0.000000000               0.000726045               0.004953403               0.000036465              -0.000346908               0.001766754               0.001419846               0.000000000               0.000000000               0.000000000               0.000000000              -0.006706072               0.000671442              -0.000840308              -0.002598705               0.001090041              -0.001508663               0.000000000               0.000000000               0.000000000               0.000000000              -0.005737268               0.002692360               0.000694497              -0.002488017               0.001726780              -0.000761236               0.000000000               0.000000000               0.000000000               0.000000000              -0.005321507               0.004561264               0.001970635              -0.002565718               0.002375644              -0.000190074               0.000000000               0.000000000               0.000000000               0.000000000              -0.004683635               0.005472751               0.002160554              -0.002440452               0.002637715               0.000197263               0.000000000               0.000000000               0.000000000               0.000000000              -0.004006679               0.005887351               0.002039700              -0.002238419               0.002708570               0.000470151               0.000000000               0.000000000               0.000000000               0.000000000              -0.003339766               0.006025603               0.001837092              -0.002005608               0.002677050               0.000671442               0.000000000               0.000000000               0.000000000               0.000000000              -0.002708122               0.005999258               0.001636959              -0.001765449               0.002588215               0.000822766               0.000000000               0.000000000               0.000000000               0.000000000              -0.002100858               0.005885001               0.001463303              -0.001523444               0.002469462               0.000946018               0.000000000               0.000000000               0.000000000               0.000000000              -0.001512507               0.005735286               0.001307051              -0.001284098               0.002339775               0.001055677               0.000000000               0.000000000               0.000000000               0.000000000              -0.000956645               0.005581572               0.001152620              -0.001056436               0.002212651               0.001156214               0.000000000               0.000000000               0.000000000               0.000000000              -0.000446277               0.005435710               0.000996018              -0.000846816               0.002094157               0.001247341               0.000000000               0.000000000               0.000000000               0.000000000               0.000009337               0.005305173               0.000844842              -0.000659644               0.001988255               0.001328611               0.000000000               0.000000000               0.000000000               0.000000000               0.000405150               0.005193855               0.000694637              -0.000497300               0.001897034               0.001399735               0.000000000               0.000000000               0.000000000               0.000000000               0.000730860               0.005103393               0.000528929              -0.000363851               0.001822398               0.001458547               0.000000000               0.000000000               0.000000000               0.000000000               0.000973582               0.005033308               0.000350700              -0.000264070               0.001765776               0.001501706               0.000000000               0.000000000               0.000000000               0.000000000               0.001121256               0.004999345               0.000174023              -0.000204447               0.001734580               0.001530134               0.000000000               0.000000000               0.000000000               0.000000000               0.001162462               0.004992929               0.000086329              -0.000188193               0.001727024               0.001538831               0.000000000               0.000000000               0.000000000               0.000000000              -0.008908807              -0.000299873              -0.001339976              -0.003303316               0.001001141              -0.002302176               0.000000000               0.000000000               0.000000000               0.000000000              -0.006884378               0.001458064               0.000411124              -0.002763896               0.001407310              -0.001356586               0.000000000               0.000000000               0.000000000               0.000000000              -0.005609372               0.003025324               0.001940677              -0.002481676               0.001835654              -0.000646022               0.000000000               0.000000000               0.000000000               0.000000000              -0.004671744               0.004035461               0.002289074              -0.002256332               0.002097249              -0.000159083               0.000000000               0.000000000               0.000000000               0.000000000              -0.003898496               0.004657348               0.002249666              -0.002044100               0.002233800               0.000189699               0.000000000               0.000000000               0.000000000               0.000000000              -0.003203271               0.005018625               0.002082588              -0.001828551               0.002282374               0.000453824               0.000000000               0.000000000               0.000000000               0.000000000              -0.002563577               0.005206931               0.001890744              -0.001612204               0.002273027               0.000660823               0.000000000               0.000000000               0.000000000               0.000000000              -0.001966632               0.005281960               0.001715398              -0.001397729               0.002226545               0.000828816               0.000000000               0.000000000               0.000000000               0.000000000              -0.001390909               0.005289721               0.001554547              -0.001182804               0.002157490               0.000974687               0.000000000               0.000000000               0.000000000               0.000000000              -0.000828666               0.005262644               0.001395454              -0.000968579               0.002077056               0.001108478               0.000000000               0.000000000               0.000000000               0.000000000              -0.000285720               0.005220912               0.001233116              -0.000759758               0.001993539               0.001233781               0.000000000               0.000000000               0.000000000               0.000000000               0.000222659               0.005180996               0.001072621              -0.000564127               0.001915024               0.001350897               0.000000000               0.000000000               0.000000000               0.000000000               0.000682392               0.005139605               0.000907958              -0.000386553               0.001842035               0.001455482               0.000000000               0.000000000               0.000000000               0.000000000               0.001090532               0.005095547               0.000723027              -0.000227994               0.001774496               0.001546503               0.000000000               0.000000000               0.000000000               0.000000000               0.001437020               0.005053315               0.000510191              -0.000092782               0.001715349               0.001622567               0.000000000               0.000000000               0.000000000               0.000000000               0.001694354               0.005021310               0.000268311               0.000007718               0.001671180               0.001678899               0.000000000               0.000000000               0.000000000               0.000000000               0.001809375               0.005016159               0.000144889               0.000051495               0.001654871               0.001706366               0.000000000               0.000000000               0.000000000               0.000000000              -0.011009235              -0.000888103              -0.001497741              -0.004017448               0.001043107              -0.002974340               0.000000000               0.000000000               0.000000000               0.000000000              -0.008015473               0.000460982               0.000172065              -0.003063422               0.001174793              -0.001888629               0.000000000               0.000000000               0.000000000               0.000000000              -0.005874750               0.001588236               0.001685889              -0.002401558               0.001329922              -0.001071636               0.000000000               0.000000000               0.000000000               0.000000000              -0.004589038               0.002574476               0.002115608              -0.002042695               0.001539046              -0.000503650               0.000000000               0.000000000               0.000000000               0.000000000              -0.003676420               0.003328150               0.002151008              -0.001794673               0.001707595              -0.000087078               0.000000000               0.000000000               0.000000000               0.000000000              -0.002942943               0.003867345               0.002040032              -0.001587019               0.001818107               0.000231089               0.000000000               0.000000000               0.000000000               0.000000000              -0.002297294               0.004240048               0.001883557              -0.001391489               0.001877164               0.000485675               0.000000000               0.000000000               0.000000000               0.000000000              -0.001712662               0.004494128               0.001727361              -0.001204012               0.001899364               0.000695352               0.000000000               0.000000000               0.000000000               0.000000000              -0.001155285               0.004664089               0.001582012              -0.001016241               0.001893427               0.000877186               0.000000000               0.000000000               0.000000000               0.000000000              -0.000604417               0.004768742               0.001439194              -0.000822748               0.001863814               0.001041066               0.000000000               0.000000000               0.000000000               0.000000000              -0.000051864               0.004845978               0.001290716              -0.000625196               0.001823708               0.001198513               0.000000000               0.000000000               0.000000000               0.000000000               0.000495870               0.004915014               0.001139600              -0.000428425               0.001781130               0.001352705               0.000000000               0.000000000               0.000000000               0.000000000               0.001026534               0.004965106               0.000987668              -0.000235688               0.001733582               0.001497893               0.000000000               0.000000000               0.000000000               0.000000000               0.001535713               0.004993972               0.000818466              -0.000048355               0.001680759               0.001632404               0.000000000               0.000000000               0.000000000               0.000000000               0.002012525               0.005005521               0.000608050               0.000129005               0.001625489               0.001754494               0.000000000               0.000000000               0.000000000               0.000000000               0.002433472               0.005005871               0.000334611               0.000286815               0.001573002               0.001859817               0.000000000               0.000000000               0.000000000               0.000000000               0.002678971               0.005025126               0.000191288               0.000376470               0.001549535               0.001926005               0.000000000               0.000000000               0.000000000               0.000000000              -0.012768789              -0.001182188              -0.001277653              -0.004640519               0.001152769              -0.003487750               0.000000000               0.000000000               0.000000000               0.000000000              -0.008990250              -0.000259620               0.000025685              -0.003338889               0.001026416              -0.002312473               0.000000000               0.000000000               0.000000000               0.000000000              -0.006099720               0.000414147               0.001236990              -0.002339161               0.000917763              -0.001421399               0.000000000               0.000000000               0.000000000               0.000000000              -0.004480010               0.001305259               0.001629966              -0.001843159               0.001049465              -0.000793694               0.000000000               0.000000000               0.000000000               0.000000000              -0.003422412               0.002116493               0.001702489              -0.001547964               0.001221477              -0.000326487               0.000000000               0.000000000               0.000000000               0.000000000              -0.002639736               0.002778266               0.001646132              -0.001337182               0.001371805               0.000034624               0.000000000               0.000000000               0.000000000               0.000000000              -0.001990980               0.003293368               0.001540380              -0.001158286               0.001483873               0.000325587               0.000000000               0.000000000               0.000000000               0.000000000              -0.001414216               0.003684362               0.001426418              -0.000990875               0.001558399               0.000567525               0.000000000               0.000000000               0.000000000               0.000000000              -0.000870689               0.003981731               0.001320017              -0.000824223               0.001601971               0.000777748               0.000000000               0.000000000               0.000000000               0.000000000              -0.000332633               0.004217534               0.001211598              -0.000651928               0.001623140               0.000971212               0.000000000               0.000000000               0.000000000               0.000000000               0.000216310               0.004417797               0.001096458              -0.000471108               0.001629620               0.001158512               0.000000000               0.000000000               0.000000000               0.000000000               0.000787366               0.004589591               0.000980306              -0.000278437               0.001622660               0.001344224               0.000000000               0.000000000               0.000000000               0.000000000               0.001379399               0.004736320               0.000864277              -0.000074766               0.001603679               0.001528914               0.000000000               0.000000000               0.000000000               0.000000000               0.001984738               0.004854718               0.000732483               0.000137435               0.001572411               0.001709847               0.000000000               0.000000000               0.000000000               0.000000000               0.002602405               0.004936992               0.000559928               0.000358774               0.001526056               0.001884830               0.000000000               0.000000000               0.000000000               0.000000000               0.003230516               0.004980122               0.000318273               0.000588922               0.001463717               0.002052639               0.000000000               0.000000000               0.000000000               0.000000000               0.003663684               0.005035205               0.000193023               0.000744473               0.001430227               0.002174700               0.000000000               0.000000000               0.000000000               0.000000000              -0.013945483              -0.001300966              -0.000734362              -0.005066932               0.001255313              -0.003811619               0.000000000               0.000000000               0.000000000               0.000000000              -0.009653133              -0.000695206              -0.000020259              -0.003533022               0.000945932              -0.002587090               0.000000000               0.000000000               0.000000000               0.000000000              -0.006255163              -0.000356761               0.000652427              -0.002301089               0.000648105              -0.001652985               0.000000000               0.000000000               0.000000000               0.000000000              -0.004390455               0.000439580               0.000886870              -0.001701367               0.000713644              -0.000987723               0.000000000               0.000000000               0.000000000               0.000000000              -0.003223402               0.001264421               0.000942496              -0.001366826               0.000877076              -0.000489750               0.000000000               0.000000000               0.000000000               0.000000000              -0.002396291               0.001995530               0.000922302              -0.001148048               0.001047852              -0.000100196               0.000000000               0.000000000               0.000000000               0.000000000              -0.001741449               0.002592679               0.000870480              -0.000977126               0.001189926               0.000212800               0.000000000               0.000000000               0.000000000               0.000000000              -0.001168475               0.003066492               0.000812226              -0.000821488               0.001295983               0.000474495               0.000000000               0.000000000               0.000000000               0.000000000              -0.000633394               0.003454349               0.000758252              -0.000669315               0.001374543               0.000705228               0.000000000               0.000000000               0.000000000               0.000000000              -0.000104743               0.003783746               0.000699437              -0.000512246               0.001431985               0.000919739               0.000000000               0.000000000               0.000000000               0.000000000               0.000445838               0.004068768               0.000635309              -0.000341406               0.001470044               0.001128638               0.000000000               0.000000000               0.000000000               0.000000000               0.001033821               0.004314999               0.000573052              -0.000151692               0.001488883               0.001337191               0.000000000               0.000000000               0.000000000               0.000000000               0.001664437               0.004529791               0.000508804               0.000057939               0.001490602               0.001548541               0.000000000               0.000000000               0.000000000               0.000000000               0.002339394               0.004709362               0.000434024               0.000288600               0.001473572               0.001762171               0.000000000               0.000000000               0.000000000               0.000000000               0.003070736               0.004848824               0.000336050               0.000545418               0.001434453               0.001979870               0.000000000               0.000000000               0.000000000               0.000000000               0.003878557               0.004940919               0.000193485               0.000836836               0.001368011               0.002204847               0.000000000               0.000000000               0.000000000               0.000000000               0.004479798               0.005035319               0.000120531               0.001050499               0.001328257               0.002378755               0.000000000               0.000000000               0.000000000               0.000000000               0.000000000               0.000000000               0.000000000               0.000000000               0.000000000               0.000000000               0.000000000               0.000000000               0.000000000               0.000000000               0.000000000               0.000000000               0.000000000               0.000000000               0.000000000               0.000000000               0.000000000               0.000000000               0.000000000               0.000000000               0.000000000               0.000000000               0.000000000               0.000000000               0.000000000               0.000000000               0.000000000               0.000000000               0.000000000               0.000000000               0.000000000               0.000000000               0.000000000               0.000000000               0.000000000               0.000000000               0.000000000               0.000000000               0.000000000               0.000000000               0.000000000               0.000000000               0.000000000               0.000000000               0.000000000               0.000000000               0.000000000               0.000000000               0.000000000               0.000000000               0.000000000               0.000000000               0.000000000               0.000000000               0.000000000               0.000000000               0.000000000               0.000000000               0.000000000               0.000000000               0.000000000               0.000000000               0.000000000               0.000000000               0.000000000               0.000000000               0.000000000               0.000000000               0.000000000               0.000000000               0.000000000               0.000000000               0.000000000               0.000000000               0.000000000               0.000000000               0.000000000               0.000000000               0.000000000               0.000000000               0.000000000               0.000000000               0.000000000               0.000000000               0.000000000               0.000000000               0.000000000               0.000000000               0.000000000               0.000000000               0.000000000               0.000000000               0.000000000               0.000000000               0.000000000               0.000000000               0.000000000               0.000000000               0.000000000               0.000000000               0.000000000               0.000000000               0.000000000               0.000000000               0.000000000               0.000000000               0.000000000               0.000000000               0.000000000               0.000000000               0.000000000               0.000000000               0.000000000               0.000000000               0.000000000               0.000000000               0.000000000               0.000000000               0.000000000               0.000000000               0.000000000               0.000000000               0.000000000               0.000000000               0.000000000               0.000000000               0.000000000               0.000000000               0.000000000               0.000000000               0.000000000               0.000000000               0.000000000               0.000000000               0.000000000               0.000000000               0.000000000               0.000000000               0.000000000               0.000000000               0.000000000               0.000000000               0.000000000               0.000000000               0.000000000               0.000000000               0.000000000               0.000000000               0.000000000               0.000000000               0.000000000               0.000000000               0.000000000               0.000000000               0.000000000               0.000000000               0.000000000               0.000000000               0.000000000               0.000000000               0.000000000               0.000000000               0.000000000               0.000000000               0.000000000               0.000000000               0.000000000               0.000000000               0.000000000               0.000000000 </DataArray>
</PointData>
</Piece>
</UnstructuredGrid> </VTKFile>
