<?xml version="1.0"?>
<VTKFile type="UnstructuredGrid" version="0.1">
<UnstructuredGrid>
<Piece NumberOfPoints="      1156" NumberOfCells="      1024">
<Points>
<DataArray type="Float64"                                    Name="coordinates"                                                      NumberOfComponents=" 3" format="ascii">
              0.133000000               0.000000000               0.000000000               0.155937500               0.000000000               0.000000000               0.178875000               0.000000000               0.000000000               0.201812500               0.000000000               0.000000000               0.224750000               0.000000000               0.000000000               0.247687500               0.000000000               0.000000000               0.270625000               0.000000000               0.000000000               0.293562500               0.000000000               0.000000000               0.316500000               0.000000000               0.000000000               0.339437500               0.000000000               0.000000000               0.362375000               0.000000000               0.000000000               0.385312500               0.000000000               0.000000000               0.408250000               0.000000000               0.000000000               0.431187500               0.000000000               0.000000000               0.454125000               0.000000000               0.000000000               0.477062500               0.000000000               0.000000000               0.500000000               0.000000000               0.000000000               0.132359569               0.013036280               0.000000000               0.155337096               0.016127762               0.000000000               0.178314623               0.019219245               0.000000000               0.201292150               0.022310727               0.000000000               0.224269676               0.025402210               0.000000000               0.247247203               0.028493692               0.000000000               0.270224730               0.031585175               0.000000000               0.293202257               0.034676657               0.000000000               0.316179784               0.037768140               0.000000000               0.339157311               0.040859622               0.000000000               0.362134838               0.043951105               0.000000000               0.385112365               0.047042587               0.000000000               0.408089892               0.050134070               0.000000000               0.431067419               0.053225552               0.000000000               0.454044946               0.056317035               0.000000000               0.477022473               0.059408517               0.000000000               0.500000000               0.062500000               0.000000000               0.130444442               0.025947013               0.000000000               0.153541665               0.032137825               0.000000000               0.176638887               0.038328636               0.000000000               0.199736109               0.044519448               0.000000000               0.222833332               0.050710260               0.000000000               0.245930554               0.056901071               0.000000000               0.269027776               0.063091883               0.000000000               0.292124999               0.069282695               0.000000000               0.315222221               0.075473506               0.000000000               0.338319444               0.081664318               0.000000000               0.361416666               0.087855130               0.000000000               0.384513888               0.094045942               0.000000000               0.407611111               0.100236753               0.000000000               0.430708333               0.106427565               0.000000000               0.453805555               0.112618377               0.000000000               0.476902778               0.118809188               0.000000000               0.500000000               0.125000000               0.000000000               0.127273065               0.038607862               0.000000000               0.150568498               0.047913621               0.000000000               0.173863932               0.057219379               0.000000000               0.197159365               0.066525138               0.000000000               0.220454798               0.075830897               0.000000000               0.243750232               0.085136655               0.000000000               0.267045665               0.094442414               0.000000000               0.290341099               0.103748172               0.000000000               0.313636532               0.113053931               0.000000000               0.336931966               0.122359690               0.000000000               0.360227399               0.131665448               0.000000000               0.383522833               0.140971207               0.000000000               0.406818266               0.150276966               0.000000000               0.430113700               0.159582724               0.000000000               0.453409133               0.168888483               0.000000000               0.476704567               0.178194241               0.000000000               0.500000000               0.187500000               0.000000000               0.122875978               0.050896897               0.000000000               0.146446229               0.063340840               0.000000000               0.170016481               0.075784784               0.000000000               0.193586732               0.088228728               0.000000000               0.217156983               0.100672672               0.000000000               0.240727235               0.113116616               0.000000000               0.264297486               0.125560560               0.000000000               0.287867738               0.138004504               0.000000000               0.311437989               0.150448448               0.000000000               0.335008240               0.162892392               0.000000000               0.358578492               0.175336336               0.000000000               0.382148743               0.187780280               0.000000000               0.405718994               0.200224224               0.000000000               0.429289246               0.212668168               0.000000000               0.452859497               0.225112112               0.000000000               0.476429749               0.237556056               0.000000000               0.500000000               0.250000000               0.000000000               0.117295528               0.062695766               0.000000000               0.141214558               0.078308531               0.000000000               0.165133587               0.093921295               0.000000000               0.189052617               0.109534060               0.000000000               0.212971646               0.125146824               0.000000000               0.236890676               0.140759589               0.000000000               0.260809705               0.156372354               0.000000000               0.284728735               0.171985118               0.000000000               0.308647764               0.187597883               0.000000000               0.332566794               0.203210648               0.000000000               0.356485823               0.218823412               0.000000000               0.380404853               0.234436177               0.000000000               0.404323882               0.250048941               0.000000000               0.428242912               0.265661706               0.000000000               0.452161941               0.281274471               0.000000000               0.476080971               0.296887235               0.000000000               0.500000000               0.312500000               0.000000000               0.110585458               0.073890841               0.000000000               0.134923867               0.092710163               0.000000000               0.159262276               0.111529486               0.000000000               0.183600685               0.130348808               0.000000000               0.207939094               0.149168131               0.000000000               0.232277503               0.167987453               0.000000000               0.256615912               0.186806776               0.000000000               0.280954320               0.205626098               0.000000000               0.305292729               0.224445420               0.000000000               0.329631138               0.243264743               0.000000000               0.353969547               0.262084065               0.000000000               0.378307956               0.280903388               0.000000000               0.402646365               0.299722710               0.000000000               0.426984773               0.318542033               0.000000000               0.451323182               0.337361355               0.000000000               0.475661591               0.356180678               0.000000000               0.500000000               0.375000000               0.000000000               0.102810390               0.084374307               0.000000000               0.127634741               0.106444663               0.000000000               0.152459092               0.128515018               0.000000000               0.177283442               0.150585374               0.000000000               0.202107793               0.172655730               0.000000000               0.226932143               0.194726086               0.000000000               0.251756494               0.216796442               0.000000000               0.276580845               0.238866798               0.000000000               0.301405195               0.260937153               0.000000000               0.326229546               0.283007509               0.000000000               0.351053896               0.305077865               0.000000000               0.375878247               0.327148221               0.000000000               0.400702598               0.349218577               0.000000000               0.425526948               0.371288933               0.000000000               0.450351299               0.393359288               0.000000000               0.475175649               0.415429644               0.000000000               0.500000000               0.437500000               0.000000000               0.094045202               0.094045202               0.000000000               0.119417377               0.119417377               0.000000000               0.144789552               0.144789552               0.000000000               0.170161727               0.170161727               0.000000000               0.195533901               0.195533901               0.000000000               0.220906076               0.220906076               0.000000000               0.246278251               0.246278251               0.000000000               0.271650426               0.271650426               0.000000000               0.297022601               0.297022601               0.000000000               0.322394776               0.322394776               0.000000000               0.347766951               0.347766951               0.000000000               0.373139126               0.373139126               0.000000000               0.398511300               0.398511300               0.000000000               0.423883475               0.423883475               0.000000000               0.449255650               0.449255650               0.000000000               0.474627825               0.474627825               0.000000000               0.500000000               0.500000000               0.000000000               0.084374307               0.102810390               0.000000000               0.106444663               0.127634741               0.000000000               0.128515018               0.152459092               0.000000000               0.150585374               0.177283442               0.000000000               0.172655730               0.202107793               0.000000000               0.194726086               0.226932143               0.000000000               0.216796442               0.251756494               0.000000000               0.238866798               0.276580845               0.000000000               0.260937153               0.301405195               0.000000000               0.283007509               0.326229546               0.000000000               0.305077865               0.351053896               0.000000000               0.327148221               0.375878247               0.000000000               0.349218577               0.400702598               0.000000000               0.371288933               0.425526948               0.000000000               0.393359288               0.450351299               0.000000000               0.415429644               0.475175649               0.000000000               0.437500000               0.500000000               0.000000000               0.073890841               0.110585458               0.000000000               0.092710163               0.134923867               0.000000000               0.111529486               0.159262276               0.000000000               0.130348808               0.183600685               0.000000000               0.149168131               0.207939094               0.000000000               0.167987453               0.232277503               0.000000000               0.186806776               0.256615912               0.000000000               0.205626098               0.280954320               0.000000000               0.224445420               0.305292729               0.000000000               0.243264743               0.329631138               0.000000000               0.262084065               0.353969547               0.000000000               0.280903388               0.378307956               0.000000000               0.299722710               0.402646365               0.000000000               0.318542033               0.426984773               0.000000000               0.337361355               0.451323182               0.000000000               0.356180678               0.475661591               0.000000000               0.375000000               0.500000000               0.000000000               0.062695766               0.117295528               0.000000000               0.078308531               0.141214558               0.000000000               0.093921295               0.165133587               0.000000000               0.109534060               0.189052617               0.000000000               0.125146824               0.212971646               0.000000000               0.140759589               0.236890676               0.000000000               0.156372354               0.260809705               0.000000000               0.171985118               0.284728735               0.000000000               0.187597883               0.308647764               0.000000000               0.203210648               0.332566794               0.000000000               0.218823412               0.356485823               0.000000000               0.234436177               0.380404853               0.000000000               0.250048941               0.404323882               0.000000000               0.265661706               0.428242912               0.000000000               0.281274471               0.452161941               0.000000000               0.296887235               0.476080971               0.000000000               0.312500000               0.500000000               0.000000000               0.050896897               0.122875978               0.000000000               0.063340840               0.146446229               0.000000000               0.075784784               0.170016481               0.000000000               0.088228728               0.193586732               0.000000000               0.100672672               0.217156983               0.000000000               0.113116616               0.240727235               0.000000000               0.125560560               0.264297486               0.000000000               0.138004504               0.287867738               0.000000000               0.150448448               0.311437989               0.000000000               0.162892392               0.335008240               0.000000000               0.175336336               0.358578492               0.000000000               0.187780280               0.382148743               0.000000000               0.200224224               0.405718994               0.000000000               0.212668168               0.429289246               0.000000000               0.225112112               0.452859497               0.000000000               0.237556056               0.476429749               0.000000000               0.250000000               0.500000000               0.000000000               0.038607862               0.127273065               0.000000000               0.047913621               0.150568498               0.000000000               0.057219379               0.173863932               0.000000000               0.066525138               0.197159365               0.000000000               0.075830897               0.220454798               0.000000000               0.085136655               0.243750232               0.000000000               0.094442414               0.267045665               0.000000000               0.103748172               0.290341099               0.000000000               0.113053931               0.313636532               0.000000000               0.122359690               0.336931966               0.000000000               0.131665448               0.360227399               0.000000000               0.140971207               0.383522833               0.000000000               0.150276966               0.406818266               0.000000000               0.159582724               0.430113700               0.000000000               0.168888483               0.453409133               0.000000000               0.178194241               0.476704567               0.000000000               0.187500000               0.500000000               0.000000000               0.025947013               0.130444442               0.000000000               0.032137825               0.153541665               0.000000000               0.038328636               0.176638887               0.000000000               0.044519448               0.199736109               0.000000000               0.050710260               0.222833332               0.000000000               0.056901071               0.245930554               0.000000000               0.063091883               0.269027776               0.000000000               0.069282695               0.292124999               0.000000000               0.075473506               0.315222221               0.000000000               0.081664318               0.338319444               0.000000000               0.087855130               0.361416666               0.000000000               0.094045942               0.384513888               0.000000000               0.100236753               0.407611111               0.000000000               0.106427565               0.430708333               0.000000000               0.112618377               0.453805555               0.000000000               0.118809188               0.476902778               0.000000000               0.125000000               0.500000000               0.000000000               0.013036280               0.132359569               0.000000000               0.016127762               0.155337096               0.000000000               0.019219245               0.178314623               0.000000000               0.022310727               0.201292150               0.000000000               0.025402210               0.224269676               0.000000000               0.028493692               0.247247203               0.000000000               0.031585175               0.270224730               0.000000000               0.034676657               0.293202257               0.000000000               0.037768140               0.316179784               0.000000000               0.040859622               0.339157311               0.000000000               0.043951105               0.362134838               0.000000000               0.047042587               0.385112365               0.000000000               0.050134070               0.408089892               0.000000000               0.053225552               0.431067419               0.000000000               0.056317035               0.454044946               0.000000000               0.059408517               0.477022473               0.000000000               0.062500000               0.500000000               0.000000000               0.000000000               0.133000000               0.000000000               0.000000000               0.155937500               0.000000000               0.000000000               0.178875000               0.000000000               0.000000000               0.201812500               0.000000000               0.000000000               0.224750000               0.000000000               0.000000000               0.247687500               0.000000000               0.000000000               0.270625000               0.000000000               0.000000000               0.293562500               0.000000000               0.000000000               0.316500000               0.000000000               0.000000000               0.339437500               0.000000000               0.000000000               0.362375000               0.000000000               0.000000000               0.385312500               0.000000000               0.000000000               0.408250000               0.000000000               0.000000000               0.431187500               0.000000000               0.000000000               0.454125000               0.000000000               0.000000000               0.477062500               0.000000000               0.000000000               0.500000000               0.000000000               0.133000000               0.000000000               0.000000000               0.155937500               0.000000000               0.000000000               0.178875000               0.000000000               0.000000000               0.201812500               0.000000000               0.000000000               0.224750000               0.000000000               0.000000000               0.247687500               0.000000000               0.000000000               0.270625000               0.000000000               0.000000000               0.293562500               0.000000000               0.000000000               0.316500000               0.000000000               0.000000000               0.339437500               0.000000000               0.000000000               0.362375000               0.000000000               0.000000000               0.385312500               0.000000000               0.000000000               0.408250000               0.000000000               0.000000000               0.431187500               0.000000000               0.000000000               0.454125000               0.000000000               0.000000000               0.477062500               0.000000000               0.000000000               0.500000000               0.000000000               0.000000000               0.132359569              -0.013036280               0.000000000               0.155337096              -0.016127762               0.000000000               0.178314623              -0.019219245               0.000000000               0.201292150              -0.022310727               0.000000000               0.224269676              -0.025402210               0.000000000               0.247247203              -0.028493692               0.000000000               0.270224730              -0.031585175               0.000000000               0.293202257              -0.034676657               0.000000000               0.316179784              -0.037768140               0.000000000               0.339157311              -0.040859622               0.000000000               0.362134838              -0.043951105               0.000000000               0.385112365              -0.047042587               0.000000000               0.408089892              -0.050134070               0.000000000               0.431067419              -0.053225552               0.000000000               0.454044946              -0.056317035               0.000000000               0.477022473              -0.059408517               0.000000000               0.500000000              -0.062500000               0.000000000               0.130444442              -0.025947013               0.000000000               0.153541665              -0.032137825               0.000000000               0.176638887              -0.038328636               0.000000000               0.199736109              -0.044519448               0.000000000               0.222833332              -0.050710260               0.000000000               0.245930554              -0.056901071               0.000000000               0.269027776              -0.063091883               0.000000000               0.292124999              -0.069282695               0.000000000               0.315222221              -0.075473506               0.000000000               0.338319444              -0.081664318               0.000000000               0.361416666              -0.087855130               0.000000000               0.384513888              -0.094045942               0.000000000               0.407611111              -0.100236753               0.000000000               0.430708333              -0.106427565               0.000000000               0.453805555              -0.112618377               0.000000000               0.476902778              -0.118809188               0.000000000               0.500000000              -0.125000000               0.000000000               0.127273065              -0.038607862               0.000000000               0.150568498              -0.047913621               0.000000000               0.173863932              -0.057219379               0.000000000               0.197159365              -0.066525138               0.000000000               0.220454798              -0.075830897               0.000000000               0.243750232              -0.085136655               0.000000000               0.267045665              -0.094442414               0.000000000               0.290341099              -0.103748172               0.000000000               0.313636532              -0.113053931               0.000000000               0.336931966              -0.122359690               0.000000000               0.360227399              -0.131665448               0.000000000               0.383522833              -0.140971207               0.000000000               0.406818266              -0.150276966               0.000000000               0.430113700              -0.159582724               0.000000000               0.453409133              -0.168888483               0.000000000               0.476704567              -0.178194241               0.000000000               0.500000000              -0.187500000               0.000000000               0.122875978              -0.050896897               0.000000000               0.146446229              -0.063340840               0.000000000               0.170016481              -0.075784784               0.000000000               0.193586732              -0.088228728               0.000000000               0.217156983              -0.100672672               0.000000000               0.240727235              -0.113116616               0.000000000               0.264297486              -0.125560560               0.000000000               0.287867738              -0.138004504               0.000000000               0.311437989              -0.150448448               0.000000000               0.335008240              -0.162892392               0.000000000               0.358578492              -0.175336336               0.000000000               0.382148743              -0.187780280               0.000000000               0.405718994              -0.200224224               0.000000000               0.429289246              -0.212668168               0.000000000               0.452859497              -0.225112112               0.000000000               0.476429749              -0.237556056               0.000000000               0.500000000              -0.250000000               0.000000000               0.117295528              -0.062695766               0.000000000               0.141214558              -0.078308531               0.000000000               0.165133587              -0.093921295               0.000000000               0.189052617              -0.109534060               0.000000000               0.212971646              -0.125146824               0.000000000               0.236890676              -0.140759589               0.000000000               0.260809705              -0.156372354               0.000000000               0.284728735              -0.171985118               0.000000000               0.308647764              -0.187597883               0.000000000               0.332566794              -0.203210648               0.000000000               0.356485823              -0.218823412               0.000000000               0.380404853              -0.234436177               0.000000000               0.404323882              -0.250048941               0.000000000               0.428242912              -0.265661706               0.000000000               0.452161941              -0.281274471               0.000000000               0.476080971              -0.296887235               0.000000000               0.500000000              -0.312500000               0.000000000               0.110585458              -0.073890841               0.000000000               0.134923867              -0.092710163               0.000000000               0.159262276              -0.111529486               0.000000000               0.183600685              -0.130348808               0.000000000               0.207939094              -0.149168131               0.000000000               0.232277503              -0.167987453               0.000000000               0.256615912              -0.186806776               0.000000000               0.280954320              -0.205626098               0.000000000               0.305292729              -0.224445420               0.000000000               0.329631138              -0.243264743               0.000000000               0.353969547              -0.262084065               0.000000000               0.378307956              -0.280903388               0.000000000               0.402646365              -0.299722710               0.000000000               0.426984773              -0.318542033               0.000000000               0.451323182              -0.337361355               0.000000000               0.475661591              -0.356180678               0.000000000               0.500000000              -0.375000000               0.000000000               0.102810390              -0.084374307               0.000000000               0.127634741              -0.106444663               0.000000000               0.152459092              -0.128515018               0.000000000               0.177283442              -0.150585374               0.000000000               0.202107793              -0.172655730               0.000000000               0.226932143              -0.194726086               0.000000000               0.251756494              -0.216796442               0.000000000               0.276580845              -0.238866798               0.000000000               0.301405195              -0.260937153               0.000000000               0.326229546              -0.283007509               0.000000000               0.351053896              -0.305077865               0.000000000               0.375878247              -0.327148221               0.000000000               0.400702598              -0.349218577               0.000000000               0.425526948              -0.371288933               0.000000000               0.450351299              -0.393359288               0.000000000               0.475175649              -0.415429644               0.000000000               0.500000000              -0.437500000               0.000000000               0.094045202              -0.094045202               0.000000000               0.119417377              -0.119417377               0.000000000               0.144789552              -0.144789552               0.000000000               0.170161727              -0.170161727               0.000000000               0.195533901              -0.195533901               0.000000000               0.220906076              -0.220906076               0.000000000               0.246278251              -0.246278251               0.000000000               0.271650426              -0.271650426               0.000000000               0.297022601              -0.297022601               0.000000000               0.322394776              -0.322394776               0.000000000               0.347766951              -0.347766951               0.000000000               0.373139126              -0.373139126               0.000000000               0.398511300              -0.398511300               0.000000000               0.423883475              -0.423883475               0.000000000               0.449255650              -0.449255650               0.000000000               0.474627825              -0.474627825               0.000000000               0.500000000              -0.500000000               0.000000000               0.084374307              -0.102810390               0.000000000               0.106444663              -0.127634741               0.000000000               0.128515018              -0.152459092               0.000000000               0.150585374              -0.177283442               0.000000000               0.172655730              -0.202107793               0.000000000               0.194726086              -0.226932143               0.000000000               0.216796442              -0.251756494               0.000000000               0.238866798              -0.276580845               0.000000000               0.260937153              -0.301405195               0.000000000               0.283007509              -0.326229546               0.000000000               0.305077865              -0.351053896               0.000000000               0.327148221              -0.375878247               0.000000000               0.349218577              -0.400702598               0.000000000               0.371288933              -0.425526948               0.000000000               0.393359288              -0.450351299               0.000000000               0.415429644              -0.475175649               0.000000000               0.437500000              -0.500000000               0.000000000               0.073890841              -0.110585458               0.000000000               0.092710163              -0.134923867               0.000000000               0.111529486              -0.159262276               0.000000000               0.130348808              -0.183600685               0.000000000               0.149168131              -0.207939094               0.000000000               0.167987453              -0.232277503               0.000000000               0.186806776              -0.256615912               0.000000000               0.205626098              -0.280954320               0.000000000               0.224445420              -0.305292729               0.000000000               0.243264743              -0.329631138               0.000000000               0.262084065              -0.353969547               0.000000000               0.280903388              -0.378307956               0.000000000               0.299722710              -0.402646365               0.000000000               0.318542033              -0.426984773               0.000000000               0.337361355              -0.451323182               0.000000000               0.356180678              -0.475661591               0.000000000               0.375000000              -0.500000000               0.000000000               0.062695766              -0.117295528               0.000000000               0.078308531              -0.141214558               0.000000000               0.093921295              -0.165133587               0.000000000               0.109534060              -0.189052617               0.000000000               0.125146824              -0.212971646               0.000000000               0.140759589              -0.236890676               0.000000000               0.156372354              -0.260809705               0.000000000               0.171985118              -0.284728735               0.000000000               0.187597883              -0.308647764               0.000000000               0.203210648              -0.332566794               0.000000000               0.218823412              -0.356485823               0.000000000               0.234436177              -0.380404853               0.000000000               0.250048941              -0.404323882               0.000000000               0.265661706              -0.428242912               0.000000000               0.281274471              -0.452161941               0.000000000               0.296887235              -0.476080971               0.000000000               0.312500000              -0.500000000               0.000000000               0.050896897              -0.122875978               0.000000000               0.063340840              -0.146446229               0.000000000               0.075784784              -0.170016481               0.000000000               0.088228728              -0.193586732               0.000000000               0.100672672              -0.217156983               0.000000000               0.113116616              -0.240727235               0.000000000               0.125560560              -0.264297486               0.000000000               0.138004504              -0.287867738               0.000000000               0.150448448              -0.311437989               0.000000000               0.162892392              -0.335008240               0.000000000               0.175336336              -0.358578492               0.000000000               0.187780280              -0.382148743               0.000000000               0.200224224              -0.405718994               0.000000000               0.212668168              -0.429289246               0.000000000               0.225112112              -0.452859497               0.000000000               0.237556056              -0.476429749               0.000000000               0.250000000              -0.500000000               0.000000000               0.038607862              -0.127273065               0.000000000               0.047913621              -0.150568498               0.000000000               0.057219379              -0.173863932               0.000000000               0.066525138              -0.197159365               0.000000000               0.075830897              -0.220454798               0.000000000               0.085136655              -0.243750232               0.000000000               0.094442414              -0.267045665               0.000000000               0.103748172              -0.290341099               0.000000000               0.113053931              -0.313636532               0.000000000               0.122359690              -0.336931966               0.000000000               0.131665448              -0.360227399               0.000000000               0.140971207              -0.383522833               0.000000000               0.150276966              -0.406818266               0.000000000               0.159582724              -0.430113700               0.000000000               0.168888483              -0.453409133               0.000000000               0.178194241              -0.476704567               0.000000000               0.187500000              -0.500000000               0.000000000               0.025947013              -0.130444442               0.000000000               0.032137825              -0.153541665               0.000000000               0.038328636              -0.176638887               0.000000000               0.044519448              -0.199736109               0.000000000               0.050710260              -0.222833332               0.000000000               0.056901071              -0.245930554               0.000000000               0.063091883              -0.269027776               0.000000000               0.069282695              -0.292124999               0.000000000               0.075473506              -0.315222221               0.000000000               0.081664318              -0.338319444               0.000000000               0.087855130              -0.361416666               0.000000000               0.094045942              -0.384513888               0.000000000               0.100236753              -0.407611111               0.000000000               0.106427565              -0.430708333               0.000000000               0.112618377              -0.453805555               0.000000000               0.118809188              -0.476902778               0.000000000               0.125000000              -0.500000000               0.000000000               0.013036280              -0.132359569               0.000000000               0.016127762              -0.155337096               0.000000000               0.019219245              -0.178314623               0.000000000               0.022310727              -0.201292150               0.000000000               0.025402210              -0.224269676               0.000000000               0.028493692              -0.247247203               0.000000000               0.031585175              -0.270224730               0.000000000               0.034676657              -0.293202257               0.000000000               0.037768140              -0.316179784               0.000000000               0.040859622              -0.339157311               0.000000000               0.043951105              -0.362134838               0.000000000               0.047042587              -0.385112365               0.000000000               0.050134070              -0.408089892               0.000000000               0.053225552              -0.431067419               0.000000000               0.056317035              -0.454044946               0.000000000               0.059408517              -0.477022473               0.000000000               0.062500000              -0.500000000               0.000000000               0.000000000              -0.133000000               0.000000000               0.000000000              -0.155937500               0.000000000               0.000000000              -0.178875000               0.000000000               0.000000000              -0.201812500               0.000000000               0.000000000              -0.224750000               0.000000000               0.000000000              -0.247687500               0.000000000               0.000000000              -0.270625000               0.000000000               0.000000000              -0.293562500               0.000000000               0.000000000              -0.316500000               0.000000000               0.000000000              -0.339437500               0.000000000               0.000000000              -0.362375000               0.000000000               0.000000000              -0.385312500               0.000000000               0.000000000              -0.408250000               0.000000000               0.000000000              -0.431187500               0.000000000               0.000000000              -0.454125000               0.000000000               0.000000000              -0.477062500               0.000000000               0.000000000              -0.500000000               0.000000000              -0.133000000               0.000000000               0.000000000              -0.155937500               0.000000000               0.000000000              -0.178875000               0.000000000               0.000000000              -0.201812500               0.000000000               0.000000000              -0.224750000               0.000000000               0.000000000              -0.247687500               0.000000000               0.000000000              -0.270625000               0.000000000               0.000000000              -0.293562500               0.000000000               0.000000000              -0.316500000               0.000000000               0.000000000              -0.339437500               0.000000000               0.000000000              -0.362375000               0.000000000               0.000000000              -0.385312500               0.000000000               0.000000000              -0.408250000               0.000000000               0.000000000              -0.431187500               0.000000000               0.000000000              -0.454125000               0.000000000               0.000000000              -0.477062500               0.000000000               0.000000000              -0.500000000               0.000000000               0.000000000              -0.132359569              -0.013036280               0.000000000              -0.155337096              -0.016127762               0.000000000              -0.178314623              -0.019219245               0.000000000              -0.201292150              -0.022310727               0.000000000              -0.224269676              -0.025402210               0.000000000              -0.247247203              -0.028493692               0.000000000              -0.270224730              -0.031585175               0.000000000              -0.293202257              -0.034676657               0.000000000              -0.316179784              -0.037768140               0.000000000              -0.339157311              -0.040859622               0.000000000              -0.362134838              -0.043951105               0.000000000              -0.385112365              -0.047042587               0.000000000              -0.408089892              -0.050134070               0.000000000              -0.431067419              -0.053225552               0.000000000              -0.454044946              -0.056317035               0.000000000              -0.477022473              -0.059408517               0.000000000              -0.500000000              -0.062500000               0.000000000              -0.130444442              -0.025947013               0.000000000              -0.153541665              -0.032137825               0.000000000              -0.176638887              -0.038328636               0.000000000              -0.199736109              -0.044519448               0.000000000              -0.222833332              -0.050710260               0.000000000              -0.245930554              -0.056901071               0.000000000              -0.269027776              -0.063091883               0.000000000              -0.292124999              -0.069282695               0.000000000              -0.315222221              -0.075473506               0.000000000              -0.338319444              -0.081664318               0.000000000              -0.361416666              -0.087855130               0.000000000              -0.384513888              -0.094045942               0.000000000              -0.407611111              -0.100236753               0.000000000              -0.430708333              -0.106427565               0.000000000              -0.453805555              -0.112618377               0.000000000              -0.476902778              -0.118809188               0.000000000              -0.500000000              -0.125000000               0.000000000              -0.127273065              -0.038607862               0.000000000              -0.150568498              -0.047913621               0.000000000              -0.173863932              -0.057219379               0.000000000              -0.197159365              -0.066525138               0.000000000              -0.220454798              -0.075830897               0.000000000              -0.243750232              -0.085136655               0.000000000              -0.267045665              -0.094442414               0.000000000              -0.290341099              -0.103748172               0.000000000              -0.313636532              -0.113053931               0.000000000              -0.336931966              -0.122359690               0.000000000              -0.360227399              -0.131665448               0.000000000              -0.383522833              -0.140971207               0.000000000              -0.406818266              -0.150276966               0.000000000              -0.430113700              -0.159582724               0.000000000              -0.453409133              -0.168888483               0.000000000              -0.476704567              -0.178194241               0.000000000              -0.500000000              -0.187500000               0.000000000              -0.122875978              -0.050896897               0.000000000              -0.146446229              -0.063340840               0.000000000              -0.170016481              -0.075784784               0.000000000              -0.193586732              -0.088228728               0.000000000              -0.217156983              -0.100672672               0.000000000              -0.240727235              -0.113116616               0.000000000              -0.264297486              -0.125560560               0.000000000              -0.287867738              -0.138004504               0.000000000              -0.311437989              -0.150448448               0.000000000              -0.335008240              -0.162892392               0.000000000              -0.358578492              -0.175336336               0.000000000              -0.382148743              -0.187780280               0.000000000              -0.405718994              -0.200224224               0.000000000              -0.429289246              -0.212668168               0.000000000              -0.452859497              -0.225112112               0.000000000              -0.476429749              -0.237556056               0.000000000              -0.500000000              -0.250000000               0.000000000              -0.117295528              -0.062695766               0.000000000              -0.141214558              -0.078308531               0.000000000              -0.165133587              -0.093921295               0.000000000              -0.189052617              -0.109534060               0.000000000              -0.212971646              -0.125146824               0.000000000              -0.236890676              -0.140759589               0.000000000              -0.260809705              -0.156372354               0.000000000              -0.284728735              -0.171985118               0.000000000              -0.308647764              -0.187597883               0.000000000              -0.332566794              -0.203210648               0.000000000              -0.356485823              -0.218823412               0.000000000              -0.380404853              -0.234436177               0.000000000              -0.404323882              -0.250048941               0.000000000              -0.428242912              -0.265661706               0.000000000              -0.452161941              -0.281274471               0.000000000              -0.476080971              -0.296887235               0.000000000              -0.500000000              -0.312500000               0.000000000              -0.110585458              -0.073890841               0.000000000              -0.134923867              -0.092710163               0.000000000              -0.159262276              -0.111529486               0.000000000              -0.183600685              -0.130348808               0.000000000              -0.207939094              -0.149168131               0.000000000              -0.232277503              -0.167987453               0.000000000              -0.256615912              -0.186806776               0.000000000              -0.280954320              -0.205626098               0.000000000              -0.305292729              -0.224445420               0.000000000              -0.329631138              -0.243264743               0.000000000              -0.353969547              -0.262084065               0.000000000              -0.378307956              -0.280903388               0.000000000              -0.402646365              -0.299722710               0.000000000              -0.426984773              -0.318542033               0.000000000              -0.451323182              -0.337361355               0.000000000              -0.475661591              -0.356180678               0.000000000              -0.500000000              -0.375000000               0.000000000              -0.102810390              -0.084374307               0.000000000              -0.127634741              -0.106444663               0.000000000              -0.152459092              -0.128515018               0.000000000              -0.177283442              -0.150585374               0.000000000              -0.202107793              -0.172655730               0.000000000              -0.226932143              -0.194726086               0.000000000              -0.251756494              -0.216796442               0.000000000              -0.276580845              -0.238866798               0.000000000              -0.301405195              -0.260937153               0.000000000              -0.326229546              -0.283007509               0.000000000              -0.351053896              -0.305077865               0.000000000              -0.375878247              -0.327148221               0.000000000              -0.400702598              -0.349218577               0.000000000              -0.425526948              -0.371288933               0.000000000              -0.450351299              -0.393359288               0.000000000              -0.475175649              -0.415429644               0.000000000              -0.500000000              -0.437500000               0.000000000              -0.094045202              -0.094045202               0.000000000              -0.119417377              -0.119417377               0.000000000              -0.144789552              -0.144789552               0.000000000              -0.170161727              -0.170161727               0.000000000              -0.195533901              -0.195533901               0.000000000              -0.220906076              -0.220906076               0.000000000              -0.246278251              -0.246278251               0.000000000              -0.271650426              -0.271650426               0.000000000              -0.297022601              -0.297022601               0.000000000              -0.322394776              -0.322394776               0.000000000              -0.347766951              -0.347766951               0.000000000              -0.373139126              -0.373139126               0.000000000              -0.398511300              -0.398511300               0.000000000              -0.423883475              -0.423883475               0.000000000              -0.449255650              -0.449255650               0.000000000              -0.474627825              -0.474627825               0.000000000              -0.500000000              -0.500000000               0.000000000              -0.084374307              -0.102810390               0.000000000              -0.106444663              -0.127634741               0.000000000              -0.128515018              -0.152459092               0.000000000              -0.150585374              -0.177283442               0.000000000              -0.172655730              -0.202107793               0.000000000              -0.194726086              -0.226932143               0.000000000              -0.216796442              -0.251756494               0.000000000              -0.238866798              -0.276580845               0.000000000              -0.260937153              -0.301405195               0.000000000              -0.283007509              -0.326229546               0.000000000              -0.305077865              -0.351053896               0.000000000              -0.327148221              -0.375878247               0.000000000              -0.349218577              -0.400702598               0.000000000              -0.371288933              -0.425526948               0.000000000              -0.393359288              -0.450351299               0.000000000              -0.415429644              -0.475175649               0.000000000              -0.437500000              -0.500000000               0.000000000              -0.073890841              -0.110585458               0.000000000              -0.092710163              -0.134923867               0.000000000              -0.111529486              -0.159262276               0.000000000              -0.130348808              -0.183600685               0.000000000              -0.149168131              -0.207939094               0.000000000              -0.167987453              -0.232277503               0.000000000              -0.186806776              -0.256615912               0.000000000              -0.205626098              -0.280954320               0.000000000              -0.224445420              -0.305292729               0.000000000              -0.243264743              -0.329631138               0.000000000              -0.262084065              -0.353969547               0.000000000              -0.280903388              -0.378307956               0.000000000              -0.299722710              -0.402646365               0.000000000              -0.318542033              -0.426984773               0.000000000              -0.337361355              -0.451323182               0.000000000              -0.356180678              -0.475661591               0.000000000              -0.375000000              -0.500000000               0.000000000              -0.062695766              -0.117295528               0.000000000              -0.078308531              -0.141214558               0.000000000              -0.093921295              -0.165133587               0.000000000              -0.109534060              -0.189052617               0.000000000              -0.125146824              -0.212971646               0.000000000              -0.140759589              -0.236890676               0.000000000              -0.156372354              -0.260809705               0.000000000              -0.171985118              -0.284728735               0.000000000              -0.187597883              -0.308647764               0.000000000              -0.203210648              -0.332566794               0.000000000              -0.218823412              -0.356485823               0.000000000              -0.234436177              -0.380404853               0.000000000              -0.250048941              -0.404323882               0.000000000              -0.265661706              -0.428242912               0.000000000              -0.281274471              -0.452161941               0.000000000              -0.296887235              -0.476080971               0.000000000              -0.312500000              -0.500000000               0.000000000              -0.050896897              -0.122875978               0.000000000              -0.063340840              -0.146446229               0.000000000              -0.075784784              -0.170016481               0.000000000              -0.088228728              -0.193586732               0.000000000              -0.100672672              -0.217156983               0.000000000              -0.113116616              -0.240727235               0.000000000              -0.125560560              -0.264297486               0.000000000              -0.138004504              -0.287867738               0.000000000              -0.150448448              -0.311437989               0.000000000              -0.162892392              -0.335008240               0.000000000              -0.175336336              -0.358578492               0.000000000              -0.187780280              -0.382148743               0.000000000              -0.200224224              -0.405718994               0.000000000              -0.212668168              -0.429289246               0.000000000              -0.225112112              -0.452859497               0.000000000              -0.237556056              -0.476429749               0.000000000              -0.250000000              -0.500000000               0.000000000              -0.038607862              -0.127273065               0.000000000              -0.047913621              -0.150568498               0.000000000              -0.057219379              -0.173863932               0.000000000              -0.066525138              -0.197159365               0.000000000              -0.075830897              -0.220454798               0.000000000              -0.085136655              -0.243750232               0.000000000              -0.094442414              -0.267045665               0.000000000              -0.103748172              -0.290341099               0.000000000              -0.113053931              -0.313636532               0.000000000              -0.122359690              -0.336931966               0.000000000              -0.131665448              -0.360227399               0.000000000              -0.140971207              -0.383522833               0.000000000              -0.150276966              -0.406818266               0.000000000              -0.159582724              -0.430113700               0.000000000              -0.168888483              -0.453409133               0.000000000              -0.178194241              -0.476704567               0.000000000              -0.187500000              -0.500000000               0.000000000              -0.025947013              -0.130444442               0.000000000              -0.032137825              -0.153541665               0.000000000              -0.038328636              -0.176638887               0.000000000              -0.044519448              -0.199736109               0.000000000              -0.050710260              -0.222833332               0.000000000              -0.056901071              -0.245930554               0.000000000              -0.063091883              -0.269027776               0.000000000              -0.069282695              -0.292124999               0.000000000              -0.075473506              -0.315222221               0.000000000              -0.081664318              -0.338319444               0.000000000              -0.087855130              -0.361416666               0.000000000              -0.094045942              -0.384513888               0.000000000              -0.100236753              -0.407611111               0.000000000              -0.106427565              -0.430708333               0.000000000              -0.112618377              -0.453805555               0.000000000              -0.118809188              -0.476902778               0.000000000              -0.125000000              -0.500000000               0.000000000              -0.013036280              -0.132359569               0.000000000              -0.016127762              -0.155337096               0.000000000              -0.019219245              -0.178314623               0.000000000              -0.022310727              -0.201292150               0.000000000              -0.025402210              -0.224269676               0.000000000              -0.028493692              -0.247247203               0.000000000              -0.031585175              -0.270224730               0.000000000              -0.034676657              -0.293202257               0.000000000              -0.037768140              -0.316179784               0.000000000              -0.040859622              -0.339157311               0.000000000              -0.043951105              -0.362134838               0.000000000              -0.047042587              -0.385112365               0.000000000              -0.050134070              -0.408089892               0.000000000              -0.053225552              -0.431067419               0.000000000              -0.056317035              -0.454044946               0.000000000              -0.059408517              -0.477022473               0.000000000              -0.062500000              -0.500000000               0.000000000               0.000000000              -0.133000000               0.000000000               0.000000000              -0.155937500               0.000000000               0.000000000              -0.178875000               0.000000000               0.000000000              -0.201812500               0.000000000               0.000000000              -0.224750000               0.000000000               0.000000000              -0.247687500               0.000000000               0.000000000              -0.270625000               0.000000000               0.000000000              -0.293562500               0.000000000               0.000000000              -0.316500000               0.000000000               0.000000000              -0.339437500               0.000000000               0.000000000              -0.362375000               0.000000000               0.000000000              -0.385312500               0.000000000               0.000000000              -0.408250000               0.000000000               0.000000000              -0.431187500               0.000000000               0.000000000              -0.454125000               0.000000000               0.000000000              -0.477062500               0.000000000               0.000000000              -0.500000000               0.000000000              -0.133000000               0.000000000               0.000000000              -0.155937500               0.000000000               0.000000000              -0.178875000               0.000000000               0.000000000              -0.201812500               0.000000000               0.000000000              -0.224750000               0.000000000               0.000000000              -0.247687500               0.000000000               0.000000000              -0.270625000               0.000000000               0.000000000              -0.293562500               0.000000000               0.000000000              -0.316500000               0.000000000               0.000000000              -0.339437500               0.000000000               0.000000000              -0.362375000               0.000000000               0.000000000              -0.385312500               0.000000000               0.000000000              -0.408250000               0.000000000               0.000000000              -0.431187500               0.000000000               0.000000000              -0.454125000               0.000000000               0.000000000              -0.477062500               0.000000000               0.000000000              -0.500000000               0.000000000               0.000000000              -0.132359569               0.013036280               0.000000000              -0.155337096               0.016127762               0.000000000              -0.178314623               0.019219245               0.000000000              -0.201292150               0.022310727               0.000000000              -0.224269676               0.025402210               0.000000000              -0.247247203               0.028493692               0.000000000              -0.270224730               0.031585175               0.000000000              -0.293202257               0.034676657               0.000000000              -0.316179784               0.037768140               0.000000000              -0.339157311               0.040859622               0.000000000              -0.362134838               0.043951105               0.000000000              -0.385112365               0.047042587               0.000000000              -0.408089892               0.050134070               0.000000000              -0.431067419               0.053225552               0.000000000              -0.454044946               0.056317035               0.000000000              -0.477022473               0.059408517               0.000000000              -0.500000000               0.062500000               0.000000000              -0.130444442               0.025947013               0.000000000              -0.153541665               0.032137825               0.000000000              -0.176638887               0.038328636               0.000000000              -0.199736109               0.044519448               0.000000000              -0.222833332               0.050710260               0.000000000              -0.245930554               0.056901071               0.000000000              -0.269027776               0.063091883               0.000000000              -0.292124999               0.069282695               0.000000000              -0.315222221               0.075473506               0.000000000              -0.338319444               0.081664318               0.000000000              -0.361416666               0.087855130               0.000000000              -0.384513888               0.094045942               0.000000000              -0.407611111               0.100236753               0.000000000              -0.430708333               0.106427565               0.000000000              -0.453805555               0.112618377               0.000000000              -0.476902778               0.118809188               0.000000000              -0.500000000               0.125000000               0.000000000              -0.127273065               0.038607862               0.000000000              -0.150568498               0.047913621               0.000000000              -0.173863932               0.057219379               0.000000000              -0.197159365               0.066525138               0.000000000              -0.220454798               0.075830897               0.000000000              -0.243750232               0.085136655               0.000000000              -0.267045665               0.094442414               0.000000000              -0.290341099               0.103748172               0.000000000              -0.313636532               0.113053931               0.000000000              -0.336931966               0.122359690               0.000000000              -0.360227399               0.131665448               0.000000000              -0.383522833               0.140971207               0.000000000              -0.406818266               0.150276966               0.000000000              -0.430113700               0.159582724               0.000000000              -0.453409133               0.168888483               0.000000000              -0.476704567               0.178194241               0.000000000              -0.500000000               0.187500000               0.000000000              -0.122875978               0.050896897               0.000000000              -0.146446229               0.063340840               0.000000000              -0.170016481               0.075784784               0.000000000              -0.193586732               0.088228728               0.000000000              -0.217156983               0.100672672               0.000000000              -0.240727235               0.113116616               0.000000000              -0.264297486               0.125560560               0.000000000              -0.287867738               0.138004504               0.000000000              -0.311437989               0.150448448               0.000000000              -0.335008240               0.162892392               0.000000000              -0.358578492               0.175336336               0.000000000              -0.382148743               0.187780280               0.000000000              -0.405718994               0.200224224               0.000000000              -0.429289246               0.212668168               0.000000000              -0.452859497               0.225112112               0.000000000              -0.476429749               0.237556056               0.000000000              -0.500000000               0.250000000               0.000000000              -0.117295528               0.062695766               0.000000000              -0.141214558               0.078308531               0.000000000              -0.165133587               0.093921295               0.000000000              -0.189052617               0.109534060               0.000000000              -0.212971646               0.125146824               0.000000000              -0.236890676               0.140759589               0.000000000              -0.260809705               0.156372354               0.000000000              -0.284728735               0.171985118               0.000000000              -0.308647764               0.187597883               0.000000000              -0.332566794               0.203210648               0.000000000              -0.356485823               0.218823412               0.000000000              -0.380404853               0.234436177               0.000000000              -0.404323882               0.250048941               0.000000000              -0.428242912               0.265661706               0.000000000              -0.452161941               0.281274471               0.000000000              -0.476080971               0.296887235               0.000000000              -0.500000000               0.312500000               0.000000000              -0.110585458               0.073890841               0.000000000              -0.134923867               0.092710163               0.000000000              -0.159262276               0.111529486               0.000000000              -0.183600685               0.130348808               0.000000000              -0.207939094               0.149168131               0.000000000              -0.232277503               0.167987453               0.000000000              -0.256615912               0.186806776               0.000000000              -0.280954320               0.205626098               0.000000000              -0.305292729               0.224445420               0.000000000              -0.329631138               0.243264743               0.000000000              -0.353969547               0.262084065               0.000000000              -0.378307956               0.280903388               0.000000000              -0.402646365               0.299722710               0.000000000              -0.426984773               0.318542033               0.000000000              -0.451323182               0.337361355               0.000000000              -0.475661591               0.356180678               0.000000000              -0.500000000               0.375000000               0.000000000              -0.102810390               0.084374307               0.000000000              -0.127634741               0.106444663               0.000000000              -0.152459092               0.128515018               0.000000000              -0.177283442               0.150585374               0.000000000              -0.202107793               0.172655730               0.000000000              -0.226932143               0.194726086               0.000000000              -0.251756494               0.216796442               0.000000000              -0.276580845               0.238866798               0.000000000              -0.301405195               0.260937153               0.000000000              -0.326229546               0.283007509               0.000000000              -0.351053896               0.305077865               0.000000000              -0.375878247               0.327148221               0.000000000              -0.400702598               0.349218577               0.000000000              -0.425526948               0.371288933               0.000000000              -0.450351299               0.393359288               0.000000000              -0.475175649               0.415429644               0.000000000              -0.500000000               0.437500000               0.000000000              -0.094045202               0.094045202               0.000000000              -0.119417377               0.119417377               0.000000000              -0.144789552               0.144789552               0.000000000              -0.170161727               0.170161727               0.000000000              -0.195533901               0.195533901               0.000000000              -0.220906076               0.220906076               0.000000000              -0.246278251               0.246278251               0.000000000              -0.271650426               0.271650426               0.000000000              -0.297022601               0.297022601               0.000000000              -0.322394776               0.322394776               0.000000000              -0.347766951               0.347766951               0.000000000              -0.373139126               0.373139126               0.000000000              -0.398511300               0.398511300               0.000000000              -0.423883475               0.423883475               0.000000000              -0.449255650               0.449255650               0.000000000              -0.474627825               0.474627825               0.000000000              -0.500000000               0.500000000               0.000000000              -0.084374307               0.102810390               0.000000000              -0.106444663               0.127634741               0.000000000              -0.128515018               0.152459092               0.000000000              -0.150585374               0.177283442               0.000000000              -0.172655730               0.202107793               0.000000000              -0.194726086               0.226932143               0.000000000              -0.216796442               0.251756494               0.000000000              -0.238866798               0.276580845               0.000000000              -0.260937153               0.301405195               0.000000000              -0.283007509               0.326229546               0.000000000              -0.305077865               0.351053896               0.000000000              -0.327148221               0.375878247               0.000000000              -0.349218577               0.400702598               0.000000000              -0.371288933               0.425526948               0.000000000              -0.393359288               0.450351299               0.000000000              -0.415429644               0.475175649               0.000000000              -0.437500000               0.500000000               0.000000000              -0.073890841               0.110585458               0.000000000              -0.092710163               0.134923867               0.000000000              -0.111529486               0.159262276               0.000000000              -0.130348808               0.183600685               0.000000000              -0.149168131               0.207939094               0.000000000              -0.167987453               0.232277503               0.000000000              -0.186806776               0.256615912               0.000000000              -0.205626098               0.280954320               0.000000000              -0.224445420               0.305292729               0.000000000              -0.243264743               0.329631138               0.000000000              -0.262084065               0.353969547               0.000000000              -0.280903388               0.378307956               0.000000000              -0.299722710               0.402646365               0.000000000              -0.318542033               0.426984773               0.000000000              -0.337361355               0.451323182               0.000000000              -0.356180678               0.475661591               0.000000000              -0.375000000               0.500000000               0.000000000              -0.062695766               0.117295528               0.000000000              -0.078308531               0.141214558               0.000000000              -0.093921295               0.165133587               0.000000000              -0.109534060               0.189052617               0.000000000              -0.125146824               0.212971646               0.000000000              -0.140759589               0.236890676               0.000000000              -0.156372354               0.260809705               0.000000000              -0.171985118               0.284728735               0.000000000              -0.187597883               0.308647764               0.000000000              -0.203210648               0.332566794               0.000000000              -0.218823412               0.356485823               0.000000000              -0.234436177               0.380404853               0.000000000              -0.250048941               0.404323882               0.000000000              -0.265661706               0.428242912               0.000000000              -0.281274471               0.452161941               0.000000000              -0.296887235               0.476080971               0.000000000              -0.312500000               0.500000000               0.000000000              -0.050896897               0.122875978               0.000000000              -0.063340840               0.146446229               0.000000000              -0.075784784               0.170016481               0.000000000              -0.088228728               0.193586732               0.000000000              -0.100672672               0.217156983               0.000000000              -0.113116616               0.240727235               0.000000000              -0.125560560               0.264297486               0.000000000              -0.138004504               0.287867738               0.000000000              -0.150448448               0.311437989               0.000000000              -0.162892392               0.335008240               0.000000000              -0.175336336               0.358578492               0.000000000              -0.187780280               0.382148743               0.000000000              -0.200224224               0.405718994               0.000000000              -0.212668168               0.429289246               0.000000000              -0.225112112               0.452859497               0.000000000              -0.237556056               0.476429749               0.000000000              -0.250000000               0.500000000               0.000000000              -0.038607862               0.127273065               0.000000000              -0.047913621               0.150568498               0.000000000              -0.057219379               0.173863932               0.000000000              -0.066525138               0.197159365               0.000000000              -0.075830897               0.220454798               0.000000000              -0.085136655               0.243750232               0.000000000              -0.094442414               0.267045665               0.000000000              -0.103748172               0.290341099               0.000000000              -0.113053931               0.313636532               0.000000000              -0.122359690               0.336931966               0.000000000              -0.131665448               0.360227399               0.000000000              -0.140971207               0.383522833               0.000000000              -0.150276966               0.406818266               0.000000000              -0.159582724               0.430113700               0.000000000              -0.168888483               0.453409133               0.000000000              -0.178194241               0.476704567               0.000000000              -0.187500000               0.500000000               0.000000000              -0.025947013               0.130444442               0.000000000              -0.032137825               0.153541665               0.000000000              -0.038328636               0.176638887               0.000000000              -0.044519448               0.199736109               0.000000000              -0.050710260               0.222833332               0.000000000              -0.056901071               0.245930554               0.000000000              -0.063091883               0.269027776               0.000000000              -0.069282695               0.292124999               0.000000000              -0.075473506               0.315222221               0.000000000              -0.081664318               0.338319444               0.000000000              -0.087855130               0.361416666               0.000000000              -0.094045942               0.384513888               0.000000000              -0.100236753               0.407611111               0.000000000              -0.106427565               0.430708333               0.000000000              -0.112618377               0.453805555               0.000000000              -0.118809188               0.476902778               0.000000000              -0.125000000               0.500000000               0.000000000              -0.013036280               0.132359569               0.000000000              -0.016127762               0.155337096               0.000000000              -0.019219245               0.178314623               0.000000000              -0.022310727               0.201292150               0.000000000              -0.025402210               0.224269676               0.000000000              -0.028493692               0.247247203               0.000000000              -0.031585175               0.270224730               0.000000000              -0.034676657               0.293202257               0.000000000              -0.037768140               0.316179784               0.000000000              -0.040859622               0.339157311               0.000000000              -0.043951105               0.362134838               0.000000000              -0.047042587               0.385112365               0.000000000              -0.050134070               0.408089892               0.000000000              -0.053225552               0.431067419               0.000000000              -0.056317035               0.454044946               0.000000000              -0.059408517               0.477022473               0.000000000              -0.062500000               0.500000000               0.000000000               0.000000000               0.133000000               0.000000000               0.000000000               0.155937500               0.000000000               0.000000000               0.178875000               0.000000000               0.000000000               0.201812500               0.000000000               0.000000000               0.224750000               0.000000000               0.000000000               0.247687500               0.000000000               0.000000000               0.270625000               0.000000000               0.000000000               0.293562500               0.000000000               0.000000000               0.316500000               0.000000000               0.000000000               0.339437500               0.000000000               0.000000000               0.362375000               0.000000000               0.000000000               0.385312500               0.000000000               0.000000000               0.408250000               0.000000000               0.000000000               0.431187500               0.000000000               0.000000000               0.454125000               0.000000000               0.000000000               0.477062500               0.000000000               0.000000000               0.500000000               0.000000000 </DataArray>
</Points>
<Cells>
<DataArray type="Int32"                                    Name="connectivity"                                                      NumberOfComponents=" 1" format="ascii">
         0          1         18         17          1          2         19         18          2          3         20         19          3          4         21         20          4          5         22         21          5          6         23         22          6          7         24         23          7          8         25         24          8          9         26         25          9         10         27         26         10         11         28         27         11         12         29         28         12         13         30         29         13         14         31         30         14         15         32         31         15         16         33         32         17         18         35         34         18         19         36         35         19         20         37         36         20         21         38         37         21         22         39         38         22         23         40         39         23         24         41         40         24         25         42         41         25         26         43         42         26         27         44         43         27         28         45         44         28         29         46         45         29         30         47         46         30         31         48         47         31         32         49         48         32         33         50         49         34         35         52         51         35         36         53         52         36         37         54         53         37         38         55         54         38         39         56         55         39         40         57         56         40         41         58         57         41         42         59         58         42         43         60         59         43         44         61         60         44         45         62         61         45         46         63         62         46         47         64         63         47         48         65         64         48         49         66         65         49         50         67         66         51         52         69         68         52         53         70         69         53         54         71         70         54         55         72         71         55         56         73         72         56         57         74         73         57         58         75         74         58         59         76         75         59         60         77         76         60         61         78         77         61         62         79         78         62         63         80         79         63         64         81         80         64         65         82         81         65         66         83         82         66         67         84         83         68         69         86         85         69         70         87         86         70         71         88         87         71         72         89         88         72         73         90         89         73         74         91         90         74         75         92         91         75         76         93         92         76         77         94         93         77         78         95         94         78         79         96         95         79         80         97         96         80         81         98         97         81         82         99         98         82         83        100         99         83         84        101        100         85         86        103        102         86         87        104        103         87         88        105        104         88         89        106        105         89         90        107        106         90         91        108        107         91         92        109        108         92         93        110        109         93         94        111        110         94         95        112        111         95         96        113        112         96         97        114        113         97         98        115        114         98         99        116        115         99        100        117        116        100        101        118        117        102        103        120        119        103        104        121        120        104        105        122        121        105        106        123        122        106        107        124        123        107        108        125        124        108        109        126        125        109        110        127        126        110        111        128        127        111        112        129        128        112        113        130        129        113        114        131        130        114        115        132        131        115        116        133        132        116        117        134        133        117        118        135        134        119        120        137        136        120        121        138        137        121        122        139        138        122        123        140        139        123        124        141        140        124        125        142        141        125        126        143        142        126        127        144        143        127        128        145        144        128        129        146        145        129        130        147        146        130        131        148        147        131        132        149        148        132        133        150        149        133        134        151        150        134        135        152        151        136        137        154        153        137        138        155        154        138        139        156        155        139        140        157        156        140        141        158        157        141        142        159        158        142        143        160        159        143        144        161        160        144        145        162        161        145        146        163        162        146        147        164        163        147        148        165        164        148        149        166        165        149        150        167        166        150        151        168        167        151        152        169        168        153        154        171        170        154        155        172        171        155        156        173        172        156        157        174        173        157        158        175        174        158        159        176        175        159        160        177        176        160        161        178        177        161        162        179        178        162        163        180        179        163        164        181        180        164        165        182        181        165        166        183        182        166        167        184        183        167        168        185        184        168        169        186        185        170        171        188        187        171        172        189        188        172        173        190        189        173        174        191        190        174        175        192        191        175        176        193        192        176        177        194        193        177        178        195        194        178        179        196        195        179        180        197        196        180        181        198        197        181        182        199        198        182        183        200        199        183        184        201        200        184        185        202        201        185        186        203        202        187        188        205        204        188        189        206        205        189        190        207        206        190        191        208        207        191        192        209        208        192        193        210        209        193        194        211        210        194        195        212        211        195        196        213        212        196        197        214        213        197        198        215        214        198        199        216        215        199        200        217        216        200        201        218        217        201        202        219        218        202        203        220        219        204        205        222        221        205        206        223        222        206        207        224        223        207        208        225        224        208        209        226        225        209        210        227        226        210        211        228        227        211        212        229        228        212        213        230        229        213        214        231        230        214        215        232        231        215        216        233        232        216        217        234        233        217        218        235        234        218        219        236        235        219        220        237        236        221        222        239        238        222        223        240        239        223        224        241        240        224        225        242        241        225        226        243        242        226        227        244        243        227        228        245        244        228        229        246        245        229        230        247        246        230        231        248        247        231        232        249        248        232        233        250        249        233        234        251        250        234        235        252        251        235        236        253        252        236        237        254        253        238        239        256        255        239        240        257        256        240        241        258        257        241        242        259        258        242        243        260        259        243        244        261        260        244        245        262        261        245        246        263        262        246        247        264        263        247        248        265        264        248        249        266        265        249        250        267        266        250        251        268        267        251        252        269        268        252        253        270        269        253        254        271        270        255        256        273        272        256        257        274        273        257        258        275        274        258        259        276        275        259        260        277        276        260        261        278        277        261        262        279        278        262        263        280        279        263        264        281        280        264        265        282        281        265        266        283        282        266        267        284        283        267        268        285        284        268        269        286        285        269        270        287        286        270        271        288        287        306        307          1          0        307        308          2          1        308        309          3          2        309        310          4          3        310        311          5          4        311        312          6          5        312        313          7          6        313        314          8          7        314        315          9          8        315        316         10          9        316        317         11         10        317        318         12         11        318        319         13         12        319        320         14         13        320        321         15         14        321        322         16         15        323        324        307        306        324        325        308        307        325        326        309        308        326        327        310        309        327        328        311        310        328        329        312        311        329        330        313        312        330        331        314        313        331        332        315        314        332        333        316        315        333        334        317        316        334        335        318        317        335        336        319        318        336        337        320        319        337        338        321        320        338        339        322        321        340        341        324        323        341        342        325        324        342        343        326        325        343        344        327        326        344        345        328        327        345        346        329        328        346        347        330        329        347        348        331        330        348        349        332        331        349        350        333        332        350        351        334        333        351        352        335        334        352        353        336        335        353        354        337        336        354        355        338        337        355        356        339        338        357        358        341        340        358        359        342        341        359        360        343        342        360        361        344        343        361        362        345        344        362        363        346        345        363        364        347        346        364        365        348        347        365        366        349        348        366        367        350        349        367        368        351        350        368        369        352        351        369        370        353        352        370        371        354        353        371        372        355        354        372        373        356        355        374        375        358        357        375        376        359        358        376        377        360        359        377        378        361        360        378        379        362        361        379        380        363        362        380        381        364        363        381        382        365        364        382        383        366        365        383        384        367        366        384        385        368        367        385        386        369        368        386        387        370        369        387        388        371        370        388        389        372        371        389        390        373        372        391        392        375        374        392        393        376        375        393        394        377        376        394        395        378        377        395        396        379        378        396        397        380        379        397        398        381        380        398        399        382        381        399        400        383        382        400        401        384        383        401        402        385        384        402        403        386        385        403        404        387        386        404        405        388        387        405        406        389        388        406        407        390        389        408        409        392        391        409        410        393        392        410        411        394        393        411        412        395        394        412        413        396        395        413        414        397        396        414        415        398        397        415        416        399        398        416        417        400        399        417        418        401        400        418        419        402        401        419        420        403        402        420        421        404        403        421        422        405        404        422        423        406        405        423        424        407        406        425        426        409        408        426        427        410        409        427        428        411        410        428        429        412        411        429        430        413        412        430        431        414        413        431        432        415        414        432        433        416        415        433        434        417        416        434        435        418        417        435        436        419        418        436        437        420        419        437        438        421        420        438        439        422        421        439        440        423        422        440        441        424        423        442        443        426        425        443        444        427        426        444        445        428        427        445        446        429        428        446        447        430        429        447        448        431        430        448        449        432        431        449        450        433        432        450        451        434        433        451        452        435        434        452        453        436        435        453        454        437        436        454        455        438        437        455        456        439        438        456        457        440        439        457        458        441        440        459        460        443        442        460        461        444        443        461        462        445        444        462        463        446        445        463        464        447        446        464        465        448        447        465        466        449        448        466        467        450        449        467        468        451        450        468        469        452        451        469        470        453        452        470        471        454        453        471        472        455        454        472        473        456        455        473        474        457        456        474        475        458        457        476        477        460        459        477        478        461        460        478        479        462        461        479        480        463        462        480        481        464        463        481        482        465        464        482        483        466        465        483        484        467        466        484        485        468        467        485        486        469        468        486        487        470        469        487        488        471        470        488        489        472        471        489        490        473        472        490        491        474        473        491        492        475        474        493        494        477        476        494        495        478        477        495        496        479        478        496        497        480        479        497        498        481        480        498        499        482        481        499        500        483        482        500        501        484        483        501        502        485        484        502        503        486        485        503        504        487        486        504        505        488        487        505        506        489        488        506        507        490        489        507        508        491        490        508        509        492        491        510        511        494        493        511        512        495        494        512        513        496        495        513        514        497        496        514        515        498        497        515        516        499        498        516        517        500        499        517        518        501        500        518        519        502        501        519        520        503        502        520        521        504        503        521        522        505        504        522        523        506        505        523        524        507        506        524        525        508        507        525        526        509        508        527        528        511        510        528        529        512        511        529        530        513        512        530        531        514        513        531        532        515        514        532        533        516        515        533        534        517        516        534        535        518        517        535        536        519        518        536        537        520        519        537        538        521        520        538        539        522        521        539        540        523        522        540        541        524        523        541        542        525        524        542        543        526        525        544        545        528        527        545        546        529        528        546        547        530        529        547        548        531        530        548        549        532        531        549        550        533        532        550        551        534        533        551        552        535        534        552        553        536        535        553        554        537        536        554        555        538        537        555        556        539        538        556        557        540        539        557        558        541        540        558        559        542        541        559        560        543        542        561        562        545        544        562        563        546        545        563        564        547        546        564        565        548        547        565        566        549        548        566        567        550        549        567        568        551        550        568        569        552        551        569        570        553        552        570        571        554        553        571        572        555        554        572        573        556        555        573        574        557        556        574        575        558        557        575        576        559        558        576        577        560        559        578        579        596        595        579        580        597        596        580        581        598        597        581        582        599        598        582        583        600        599        583        584        601        600        584        585        602        601        585        586        603        602        586        587        604        603        587        588        605        604        588        589        606        605        589        590        607        606        590        591        608        607        591        592        609        608        592        593        610        609        593        594        611        610        595        596        613        612        596        597        614        613        597        598        615        614        598        599        616        615        599        600        617        616        600        601        618        617        601        602        619        618        602        603        620        619        603        604        621        620        604        605        622        621        605        606        623        622        606        607        624        623        607        608        625        624        608        609        626        625        609        610        627        626        610        611        628        627        612        613        630        629        613        614        631        630        614        615        632        631        615        616        633        632        616        617        634        633        617        618        635        634        618        619        636        635        619        620        637        636        620        621        638        637        621        622        639        638        622        623        640        639        623        624        641        640        624        625        642        641        625        626        643        642        626        627        644        643        627        628        645        644        629        630        647        646        630        631        648        647        631        632        649        648        632        633        650        649        633        634        651        650        634        635        652        651        635        636        653        652        636        637        654        653        637        638        655        654        638        639        656        655        639        640        657        656        640        641        658        657        641        642        659        658        642        643        660        659        643        644        661        660        644        645        662        661        646        647        664        663        647        648        665        664        648        649        666        665        649        650        667        666        650        651        668        667        651        652        669        668        652        653        670        669        653        654        671        670        654        655        672        671        655        656        673        672        656        657        674        673        657        658        675        674        658        659        676        675        659        660        677        676        660        661        678        677        661        662        679        678        663        664        681        680        664        665        682        681        665        666        683        682        666        667        684        683        667        668        685        684        668        669        686        685        669        670        687        686        670        671        688        687        671        672        689        688        672        673        690        689        673        674        691        690        674        675        692        691        675        676        693        692        676        677        694        693        677        678        695        694        678        679        696        695        680        681        698        697        681        682        699        698        682        683        700        699        683        684        701        700        684        685        702        701        685        686        703        702        686        687        704        703        687        688        705        704        688        689        706        705        689        690        707        706        690        691        708        707        691        692        709        708        692        693        710        709        693        694        711        710        694        695        712        711        695        696        713        712        697        698        715        714        698        699        716        715        699        700        717        716        700        701        718        717        701        702        719        718        702        703        720        719        703        704        721        720        704        705        722        721        705        706        723        722        706        707        724        723        707        708        725        724        708        709        726        725        709        710        727        726        710        711        728        727        711        712        729        728        712        713        730        729        714        715        732        731        715        716        733        732        716        717        734        733        717        718        735        734        718        719        736        735        719        720        737        736        720        721        738        737        721        722        739        738        722        723        740        739        723        724        741        740        724        725        742        741        725        726        743        742        726        727        744        743        727        728        745        744        728        729        746        745        729        730        747        746        731        732        749        748        732        733        750        749        733        734        751        750        734        735        752        751        735        736        753        752        736        737        754        753        737        738        755        754        738        739        756        755        739        740        757        756        740        741        758        757        741        742        759        758        742        743        760        759        743        744        761        760        744        745        762        761        745        746        763        762        746        747        764        763        748        749        766        765        749        750        767        766        750        751        768        767        751        752        769        768        752        753        770        769        753        754        771        770        754        755        772        771        755        756        773        772        756        757        774        773        757        758        775        774        758        759        776        775        759        760        777        776        760        761        778        777        761        762        779        778        762        763        780        779        763        764        781        780        765        766        783        782        766        767        784        783        767        768        785        784        768        769        786        785        769        770        787        786        770        771        788        787        771        772        789        788        772        773        790        789        773        774        791        790        774        775        792        791        775        776        793        792        776        777        794        793        777        778        795        794        778        779        796        795        779        780        797        796        780        781        798        797        782        783        800        799        783        784        801        800        784        785        802        801        785        786        803        802        786        787        804        803        787        788        805        804        788        789        806        805        789        790        807        806        790        791        808        807        791        792        809        808        792        793        810        809        793        794        811        810        794        795        812        811        795        796        813        812        796        797        814        813        797        798        815        814        799        800        817        816        800        801        818        817        801        802        819        818        802        803        820        819        803        804        821        820        804        805        822        821        805        806        823        822        806        807        824        823        807        808        825        824        808        809        826        825        809        810        827        826        810        811        828        827        811        812        829        828        812        813        830        829        813        814        831        830        814        815        832        831        816        817        834        833        817        818        835        834        818        819        836        835        819        820        837        836        820        821        838        837        821        822        839        838        822        823        840        839        823        824        841        840        824        825        842        841        825        826        843        842        826        827        844        843        827        828        845        844        828        829        846        845        829        830        847        846        830        831        848        847        831        832        849        848        833        834        562        561        834        835        563        562        835        836        564        563        836        837        565        564        837        838        566        565        838        839        567        566        839        840        568        567        840        841        569        568        841        842        570        569        842        843        571        570        843        844        572        571        844        845        573        572        845        846        574        573        846        847        575        574        847        848        576        575        848        849        577        576        884        885        579        578        885        886        580        579        886        887        581        580        887        888        582        581        888        889        583        582        889        890        584        583        890        891        585        584        891        892        586        585        892        893        587        586        893        894        588        587        894        895        589        588        895        896        590        589        896        897        591        590        897        898        592        591        898        899        593        592        899        900        594        593        901        902        885        884        902        903        886        885        903        904        887        886        904        905        888        887        905        906        889        888        906        907        890        889        907        908        891        890        908        909        892        891        909        910        893        892        910        911        894        893        911        912        895        894        912        913        896        895        913        914        897        896        914        915        898        897        915        916        899        898        916        917        900        899        918        919        902        901        919        920        903        902        920        921        904        903        921        922        905        904        922        923        906        905        923        924        907        906        924        925        908        907        925        926        909        908        926        927        910        909        927        928        911        910        928        929        912        911        929        930        913        912        930        931        914        913        931        932        915        914        932        933        916        915        933        934        917        916        935        936        919        918        936        937        920        919        937        938        921        920        938        939        922        921        939        940        923        922        940        941        924        923        941        942        925        924        942        943        926        925        943        944        927        926        944        945        928        927        945        946        929        928        946        947        930        929        947        948        931        930        948        949        932        931        949        950        933        932        950        951        934        933        952        953        936        935        953        954        937        936        954        955        938        937        955        956        939        938        956        957        940        939        957        958        941        940        958        959        942        941        959        960        943        942        960        961        944        943        961        962        945        944        962        963        946        945        963        964        947        946        964        965        948        947        965        966        949        948        966        967        950        949        967        968        951        950        969        970        953        952        970        971        954        953        971        972        955        954        972        973        956        955        973        974        957        956        974        975        958        957        975        976        959        958        976        977        960        959        977        978        961        960        978        979        962        961        979        980        963        962        980        981        964        963        981        982        965        964        982        983        966        965        983        984        967        966        984        985        968        967        986        987        970        969        987        988        971        970        988        989        972        971        989        990        973        972        990        991        974        973        991        992        975        974        992        993        976        975        993        994        977        976        994        995        978        977        995        996        979        978        996        997        980        979        997        998        981        980        998        999        982        981        999       1000        983        982       1000       1001        984        983       1001       1002        985        984       1003       1004        987        986       1004       1005        988        987       1005       1006        989        988       1006       1007        990        989       1007       1008        991        990       1008       1009        992        991       1009       1010        993        992       1010       1011        994        993       1011       1012        995        994       1012       1013        996        995       1013       1014        997        996       1014       1015        998        997       1015       1016        999        998       1016       1017       1000        999       1017       1018       1001       1000       1018       1019       1002       1001       1020       1021       1004       1003       1021       1022       1005       1004       1022       1023       1006       1005       1023       1024       1007       1006       1024       1025       1008       1007       1025       1026       1009       1008       1026       1027       1010       1009       1027       1028       1011       1010       1028       1029       1012       1011       1029       1030       1013       1012       1030       1031       1014       1013       1031       1032       1015       1014       1032       1033       1016       1015       1033       1034       1017       1016       1034       1035       1018       1017       1035       1036       1019       1018       1037       1038       1021       1020       1038       1039       1022       1021       1039       1040       1023       1022       1040       1041       1024       1023       1041       1042       1025       1024       1042       1043       1026       1025       1043       1044       1027       1026       1044       1045       1028       1027       1045       1046       1029       1028       1046       1047       1030       1029       1047       1048       1031       1030       1048       1049       1032       1031       1049       1050       1033       1032       1050       1051       1034       1033       1051       1052       1035       1034       1052       1053       1036       1035       1054       1055       1038       1037       1055       1056       1039       1038       1056       1057       1040       1039       1057       1058       1041       1040       1058       1059       1042       1041       1059       1060       1043       1042       1060       1061       1044       1043       1061       1062       1045       1044       1062       1063       1046       1045       1063       1064       1047       1046       1064       1065       1048       1047       1065       1066       1049       1048       1066       1067       1050       1049       1067       1068       1051       1050       1068       1069       1052       1051       1069       1070       1053       1052       1071       1072       1055       1054       1072       1073       1056       1055       1073       1074       1057       1056       1074       1075       1058       1057       1075       1076       1059       1058       1076       1077       1060       1059       1077       1078       1061       1060       1078       1079       1062       1061       1079       1080       1063       1062       1080       1081       1064       1063       1081       1082       1065       1064       1082       1083       1066       1065       1083       1084       1067       1066       1084       1085       1068       1067       1085       1086       1069       1068       1086       1087       1070       1069       1088       1089       1072       1071       1089       1090       1073       1072       1090       1091       1074       1073       1091       1092       1075       1074       1092       1093       1076       1075       1093       1094       1077       1076       1094       1095       1078       1077       1095       1096       1079       1078       1096       1097       1080       1079       1097       1098       1081       1080       1098       1099       1082       1081       1099       1100       1083       1082       1100       1101       1084       1083       1101       1102       1085       1084       1102       1103       1086       1085       1103       1104       1087       1086       1105       1106       1089       1088       1106       1107       1090       1089       1107       1108       1091       1090       1108       1109       1092       1091       1109       1110       1093       1092       1110       1111       1094       1093       1111       1112       1095       1094       1112       1113       1096       1095       1113       1114       1097       1096       1114       1115       1098       1097       1115       1116       1099       1098       1116       1117       1100       1099       1117       1118       1101       1100       1118       1119       1102       1101       1119       1120       1103       1102       1120       1121       1104       1103       1122       1123       1106       1105       1123       1124       1107       1106       1124       1125       1108       1107       1125       1126       1109       1108       1126       1127       1110       1109       1127       1128       1111       1110       1128       1129       1112       1111       1129       1130       1113       1112       1130       1131       1114       1113       1131       1132       1115       1114       1132       1133       1116       1115       1133       1134       1117       1116       1134       1135       1118       1117       1135       1136       1119       1118       1136       1137       1120       1119       1137       1138       1121       1120        272        273       1123       1122        273        274       1124       1123        274        275       1125       1124        275        276       1126       1125        276        277       1127       1126        277        278       1128       1127        278        279       1129       1128        279        280       1130       1129        280        281       1131       1130        281        282       1132       1131        282        283       1133       1132        283        284       1134       1133        284        285       1135       1134        285        286       1136       1135        286        287       1137       1136        287        288       1138       1137 </DataArray>
<DataArray type="Int32"                                    Name="offsets"                                                      NumberOfComponents=" 1" format="ascii">
         4          8         12         16         20         24         28         32         36         40         44         48         52         56         60         64         68         72         76         80         84         88         92         96        100        104        108        112        116        120        124        128        132        136        140        144        148        152        156        160        164        168        172        176        180        184        188        192        196        200        204        208        212        216        220        224        228        232        236        240        244        248        252        256        260        264        268        272        276        280        284        288        292        296        300        304        308        312        316        320        324        328        332        336        340        344        348        352        356        360        364        368        372        376        380        384        388        392        396        400        404        408        412        416        420        424        428        432        436        440        444        448        452        456        460        464        468        472        476        480        484        488        492        496        500        504        508        512        516        520        524        528        532        536        540        544        548        552        556        560        564        568        572        576        580        584        588        592        596        600        604        608        612        616        620        624        628        632        636        640        644        648        652        656        660        664        668        672        676        680        684        688        692        696        700        704        708        712        716        720        724        728        732        736        740        744        748        752        756        760        764        768        772        776        780        784        788        792        796        800        804        808        812        816        820        824        828        832        836        840        844        848        852        856        860        864        868        872        876        880        884        888        892        896        900        904        908        912        916        920        924        928        932        936        940        944        948        952        956        960        964        968        972        976        980        984        988        992        996       1000       1004       1008       1012       1016       1020       1024       1028       1032       1036       1040       1044       1048       1052       1056       1060       1064       1068       1072       1076       1080       1084       1088       1092       1096       1100       1104       1108       1112       1116       1120       1124       1128       1132       1136       1140       1144       1148       1152       1156       1160       1164       1168       1172       1176       1180       1184       1188       1192       1196       1200       1204       1208       1212       1216       1220       1224       1228       1232       1236       1240       1244       1248       1252       1256       1260       1264       1268       1272       1276       1280       1284       1288       1292       1296       1300       1304       1308       1312       1316       1320       1324       1328       1332       1336       1340       1344       1348       1352       1356       1360       1364       1368       1372       1376       1380       1384       1388       1392       1396       1400       1404       1408       1412       1416       1420       1424       1428       1432       1436       1440       1444       1448       1452       1456       1460       1464       1468       1472       1476       1480       1484       1488       1492       1496       1500       1504       1508       1512       1516       1520       1524       1528       1532       1536       1540       1544       1548       1552       1556       1560       1564       1568       1572       1576       1580       1584       1588       1592       1596       1600       1604       1608       1612       1616       1620       1624       1628       1632       1636       1640       1644       1648       1652       1656       1660       1664       1668       1672       1676       1680       1684       1688       1692       1696       1700       1704       1708       1712       1716       1720       1724       1728       1732       1736       1740       1744       1748       1752       1756       1760       1764       1768       1772       1776       1780       1784       1788       1792       1796       1800       1804       1808       1812       1816       1820       1824       1828       1832       1836       1840       1844       1848       1852       1856       1860       1864       1868       1872       1876       1880       1884       1888       1892       1896       1900       1904       1908       1912       1916       1920       1924       1928       1932       1936       1940       1944       1948       1952       1956       1960       1964       1968       1972       1976       1980       1984       1988       1992       1996       2000       2004       2008       2012       2016       2020       2024       2028       2032       2036       2040       2044       2048       2052       2056       2060       2064       2068       2072       2076       2080       2084       2088       2092       2096       2100       2104       2108       2112       2116       2120       2124       2128       2132       2136       2140       2144       2148       2152       2156       2160       2164       2168       2172       2176       2180       2184       2188       2192       2196       2200       2204       2208       2212       2216       2220       2224       2228       2232       2236       2240       2244       2248       2252       2256       2260       2264       2268       2272       2276       2280       2284       2288       2292       2296       2300       2304       2308       2312       2316       2320       2324       2328       2332       2336       2340       2344       2348       2352       2356       2360       2364       2368       2372       2376       2380       2384       2388       2392       2396       2400       2404       2408       2412       2416       2420       2424       2428       2432       2436       2440       2444       2448       2452       2456       2460       2464       2468       2472       2476       2480       2484       2488       2492       2496       2500       2504       2508       2512       2516       2520       2524       2528       2532       2536       2540       2544       2548       2552       2556       2560       2564       2568       2572       2576       2580       2584       2588       2592       2596       2600       2604       2608       2612       2616       2620       2624       2628       2632       2636       2640       2644       2648       2652       2656       2660       2664       2668       2672       2676       2680       2684       2688       2692       2696       2700       2704       2708       2712       2716       2720       2724       2728       2732       2736       2740       2744       2748       2752       2756       2760       2764       2768       2772       2776       2780       2784       2788       2792       2796       2800       2804       2808       2812       2816       2820       2824       2828       2832       2836       2840       2844       2848       2852       2856       2860       2864       2868       2872       2876       2880       2884       2888       2892       2896       2900       2904       2908       2912       2916       2920       2924       2928       2932       2936       2940       2944       2948       2952       2956       2960       2964       2968       2972       2976       2980       2984       2988       2992       2996       3000       3004       3008       3012       3016       3020       3024       3028       3032       3036       3040       3044       3048       3052       3056       3060       3064       3068       3072       3076       3080       3084       3088       3092       3096       3100       3104       3108       3112       3116       3120       3124       3128       3132       3136       3140       3144       3148       3152       3156       3160       3164       3168       3172       3176       3180       3184       3188       3192       3196       3200       3204       3208       3212       3216       3220       3224       3228       3232       3236       3240       3244       3248       3252       3256       3260       3264       3268       3272       3276       3280       3284       3288       3292       3296       3300       3304       3308       3312       3316       3320       3324       3328       3332       3336       3340       3344       3348       3352       3356       3360       3364       3368       3372       3376       3380       3384       3388       3392       3396       3400       3404       3408       3412       3416       3420       3424       3428       3432       3436       3440       3444       3448       3452       3456       3460       3464       3468       3472       3476       3480       3484       3488       3492       3496       3500       3504       3508       3512       3516       3520       3524       3528       3532       3536       3540       3544       3548       3552       3556       3560       3564       3568       3572       3576       3580       3584       3588       3592       3596       3600       3604       3608       3612       3616       3620       3624       3628       3632       3636       3640       3644       3648       3652       3656       3660       3664       3668       3672       3676       3680       3684       3688       3692       3696       3700       3704       3708       3712       3716       3720       3724       3728       3732       3736       3740       3744       3748       3752       3756       3760       3764       3768       3772       3776       3780       3784       3788       3792       3796       3800       3804       3808       3812       3816       3820       3824       3828       3832       3836       3840       3844       3848       3852       3856       3860       3864       3868       3872       3876       3880       3884       3888       3892       3896       3900       3904       3908       3912       3916       3920       3924       3928       3932       3936       3940       3944       3948       3952       3956       3960       3964       3968       3972       3976       3980       3984       3988       3992       3996       4000       4004       4008       4012       4016       4020       4024       4028       4032       4036       4040       4044       4048       4052       4056       4060       4064       4068       4072       4076       4080       4084       4088       4092       4096 </DataArray>
<DataArray type="UInt8"                                    Name="types"                                                      NumberOfComponents=" 1" format="ascii">
         9          9          9          9          9          9          9          9          9          9          9          9          9          9          9          9          9          9          9          9          9          9          9          9          9          9          9          9          9          9          9          9          9          9          9          9          9          9          9          9          9          9          9          9          9          9          9          9          9          9          9          9          9          9          9          9          9          9          9          9          9          9          9          9          9          9          9          9          9          9          9          9          9          9          9          9          9          9          9          9          9          9          9          9          9          9          9          9          9          9          9          9          9          9          9          9          9          9          9          9          9          9          9          9          9          9          9          9          9          9          9          9          9          9          9          9          9          9          9          9          9          9          9          9          9          9          9          9          9          9          9          9          9          9          9          9          9          9          9          9          9          9          9          9          9          9          9          9          9          9          9          9          9          9          9          9          9          9          9          9          9          9          9          9          9          9          9          9          9          9          9          9          9          9          9          9          9          9          9          9          9          9          9          9          9          9          9          9          9          9          9          9          9          9          9          9          9          9          9          9          9          9          9          9          9          9          9          9          9          9          9          9          9          9          9          9          9          9          9          9          9          9          9          9          9          9          9          9          9          9          9          9          9          9          9          9          9          9          9          9          9          9          9          9          9          9          9          9          9          9          9          9          9          9          9          9          9          9          9          9          9          9          9          9          9          9          9          9          9          9          9          9          9          9          9          9          9          9          9          9          9          9          9          9          9          9          9          9          9          9          9          9          9          9          9          9          9          9          9          9          9          9          9          9          9          9          9          9          9          9          9          9          9          9          9          9          9          9          9          9          9          9          9          9          9          9          9          9          9          9          9          9          9          9          9          9          9          9          9          9          9          9          9          9          9          9          9          9          9          9          9          9          9          9          9          9          9          9          9          9          9          9          9          9          9          9          9          9          9          9          9          9          9          9          9          9          9          9          9          9          9          9          9          9          9          9          9          9          9          9          9          9          9          9          9          9          9          9          9          9          9          9          9          9          9          9          9          9          9          9          9          9          9          9          9          9          9          9          9          9          9          9          9          9          9          9          9          9          9          9          9          9          9          9          9          9          9          9          9          9          9          9          9          9          9          9          9          9          9          9          9          9          9          9          9          9          9          9          9          9          9          9          9          9          9          9          9          9          9          9          9          9          9          9          9          9          9          9          9          9          9          9          9          9          9          9          9          9          9          9          9          9          9          9          9          9          9          9          9          9          9          9          9          9          9          9          9          9          9          9          9          9          9          9          9          9          9          9          9          9          9          9          9          9          9          9          9          9          9          9          9          9          9          9          9          9          9          9          9          9          9          9          9          9          9          9          9          9          9          9          9          9          9          9          9          9          9          9          9          9          9          9          9          9          9          9          9          9          9          9          9          9          9          9          9          9          9          9          9          9          9          9          9          9          9          9          9          9          9          9          9          9          9          9          9          9          9          9          9          9          9          9          9          9          9          9          9          9          9          9          9          9          9          9          9          9          9          9          9          9          9          9          9          9          9          9          9          9          9          9          9          9          9          9          9          9          9          9          9          9          9          9          9          9          9          9          9          9          9          9          9          9          9          9          9          9          9          9          9          9          9          9          9          9          9          9          9          9          9          9          9          9          9          9          9          9          9          9          9          9          9          9          9          9          9          9          9          9          9          9          9          9          9          9          9          9          9          9          9          9          9          9          9          9          9          9          9          9          9          9          9          9          9          9          9          9          9          9          9          9          9          9          9          9          9          9          9          9          9          9          9          9          9          9          9          9          9          9          9          9          9          9          9          9          9          9          9          9          9          9          9          9          9          9          9          9          9          9          9          9          9          9          9          9          9          9          9          9          9          9          9          9          9          9          9          9          9          9          9          9          9          9          9          9          9          9          9          9          9          9          9          9          9          9          9          9          9          9          9          9          9          9          9          9          9          9          9          9          9          9          9          9          9          9          9          9          9          9          9          9          9          9          9          9          9          9          9          9          9          9          9          9          9          9          9          9          9          9          9          9          9          9          9          9          9          9          9          9          9          9          9          9          9          9          9          9          9          9          9          9          9          9          9          9          9          9          9          9          9          9          9          9          9          9          9          9          9          9          9          9          9          9          9          9          9          9          9          9          9          9          9          9          9          9          9          9          9          9          9          9          9          9          9          9          9          9          9          9          9          9          9          9          9          9          9          9          9          9          9          9          9          9          9          9          9          9          9          9          9          9          9          9          9          9          9          9          9          9          9          9          9          9          9          9          9          9          9          9          9          9          9          9          9          9          9          9          9          9          9          9          9          9          9          9          9          9          9          9          9          9          9          9          9          9          9          9          9          9          9          9          9          9          9          9          9          9          9          9          9          9          9          9          9          9          9          9          9          9          9          9          9          9          9          9          9          9          9          9          9          9          9          9          9          9          9          9          9          9          9          9          9          9          9          9 </DataArray>
</Cells>
<CellData>
<DataArray type="Int32"                                    Name="material"                                                      NumberOfComponents=" 1" format="ascii">
         1          1          1          1          1          1          1          1          1          1          1          1          1          1          1          1          1          1          1          1          1          1          1          1          1          1          1          1          1          1          1          1          1          1          1          1          1          1          1          1          1          1          1          1          1          1          1          1          1          1          1          1          1          1          1          1          1          1          1          1          1          1          1          1          1          1          1          1          1          1          1          1          1          1          1          1          1          1          1          1          1          1          1          1          1          1          1          1          1          1          1          1          1          1          1          1          1          1          1          1          1          1          1          1          1          1          1          1          1          1          1          1          1          1          1          1          1          1          1          1          1          1          1          1          1          1          1          1          1          1          1          1          1          1          1          1          1          1          1          1          1          1          1          1          1          1          1          1          1          1          1          1          1          1          1          1          1          1          1          1          1          1          1          1          1          1          1          1          1          1          1          1          1          1          1          1          1          1          1          1          1          1          1          1          1          1          1          1          1          1          1          1          1          1          1          1          1          1          1          1          1          1          1          1          1          1          1          1          1          1          1          1          1          1          1          1          1          1          1          1          1          1          1          1          1          1          1          1          1          1          1          1          1          1          1          1          1          1          1          1          1          1          1          1          1          1          1          1          1          1          1          1          1          1          1          1          1          1          1          1          1          1          1          1          1          1          1          1          1          1          1          1          1          1          1          1          1          1          1          1          1          1          1          1          1          1          1          1          1          1          1          1          1          1          1          1          1          1          1          1          1          1          1          1          1          1          1          1          1          1          1          1          1          1          1          1          1          1          1          1          1          1          1          1          1          1          1          1          1          1          1          1          1          1          1          1          1          1          1          1          1          1          1          1          1          1          1          1          1          1          1          1          1          1          1          1          1          1          1          1          1          1          1          1          1          1          1          1          1          1          1          1          1          1          1          1          1          1          1          1          1          1          1          1          1          1          1          1          1          1          1          1          1          1          1          1          1          1          1          1          1          1          1          1          1          1          1          1          1          1          1          1          1          1          1          1          1          1          1          1          1          1          1          1          1          1          1          1          1          1          1          1          1          1          1          1          1          1          1          1          1          1          1          1          1          1          1          1          1          1          1          1          1          1          1          1          1          1          1          1          1          1          1          1          1          1          1          1          1          1          1          1          1          1          1          1          1          1          1          1          1          1          1          1          1          1          1          1          1          1          1          1          1          1          1          1          1          1          1          1          1          1          1          1          1          1          1          1          1          1          1          1          1          1          1          1          1          1          1          1          1          1          1          1          1          1          1          1          1          1          1          1          1          1          1          1          1          1          1          1          1          1          1          1          1          1          1          1          1          1          1          1          1          1          1          1          1          1          1          1          1          1          1          1          1          1          1          1          1          1          1          1          1          1          1          1          1          1          1          1          1          1          1          1          1          1          1          1          1          1          1          1          1          1          1          1          1          1          1          1          1          1          1          1          1          1          1          1          1          1          1          1          1          1          1          1          1          1          1          1          1          1          1          1          1          1          1          1          1          1          1          1          1          1          1          1          1          1          1          1          1          1          1          1          1          1          1          1          1          1          1          1          1          1          1          1          1          1          1          1          1          1          1          1          1          1          1          1          1          1          1          1          1          1          1          1          1          1          1          1          1          1          1          1          1          1          1          1          1          1          1          1          1          1          1          1          1          1          1          1          1          1          1          1          1          1          1          1          1          1          1          1          1          1          1          1          1          1          1          1          1          1          1          1          1          1          1          1          1          1          1          1          1          1          1          1          1          1          1          1          1          1          1          1          1          1          1          1          1          1          1          1          1          1          1          1          1          1          1          1          1          1          1          1          1          1          1          1          1          1          1          1          1          1          1          1          1          1          1          1          1          1          1          1          1          1          1          1          1          1          1          1          1          1          1          1          1          1          1          1          1          1          1          1          1          1          1          1          1          1          1          1          1          1          1          1          1          1          1          1          1          1          1          1          1          1          1          1          1          1          1          1          1          1          1          1          1          1          1          1          1          1          1          1          1          1          1          1          1          1          1          1          1          1          1          1          1          1          1          1          1          1          1          1          1          1          1          1          1          1          1          1          1          1          1          1          1          1          1          1          1          1          1          1          1          1          1          1          1          1          1          1          1          1          1          1          1          1          1          1          1          1          1          1          1          1          1          1          1          1          1          1          1          1          1          1          1          1          1          1          1          1          1          1          1          1          1          1          1          1          1          1          1          1          1          1          1          1          1          1          1          1          1          1          1          1          1          1          1          1          1          1          1          1          1          1          1          1          1          1          1          1          1          1          1          1          1          1          1          1          1          1          1          1          1          1          1          1          1          1          1          1          1          1          1          1          1          1          1          1          1          1          1          1          1          1          1          1          1          1          1          1          1          1          1          1          1          1          1          1          1          1          1          1          1          1          1          1          1          1          1          1          1          1 </DataArray>
</CellData>
<PointData>
<DataArray type="Float64"                                    Name="u"                                                      NumberOfComponents=" 3" format="ascii">
              0.000009045              -0.000000000               0.999999999               0.000002708               0.000000000               0.999999999              -0.000000184              -0.000000000               0.999999999              -0.000001561               0.000000000               0.999999999              -0.000002304              -0.000000000               0.999999999              -0.000002872              -0.000000000               0.999999999              -0.000003536               0.000000000               0.999999999              -0.000004432               0.000000000               0.999999999              -0.000005637               0.000000000               0.999999999              -0.000007265              -0.000000000               0.999999999              -0.000009334              -0.000000000               0.999999999              -0.000011884              -0.000000000               0.999999999              -0.000014959              -0.000000000               0.999999999              -0.000018452              -0.000000000               0.999999999              -0.000022366              -0.000000000               0.999999999              -0.000026837              -0.000000000               0.999999999              -0.000031832               0.000000000               0.999999999               0.000008969               0.000015815               0.999999999               0.000002842               0.000014295               0.999999999               0.000000060               0.000013863               0.999999999              -0.000001308               0.000014137               0.999999999              -0.000002107               0.000014861               0.999999999              -0.000002794               0.000015936               0.999999999              -0.000003600               0.000017285               0.999999999              -0.000004647               0.000018907               0.999999999              -0.000006050               0.000020734               0.999999999              -0.000007845               0.000022855               0.999999999              -0.000010110               0.000025235               0.999999999              -0.000012891               0.000027814               0.999999999              -0.000016164               0.000030531               0.999999999              -0.000019892               0.000033237               0.999999999              -0.000024048               0.000036111               0.999999999              -0.000028642               0.000039253               0.999999999              -0.000033720               0.000042603               0.999999999               0.000008769               0.000031507               0.999999999               0.000003222               0.000028410               0.999999999               0.000000732               0.000027669               0.999999999              -0.000000610               0.000028284               0.999999999              -0.000001588               0.000029817               0.999999999              -0.000002598               0.000031984               0.999999999              -0.000003814               0.000034757               0.999999999              -0.000005329               0.000037929               0.999999999              -0.000007223               0.000041672               0.999999999              -0.000009596               0.000045831               0.999999999              -0.000012434               0.000050621               0.999999999              -0.000015768               0.000055747               0.999999999              -0.000019589               0.000061029               0.999999999              -0.000023776               0.000066321               0.999999999              -0.000028410               0.000071929               0.999999999              -0.000033514               0.000077985               0.999999999              -0.000039025               0.000084325               0.999999999               0.000008436               0.000046899               0.999999999               0.000003865               0.000042227               0.999999999               0.000001781               0.000041300               0.999999999               0.000000394               0.000042424               0.999999999              -0.000000912               0.000044870               0.999999999              -0.000002416               0.000048292               0.999999999              -0.000004266               0.000052444               0.999999999              -0.000006478               0.000057337               0.999999999              -0.000009186               0.000062861               0.999999999              -0.000012389               0.000069204               0.999999999              -0.000016106               0.000076244               0.999999999              -0.000020280               0.000083720               0.999999999              -0.000024808               0.000091331               0.999999999              -0.000029709               0.000099072               0.999999999              -0.000035035               0.000107324               0.999999999              -0.000040750               0.000115961               0.999999999              -0.000046813               0.000124872               0.999999999               0.000007980               0.000061803               0.999999999               0.000004743               0.000055657               0.999999999               0.000003045               0.000054706               0.999999999               0.000001542               0.000056544               0.999999999              -0.000000213               0.000060043               0.999999999              -0.000002412               0.000064778               0.999999999              -0.000005036               0.000070465               0.999999999              -0.000008151               0.000077020               0.999999999              -0.000011777               0.000084501               0.999999999              -0.000015992               0.000092968               0.999999999              -0.000020674               0.000102237               0.999999999              -0.000025693               0.000111875               0.999999999              -0.000031018               0.000121680               0.999999999              -0.000036640               0.000131762               0.999999999              -0.000042682               0.000142448               0.999999999              -0.000049076               0.000153442               0.999999999              -0.000055754               0.000164702               0.999999999               0.000007459               0.000076100               0.999999999               0.000005756               0.000068599               0.999999999               0.000004394               0.000067843               0.999999999               0.000002624               0.000070525               0.999999999               0.000000273               0.000075212               0.999999999              -0.000002655               0.000081410               0.999999999              -0.000006158               0.000088689               0.999999999              -0.000010204               0.000097110               0.999999999              -0.000014840               0.000106612               0.999999999              -0.000020063               0.000117260               0.999999999              -0.000025667               0.000128562               0.999999999              -0.000031502               0.000140290               0.999999999              -0.000037606               0.000152163               0.999999999              -0.000044028               0.000164561               0.999999999              -0.000050784               0.000177680               0.999999999              -0.000057906               0.000191179               0.999999999              -0.000065485               0.000205084               0.999999999               0.000006865               0.000089635               0.999999999               0.000006817               0.000080965               0.999999999               0.000005648               0.000080587               0.999999999               0.000003451               0.000084220               0.999999999               0.000000453               0.000090261               0.999999999              -0.000003272               0.000097987               0.999999999              -0.000007616               0.000107059               0.999999999              -0.000012555               0.000117444               0.999999999              -0.000018121               0.000129121               0.999999999              -0.000024252               0.000141936               0.999999999              -0.000030706               0.000155359               0.999999999              -0.000037373               0.000169164               0.999999999              -0.000044343               0.000183326               0.999999999              -0.000051636               0.000198235               0.999999999              -0.000059312               0.000214052               0.999999999              -0.000067479               0.000230442               0.999999999              -0.000076133               0.000247425               0.999999999               0.000006176               0.000102194               0.999999999               0.000007821               0.000092699               0.999999999               0.000006639               0.000092841               0.999999999               0.000003900               0.000097509               0.999999999               0.000000180               0.000104965               0.999999999              -0.000004272               0.000114321               0.999999999              -0.000009362               0.000125314               0.999999999              -0.000015145               0.000137858               0.999999999              -0.000021606               0.000151922               0.999999999              -0.000028527               0.000166994               0.999999999              -0.000035695               0.000182602               0.999999999              -0.000043123               0.000198793               0.999999999              -0.000050808               0.000215801               0.999999999              -0.000058884               0.000233881               0.999999999              -0.000067485               0.000253112               0.999999999              -0.000076648               0.000273057               0.999999999              -0.000086274               0.000293592               0.999999999               0.000005393               0.000113586               0.999999999               0.000008691               0.000103793               0.999999999               0.000007236               0.000104485               0.999999999               0.000003905               0.000110240               0.999999999              -0.000000497               0.000119109               0.999999999              -0.000005596               0.000130209               0.999999999              -0.000011404               0.000143356               0.999999999              -0.000018010               0.000158270               0.999999999              -0.000025264               0.000174688               0.999999999              -0.000032776               0.000192109               0.999999999              -0.000040480               0.000210422               0.999999999              -0.000048370               0.000229771               0.999999999              -0.000056606               0.000250490               0.999999999              -0.000065468               0.000272634               0.999999999              -0.000074932               0.000295832               0.999999999              -0.000084901               0.000319877               0.999999999              -0.000095202               0.000344590               0.999999999               0.000004392               0.000124191               0.999999999               0.000009051               0.000115144               0.999999999               0.000008245               0.000114839               0.999999999               0.000005340               0.000119369               0.999999999               0.000001476               0.000126982               0.999999999              -0.000003010               0.000136832               0.999999999              -0.000007982               0.000148598               0.999999999              -0.000013622               0.000161990               0.999999999              -0.000019917               0.000176876               0.999999999              -0.000026573               0.000192949               0.999999999              -0.000033296               0.000210029               0.999999999              -0.000039906               0.000228130               0.999999999              -0.000046562               0.000247445               0.999999999              -0.000053776               0.000268043               0.999999999              -0.000061578               0.000289890               0.999999999              -0.000069728               0.000312770               0.999999999              -0.000078262               0.000336711               0.999999999               0.000003451               0.000133729               0.999999999               0.000008913               0.000125900               0.999999999               0.000008784               0.000125159               0.999999999               0.000006434               0.000128732               0.999999999               0.000003107               0.000135222               0.999999999              -0.000000676               0.000143971               0.999999999              -0.000004900               0.000154447               0.999999999              -0.000009578               0.000166493               0.999999999              -0.000014890               0.000179998               0.999999999              -0.000020495               0.000194734               0.999999999              -0.000026233               0.000210593               0.999999999              -0.000031917               0.000227497               0.999999999              -0.000037514               0.000245418               0.999999999              -0.000043228               0.000264565               0.999999999              -0.000049352               0.000284926               0.999999999              -0.000055875               0.000306369               0.999999999              -0.000062853               0.000328833               0.999999999               0.000002618               0.000142053               0.999999999               0.000008321               0.000135859               0.999999999               0.000008742               0.000135066               0.999999999               0.000006982               0.000138001               0.999999999               0.000004298               0.000143673               0.999999999               0.000001175               0.000151414               0.999999999              -0.000002208               0.000160854               0.999999999              -0.000006012               0.000171767               0.999999999              -0.000010273               0.000184040               0.999999999              -0.000014802               0.000197614               0.999999999              -0.000019528               0.000212255               0.999999999              -0.000024474               0.000227907               0.999999999              -0.000029131               0.000244646               0.999999999              -0.000033582               0.000262534               0.999999999              -0.000038347               0.000281553               0.999999999              -0.000043430               0.000301627               0.999999999              -0.000048683               0.000322716               0.999999999               0.000001903               0.000149023               0.999999999               0.000007251               0.000144628               0.999999999               0.000008076               0.000144148               0.999999999               0.000006888               0.000146794               0.999999999               0.000004815               0.000151877               0.999999999               0.000002441               0.000158864               0.999999999              -0.000000192               0.000167440               0.999999999              -0.000003105               0.000177453               0.999999999              -0.000006386               0.000188720               0.999999999              -0.000009929               0.000201200               0.999999999              -0.000013780               0.000214772               0.999999999              -0.000017695               0.000229376               0.999999999              -0.000021453               0.000245090               0.999999999              -0.000024960               0.000261882               0.999999999              -0.000028516               0.000279838               0.999999999              -0.000032269               0.000298812               0.999999999              -0.000035885               0.000318771               0.999999999               0.000001313               0.000154602               0.999999999               0.000005805               0.000151911               0.999999999               0.000006766               0.000151920               0.999999999               0.000006065               0.000154541               0.999999999               0.000004601               0.000159274               0.999999999               0.000002902               0.000165718               0.999999999               0.000001001               0.000173678               0.999999999              -0.000001113               0.000182973               0.999999999              -0.000003531               0.000193469               0.999999999              -0.000006154               0.000205104               0.999999999              -0.000008954               0.000217812               0.999999999              -0.000011808               0.000231695               0.999999999              -0.000014632               0.000246690               0.999999999              -0.000017363               0.000262694               0.999999999              -0.000019922               0.000279749               0.999999999              -0.000022352               0.000297818               0.999999999              -0.000024528               0.000316896               0.999999999               0.000000805               0.000158656               0.999999999               0.000004039               0.000157352               0.999999999               0.000004886               0.000157908               0.999999999               0.000004528               0.000160649               0.999999999               0.000003629               0.000165200               0.999999999               0.000002514               0.000171362               0.999999999               0.000001321               0.000178886               0.999999999              -0.000000093               0.000187675               0.999999999              -0.000001649               0.000197699               0.999999999              -0.000003358               0.000208861               0.999999999              -0.000005116               0.000221072               0.999999999              -0.000007009               0.000234379               0.999999999              -0.000008911               0.000248824               0.999999999              -0.000010809               0.000264415               0.999999999              -0.000012523               0.000280943               0.999999999              -0.000013789               0.000298337               0.999999999              -0.000014623               0.000316754               0.999999999               0.000000367               0.000161085               0.999999999               0.000002062               0.000160738               0.999999999               0.000002582               0.000161711               0.999999999               0.000002423               0.000164565               0.999999999               0.000001999               0.000169084               0.999999999               0.000001456               0.000175101               0.999999999               0.000000871               0.000182388               0.999999999               0.000000157               0.000190911               0.999999999              -0.000000595               0.000200664               0.999999999              -0.000001323               0.000211561               0.999999999              -0.000002298               0.000223571               0.999999999              -0.000003253               0.000236659               0.999999999              -0.000004219               0.000250801               0.999999999              -0.000005132               0.000266036               0.999999999              -0.000005899               0.000282306               0.999999999              -0.000006462               0.000299545               0.999999999              -0.000006641               0.000317712               0.999999999               0.000000000               0.000161886               0.999999999              -0.000000000               0.000161911               0.999999999               0.000000000               0.000163037               0.999999999              -0.000000000               0.000165897               0.999999999               0.000000000               0.000170436               0.999999999              -0.000000000               0.000176395               0.999999999              -0.000000000               0.000183620               0.999999999               0.000000000               0.000192102               0.999999999               0.000000000               0.000201727               0.999999999               0.000000000               0.000212496               0.999999999               0.000000000               0.000224460               0.999999999               0.000000000               0.000237534               0.999999999               0.000000000               0.000251672               0.999999999               0.000000000               0.000266745               0.999999999              -0.000000000               0.000282835               0.999999999               0.000000000               0.000300172               0.999999999               0.000000000               0.000318430               0.999999999               0.000009045              -0.000000000               0.999999999               0.000002708               0.000000000               0.999999999              -0.000000184              -0.000000000               0.999999999              -0.000001561               0.000000000               0.999999999              -0.000002304              -0.000000000               0.999999999              -0.000002872              -0.000000000               0.999999999              -0.000003536               0.000000000               0.999999999              -0.000004432               0.000000000               0.999999999              -0.000005637               0.000000000               0.999999999              -0.000007265              -0.000000000               0.999999999              -0.000009334              -0.000000000               0.999999999              -0.000011884              -0.000000000               0.999999999              -0.000014959              -0.000000000               0.999999999              -0.000018452              -0.000000000               0.999999999              -0.000022366              -0.000000000               0.999999999              -0.000026837              -0.000000000               0.999999999              -0.000031832               0.000000000               0.999999999               0.000008969              -0.000015815               0.999999999               0.000002842              -0.000014295               0.999999999               0.000000060              -0.000013863               0.999999999              -0.000001308              -0.000014137               0.999999999              -0.000002107              -0.000014861               0.999999999              -0.000002794              -0.000015936               0.999999999              -0.000003600              -0.000017285               0.999999999              -0.000004647              -0.000018907               0.999999999              -0.000006050              -0.000020734               0.999999999              -0.000007845              -0.000022855               0.999999999              -0.000010110              -0.000025235               0.999999999              -0.000012891              -0.000027814               0.999999999              -0.000016164              -0.000030531               0.999999999              -0.000019892              -0.000033237               0.999999999              -0.000024048              -0.000036111               0.999999999              -0.000028642              -0.000039253               0.999999999              -0.000033720              -0.000042603               0.999999999               0.000008769              -0.000031507               0.999999999               0.000003222              -0.000028410               0.999999999               0.000000732              -0.000027669               0.999999999              -0.000000610              -0.000028284               0.999999999              -0.000001588              -0.000029817               0.999999999              -0.000002598              -0.000031984               0.999999999              -0.000003814              -0.000034757               0.999999999              -0.000005329              -0.000037929               0.999999999              -0.000007223              -0.000041672               0.999999999              -0.000009596              -0.000045831               0.999999999              -0.000012434              -0.000050621               0.999999999              -0.000015768              -0.000055747               0.999999999              -0.000019589              -0.000061029               0.999999999              -0.000023776              -0.000066321               0.999999999              -0.000028410              -0.000071929               0.999999999              -0.000033514              -0.000077985               0.999999999              -0.000039025              -0.000084325               0.999999999               0.000008436              -0.000046899               0.999999999               0.000003865              -0.000042227               0.999999999               0.000001781              -0.000041300               0.999999999               0.000000394              -0.000042424               0.999999999              -0.000000912              -0.000044870               0.999999999              -0.000002416              -0.000048292               0.999999999              -0.000004266              -0.000052444               0.999999999              -0.000006478              -0.000057337               0.999999999              -0.000009186              -0.000062861               0.999999999              -0.000012389              -0.000069204               0.999999999              -0.000016106              -0.000076244               0.999999999              -0.000020280              -0.000083720               0.999999999              -0.000024808              -0.000091331               0.999999999              -0.000029709              -0.000099072               0.999999999              -0.000035035              -0.000107324               0.999999999              -0.000040750              -0.000115961               0.999999999              -0.000046813              -0.000124872               0.999999999               0.000007980              -0.000061803               0.999999999               0.000004743              -0.000055657               0.999999999               0.000003045              -0.000054706               0.999999999               0.000001542              -0.000056544               0.999999999              -0.000000213              -0.000060043               0.999999999              -0.000002412              -0.000064778               0.999999999              -0.000005036              -0.000070465               0.999999999              -0.000008151              -0.000077020               0.999999999              -0.000011777              -0.000084501               0.999999999              -0.000015992              -0.000092968               0.999999999              -0.000020674              -0.000102237               0.999999999              -0.000025693              -0.000111875               0.999999999              -0.000031018              -0.000121680               0.999999999              -0.000036640              -0.000131762               0.999999999              -0.000042682              -0.000142448               0.999999999              -0.000049076              -0.000153442               0.999999999              -0.000055754              -0.000164702               0.999999999               0.000007459              -0.000076100               0.999999999               0.000005756              -0.000068599               0.999999999               0.000004394              -0.000067843               0.999999999               0.000002624              -0.000070525               0.999999999               0.000000273              -0.000075212               0.999999999              -0.000002655              -0.000081410               0.999999999              -0.000006158              -0.000088689               0.999999999              -0.000010204              -0.000097110               0.999999999              -0.000014840              -0.000106612               0.999999999              -0.000020063              -0.000117260               0.999999999              -0.000025667              -0.000128562               0.999999999              -0.000031502              -0.000140290               0.999999999              -0.000037606              -0.000152163               0.999999999              -0.000044028              -0.000164561               0.999999999              -0.000050784              -0.000177680               0.999999999              -0.000057906              -0.000191179               0.999999999              -0.000065485              -0.000205084               0.999999999               0.000006865              -0.000089635               0.999999999               0.000006817              -0.000080965               0.999999999               0.000005648              -0.000080587               0.999999999               0.000003451              -0.000084220               0.999999999               0.000000453              -0.000090261               0.999999999              -0.000003272              -0.000097987               0.999999999              -0.000007616              -0.000107059               0.999999999              -0.000012555              -0.000117444               0.999999999              -0.000018121              -0.000129121               0.999999999              -0.000024252              -0.000141936               0.999999999              -0.000030706              -0.000155359               0.999999999              -0.000037373              -0.000169164               0.999999999              -0.000044343              -0.000183326               0.999999999              -0.000051636              -0.000198235               0.999999999              -0.000059312              -0.000214052               0.999999999              -0.000067479              -0.000230442               0.999999999              -0.000076133              -0.000247425               0.999999999               0.000006176              -0.000102194               0.999999999               0.000007821              -0.000092699               0.999999999               0.000006639              -0.000092841               0.999999999               0.000003900              -0.000097509               0.999999999               0.000000180              -0.000104965               0.999999999              -0.000004272              -0.000114321               0.999999999              -0.000009362              -0.000125314               0.999999999              -0.000015145              -0.000137858               0.999999999              -0.000021606              -0.000151922               0.999999999              -0.000028527              -0.000166994               0.999999999              -0.000035695              -0.000182602               0.999999999              -0.000043123              -0.000198793               0.999999999              -0.000050808              -0.000215801               0.999999999              -0.000058884              -0.000233881               0.999999999              -0.000067485              -0.000253112               0.999999999              -0.000076648              -0.000273057               0.999999999              -0.000086274              -0.000293592               0.999999999               0.000005393              -0.000113586               0.999999999               0.000008691              -0.000103793               0.999999999               0.000007236              -0.000104485               0.999999999               0.000003905              -0.000110240               0.999999999              -0.000000497              -0.000119109               0.999999999              -0.000005596              -0.000130209               0.999999999              -0.000011404              -0.000143356               0.999999999              -0.000018010              -0.000158270               0.999999999              -0.000025264              -0.000174688               0.999999999              -0.000032776              -0.000192109               0.999999999              -0.000040480              -0.000210422               0.999999999              -0.000048370              -0.000229771               0.999999999              -0.000056606              -0.000250490               0.999999999              -0.000065468              -0.000272634               0.999999999              -0.000074932              -0.000295832               0.999999999              -0.000084901              -0.000319877               0.999999999              -0.000095202              -0.000344590               0.999999999               0.000004392              -0.000124191               0.999999999               0.000009051              -0.000115144               0.999999999               0.000008245              -0.000114839               0.999999999               0.000005340              -0.000119369               0.999999999               0.000001476              -0.000126982               0.999999999              -0.000003010              -0.000136832               0.999999999              -0.000007982              -0.000148598               0.999999999              -0.000013622              -0.000161990               0.999999999              -0.000019917              -0.000176876               0.999999999              -0.000026573              -0.000192949               0.999999999              -0.000033296              -0.000210029               0.999999999              -0.000039906              -0.000228130               0.999999999              -0.000046562              -0.000247445               0.999999999              -0.000053776              -0.000268043               0.999999999              -0.000061578              -0.000289890               0.999999999              -0.000069728              -0.000312770               0.999999999              -0.000078262              -0.000336711               0.999999999               0.000003451              -0.000133729               0.999999999               0.000008913              -0.000125900               0.999999999               0.000008784              -0.000125159               0.999999999               0.000006434              -0.000128732               0.999999999               0.000003107              -0.000135222               0.999999999              -0.000000676              -0.000143971               0.999999999              -0.000004900              -0.000154447               0.999999999              -0.000009578              -0.000166493               0.999999999              -0.000014890              -0.000179998               0.999999999              -0.000020495              -0.000194734               0.999999999              -0.000026233              -0.000210593               0.999999999              -0.000031917              -0.000227497               0.999999999              -0.000037514              -0.000245418               0.999999999              -0.000043228              -0.000264565               0.999999999              -0.000049352              -0.000284926               0.999999999              -0.000055875              -0.000306369               0.999999999              -0.000062853              -0.000328833               0.999999999               0.000002618              -0.000142053               0.999999999               0.000008321              -0.000135859               0.999999999               0.000008742              -0.000135066               0.999999999               0.000006982              -0.000138001               0.999999999               0.000004298              -0.000143673               0.999999999               0.000001175              -0.000151414               0.999999999              -0.000002208              -0.000160854               0.999999999              -0.000006012              -0.000171767               0.999999999              -0.000010273              -0.000184040               0.999999999              -0.000014802              -0.000197614               0.999999999              -0.000019528              -0.000212255               0.999999999              -0.000024474              -0.000227907               0.999999999              -0.000029131              -0.000244646               0.999999999              -0.000033582              -0.000262534               0.999999999              -0.000038347              -0.000281553               0.999999999              -0.000043430              -0.000301627               0.999999999              -0.000048683              -0.000322716               0.999999999               0.000001903              -0.000149023               0.999999999               0.000007251              -0.000144628               0.999999999               0.000008076              -0.000144148               0.999999999               0.000006888              -0.000146794               0.999999999               0.000004815              -0.000151877               0.999999999               0.000002441              -0.000158864               0.999999999              -0.000000192              -0.000167440               0.999999999              -0.000003105              -0.000177453               0.999999999              -0.000006386              -0.000188720               0.999999999              -0.000009929              -0.000201200               0.999999999              -0.000013780              -0.000214772               0.999999999              -0.000017695              -0.000229376               0.999999999              -0.000021453              -0.000245090               0.999999999              -0.000024960              -0.000261882               0.999999999              -0.000028516              -0.000279838               0.999999999              -0.000032269              -0.000298812               0.999999999              -0.000035885              -0.000318771               0.999999999               0.000001313              -0.000154602               0.999999999               0.000005805              -0.000151911               0.999999999               0.000006766              -0.000151920               0.999999999               0.000006065              -0.000154541               0.999999999               0.000004601              -0.000159274               0.999999999               0.000002902              -0.000165718               0.999999999               0.000001001              -0.000173678               0.999999999              -0.000001113              -0.000182973               0.999999999              -0.000003531              -0.000193469               0.999999999              -0.000006154              -0.000205104               0.999999999              -0.000008954              -0.000217812               0.999999999              -0.000011808              -0.000231695               0.999999999              -0.000014632              -0.000246690               0.999999999              -0.000017363              -0.000262694               0.999999999              -0.000019922              -0.000279749               0.999999999              -0.000022352              -0.000297818               0.999999999              -0.000024528              -0.000316896               0.999999999               0.000000805              -0.000158656               0.999999999               0.000004039              -0.000157352               0.999999999               0.000004886              -0.000157908               0.999999999               0.000004528              -0.000160649               0.999999999               0.000003629              -0.000165200               0.999999999               0.000002514              -0.000171362               0.999999999               0.000001321              -0.000178886               0.999999999              -0.000000093              -0.000187675               0.999999999              -0.000001649              -0.000197699               0.999999999              -0.000003358              -0.000208861               0.999999999              -0.000005116              -0.000221072               0.999999999              -0.000007009              -0.000234379               0.999999999              -0.000008911              -0.000248824               0.999999999              -0.000010809              -0.000264415               0.999999999              -0.000012523              -0.000280943               0.999999999              -0.000013789              -0.000298337               0.999999999              -0.000014623              -0.000316754               0.999999999               0.000000367              -0.000161085               0.999999999               0.000002062              -0.000160738               0.999999999               0.000002582              -0.000161711               0.999999999               0.000002423              -0.000164565               0.999999999               0.000001999              -0.000169084               0.999999999               0.000001456              -0.000175101               0.999999999               0.000000871              -0.000182388               0.999999999               0.000000157              -0.000190911               0.999999999              -0.000000595              -0.000200664               0.999999999              -0.000001323              -0.000211561               0.999999999              -0.000002298              -0.000223571               0.999999999              -0.000003253              -0.000236659               0.999999999              -0.000004219              -0.000250801               0.999999999              -0.000005132              -0.000266036               0.999999999              -0.000005899              -0.000282306               0.999999999              -0.000006462              -0.000299545               0.999999999              -0.000006641              -0.000317712               0.999999999               0.000000000              -0.000161886               0.999999999              -0.000000000              -0.000161911               0.999999999               0.000000000              -0.000163037               0.999999999               0.000000000              -0.000165897               0.999999999              -0.000000000              -0.000170436               0.999999999               0.000000000              -0.000176395               0.999999999               0.000000000              -0.000183620               0.999999999              -0.000000000              -0.000192102               0.999999999              -0.000000000              -0.000201727               0.999999999               0.000000000              -0.000212496               0.999999999               0.000000000              -0.000224460               0.999999999              -0.000000000              -0.000237534               0.999999999              -0.000000000              -0.000251672               0.999999999               0.000000000              -0.000266745               0.999999999               0.000000000              -0.000282835               0.999999999              -0.000000000              -0.000300172               0.999999999              -0.000000000              -0.000318430               0.999999999              -0.000009045               0.000000000               0.999999999              -0.000002708               0.000000000               0.999999999               0.000000184               0.000000000               0.999999999               0.000001561              -0.000000000               0.999999999               0.000002304              -0.000000000               0.999999999               0.000002872              -0.000000000               0.999999999               0.000003536               0.000000000               0.999999999               0.000004432               0.000000000               0.999999999               0.000005637               0.000000000               0.999999999               0.000007265               0.000000000               0.999999999               0.000009334               0.000000000               0.999999999               0.000011884               0.000000000               0.999999999               0.000014959               0.000000000               0.999999999               0.000018452               0.000000000               0.999999999               0.000022366               0.000000000               0.999999999               0.000026837              -0.000000000               0.999999999               0.000031832              -0.000000000               0.999999999              -0.000008969              -0.000015815               0.999999999              -0.000002842              -0.000014295               0.999999999              -0.000000060              -0.000013863               0.999999999               0.000001308              -0.000014137               0.999999999               0.000002107              -0.000014861               0.999999999               0.000002794              -0.000015936               0.999999999               0.000003600              -0.000017285               0.999999999               0.000004647              -0.000018907               0.999999999               0.000006050              -0.000020734               0.999999999               0.000007845              -0.000022855               0.999999999               0.000010110              -0.000025235               0.999999999               0.000012891              -0.000027814               0.999999999               0.000016164              -0.000030531               0.999999999               0.000019892              -0.000033237               0.999999999               0.000024048              -0.000036111               0.999999999               0.000028642              -0.000039253               0.999999999               0.000033720              -0.000042603               0.999999999              -0.000008769              -0.000031507               0.999999999              -0.000003222              -0.000028410               0.999999999              -0.000000732              -0.000027669               0.999999999               0.000000610              -0.000028284               0.999999999               0.000001588              -0.000029817               0.999999999               0.000002598              -0.000031984               0.999999999               0.000003814              -0.000034757               0.999999999               0.000005329              -0.000037929               0.999999999               0.000007223              -0.000041672               0.999999999               0.000009596              -0.000045831               0.999999999               0.000012434              -0.000050621               0.999999999               0.000015768              -0.000055747               0.999999999               0.000019589              -0.000061029               0.999999999               0.000023776              -0.000066321               0.999999999               0.000028410              -0.000071929               0.999999999               0.000033514              -0.000077985               0.999999999               0.000039025              -0.000084325               0.999999999              -0.000008436              -0.000046899               0.999999999              -0.000003865              -0.000042227               0.999999999              -0.000001781              -0.000041300               0.999999999              -0.000000394              -0.000042424               0.999999999               0.000000912              -0.000044870               0.999999999               0.000002416              -0.000048292               0.999999999               0.000004266              -0.000052444               0.999999999               0.000006478              -0.000057337               0.999999999               0.000009186              -0.000062861               0.999999999               0.000012389              -0.000069204               0.999999999               0.000016106              -0.000076244               0.999999999               0.000020280              -0.000083720               0.999999999               0.000024808              -0.000091331               0.999999999               0.000029709              -0.000099072               0.999999999               0.000035035              -0.000107324               0.999999999               0.000040750              -0.000115961               0.999999999               0.000046813              -0.000124872               0.999999999              -0.000007980              -0.000061803               0.999999999              -0.000004743              -0.000055657               0.999999999              -0.000003045              -0.000054706               0.999999999              -0.000001542              -0.000056544               0.999999999               0.000000213              -0.000060043               0.999999999               0.000002412              -0.000064778               0.999999999               0.000005036              -0.000070465               0.999999999               0.000008151              -0.000077020               0.999999999               0.000011777              -0.000084501               0.999999999               0.000015992              -0.000092968               0.999999999               0.000020674              -0.000102237               0.999999999               0.000025693              -0.000111875               0.999999999               0.000031018              -0.000121680               0.999999999               0.000036640              -0.000131762               0.999999999               0.000042682              -0.000142448               0.999999999               0.000049076              -0.000153442               0.999999999               0.000055754              -0.000164702               0.999999999              -0.000007459              -0.000076100               0.999999999              -0.000005756              -0.000068599               0.999999999              -0.000004394              -0.000067843               0.999999999              -0.000002624              -0.000070525               0.999999999              -0.000000273              -0.000075212               0.999999999               0.000002655              -0.000081410               0.999999999               0.000006158              -0.000088689               0.999999999               0.000010204              -0.000097110               0.999999999               0.000014840              -0.000106612               0.999999999               0.000020063              -0.000117260               0.999999999               0.000025667              -0.000128562               0.999999999               0.000031502              -0.000140290               0.999999999               0.000037606              -0.000152163               0.999999999               0.000044028              -0.000164561               0.999999999               0.000050784              -0.000177680               0.999999999               0.000057906              -0.000191179               0.999999999               0.000065485              -0.000205084               0.999999999              -0.000006865              -0.000089635               0.999999999              -0.000006817              -0.000080965               0.999999999              -0.000005648              -0.000080587               0.999999999              -0.000003451              -0.000084220               0.999999999              -0.000000453              -0.000090261               0.999999999               0.000003272              -0.000097987               0.999999999               0.000007616              -0.000107059               0.999999999               0.000012555              -0.000117444               0.999999999               0.000018121              -0.000129121               0.999999999               0.000024252              -0.000141936               0.999999999               0.000030706              -0.000155359               0.999999999               0.000037373              -0.000169164               0.999999999               0.000044343              -0.000183326               0.999999999               0.000051636              -0.000198235               0.999999999               0.000059312              -0.000214052               0.999999999               0.000067479              -0.000230442               0.999999999               0.000076133              -0.000247425               0.999999999              -0.000006176              -0.000102194               0.999999999              -0.000007821              -0.000092699               0.999999999              -0.000006639              -0.000092841               0.999999999              -0.000003900              -0.000097509               0.999999999              -0.000000180              -0.000104965               0.999999999               0.000004272              -0.000114321               0.999999999               0.000009362              -0.000125314               0.999999999               0.000015145              -0.000137858               0.999999999               0.000021606              -0.000151922               0.999999999               0.000028527              -0.000166994               0.999999999               0.000035695              -0.000182602               0.999999999               0.000043123              -0.000198793               0.999999999               0.000050808              -0.000215801               0.999999999               0.000058884              -0.000233881               0.999999999               0.000067485              -0.000253112               0.999999999               0.000076648              -0.000273057               0.999999999               0.000086274              -0.000293592               0.999999999              -0.000005393              -0.000113586               0.999999999              -0.000008691              -0.000103793               0.999999999              -0.000007236              -0.000104485               0.999999999              -0.000003905              -0.000110240               0.999999999               0.000000497              -0.000119109               0.999999999               0.000005596              -0.000130209               0.999999999               0.000011404              -0.000143356               0.999999999               0.000018010              -0.000158270               0.999999999               0.000025264              -0.000174688               0.999999999               0.000032776              -0.000192109               0.999999999               0.000040480              -0.000210422               0.999999999               0.000048370              -0.000229771               0.999999999               0.000056606              -0.000250490               0.999999999               0.000065468              -0.000272634               0.999999999               0.000074932              -0.000295832               0.999999999               0.000084901              -0.000319877               0.999999999               0.000095202              -0.000344590               0.999999999              -0.000004392              -0.000124191               0.999999999              -0.000009051              -0.000115144               0.999999999              -0.000008245              -0.000114839               0.999999999              -0.000005340              -0.000119369               0.999999999              -0.000001476              -0.000126982               0.999999999               0.000003010              -0.000136832               0.999999999               0.000007982              -0.000148598               0.999999999               0.000013622              -0.000161990               0.999999999               0.000019917              -0.000176876               0.999999999               0.000026573              -0.000192949               0.999999999               0.000033296              -0.000210029               0.999999999               0.000039906              -0.000228130               0.999999999               0.000046562              -0.000247445               0.999999999               0.000053776              -0.000268043               0.999999999               0.000061578              -0.000289890               0.999999999               0.000069728              -0.000312770               0.999999999               0.000078262              -0.000336711               0.999999999              -0.000003451              -0.000133729               0.999999999              -0.000008913              -0.000125900               0.999999999              -0.000008784              -0.000125159               0.999999999              -0.000006434              -0.000128732               0.999999999              -0.000003107              -0.000135222               0.999999999               0.000000676              -0.000143971               0.999999999               0.000004900              -0.000154447               0.999999999               0.000009578              -0.000166493               0.999999999               0.000014890              -0.000179998               0.999999999               0.000020495              -0.000194734               0.999999999               0.000026233              -0.000210593               0.999999999               0.000031917              -0.000227497               0.999999999               0.000037514              -0.000245418               0.999999999               0.000043228              -0.000264565               0.999999999               0.000049352              -0.000284926               0.999999999               0.000055875              -0.000306369               0.999999999               0.000062853              -0.000328833               0.999999999              -0.000002618              -0.000142053               0.999999999              -0.000008321              -0.000135859               0.999999999              -0.000008742              -0.000135066               0.999999999              -0.000006982              -0.000138001               0.999999999              -0.000004298              -0.000143673               0.999999999              -0.000001175              -0.000151414               0.999999999               0.000002208              -0.000160854               0.999999999               0.000006012              -0.000171767               0.999999999               0.000010273              -0.000184040               0.999999999               0.000014802              -0.000197614               0.999999999               0.000019528              -0.000212255               0.999999999               0.000024474              -0.000227907               0.999999999               0.000029131              -0.000244646               0.999999999               0.000033582              -0.000262534               0.999999999               0.000038347              -0.000281553               0.999999999               0.000043430              -0.000301627               0.999999999               0.000048683              -0.000322716               0.999999999              -0.000001903              -0.000149023               0.999999999              -0.000007251              -0.000144628               0.999999999              -0.000008076              -0.000144148               0.999999999              -0.000006888              -0.000146794               0.999999999              -0.000004815              -0.000151877               0.999999999              -0.000002441              -0.000158864               0.999999999               0.000000192              -0.000167440               0.999999999               0.000003105              -0.000177453               0.999999999               0.000006386              -0.000188720               0.999999999               0.000009929              -0.000201200               0.999999999               0.000013780              -0.000214772               0.999999999               0.000017695              -0.000229376               0.999999999               0.000021453              -0.000245090               0.999999999               0.000024960              -0.000261882               0.999999999               0.000028516              -0.000279838               0.999999999               0.000032269              -0.000298812               0.999999999               0.000035885              -0.000318771               0.999999999              -0.000001313              -0.000154602               0.999999999              -0.000005805              -0.000151911               0.999999999              -0.000006766              -0.000151920               0.999999999              -0.000006065              -0.000154541               0.999999999              -0.000004601              -0.000159274               0.999999999              -0.000002902              -0.000165718               0.999999999              -0.000001001              -0.000173678               0.999999999               0.000001113              -0.000182973               0.999999999               0.000003531              -0.000193469               0.999999999               0.000006154              -0.000205104               0.999999999               0.000008954              -0.000217812               0.999999999               0.000011808              -0.000231695               0.999999999               0.000014632              -0.000246690               0.999999999               0.000017363              -0.000262694               0.999999999               0.000019922              -0.000279749               0.999999999               0.000022352              -0.000297818               0.999999999               0.000024528              -0.000316896               0.999999999              -0.000000805              -0.000158656               0.999999999              -0.000004039              -0.000157352               0.999999999              -0.000004886              -0.000157908               0.999999999              -0.000004528              -0.000160649               0.999999999              -0.000003629              -0.000165200               0.999999999              -0.000002514              -0.000171362               0.999999999              -0.000001321              -0.000178886               0.999999999               0.000000093              -0.000187675               0.999999999               0.000001649              -0.000197699               0.999999999               0.000003358              -0.000208861               0.999999999               0.000005116              -0.000221072               0.999999999               0.000007009              -0.000234379               0.999999999               0.000008911              -0.000248824               0.999999999               0.000010809              -0.000264415               0.999999999               0.000012523              -0.000280943               0.999999999               0.000013789              -0.000298337               0.999999999               0.000014623              -0.000316754               0.999999999              -0.000000367              -0.000161085               0.999999999              -0.000002062              -0.000160738               0.999999999              -0.000002582              -0.000161711               0.999999999              -0.000002423              -0.000164565               0.999999999              -0.000001999              -0.000169084               0.999999999              -0.000001456              -0.000175101               0.999999999              -0.000000871              -0.000182388               0.999999999              -0.000000157              -0.000190911               0.999999999               0.000000595              -0.000200664               0.999999999               0.000001323              -0.000211561               0.999999999               0.000002298              -0.000223571               0.999999999               0.000003253              -0.000236659               0.999999999               0.000004219              -0.000250801               0.999999999               0.000005132              -0.000266036               0.999999999               0.000005899              -0.000282306               0.999999999               0.000006462              -0.000299545               0.999999999               0.000006641              -0.000317712               0.999999999               0.000000000              -0.000161886               0.999999999              -0.000000000              -0.000161911               0.999999999               0.000000000              -0.000163037               0.999999999               0.000000000              -0.000165897               0.999999999              -0.000000000              -0.000170436               0.999999999               0.000000000              -0.000176395               0.999999999               0.000000000              -0.000183620               0.999999999              -0.000000000              -0.000192102               0.999999999              -0.000000000              -0.000201727               0.999999999               0.000000000              -0.000212496               0.999999999               0.000000000              -0.000224460               0.999999999              -0.000000000              -0.000237534               0.999999999              -0.000000000              -0.000251672               0.999999999               0.000000000              -0.000266745               0.999999999               0.000000000              -0.000282835               0.999999999              -0.000000000              -0.000300172               0.999999999              -0.000000000              -0.000318430               0.999999999              -0.000009045               0.000000000               0.999999999              -0.000002708               0.000000000               0.999999999               0.000000184               0.000000000               0.999999999               0.000001561              -0.000000000               0.999999999               0.000002304              -0.000000000               0.999999999               0.000002872              -0.000000000               0.999999999               0.000003536               0.000000000               0.999999999               0.000004432               0.000000000               0.999999999               0.000005637               0.000000000               0.999999999               0.000007265               0.000000000               0.999999999               0.000009334               0.000000000               0.999999999               0.000011884               0.000000000               0.999999999               0.000014959               0.000000000               0.999999999               0.000018452               0.000000000               0.999999999               0.000022366               0.000000000               0.999999999               0.000026837              -0.000000000               0.999999999               0.000031832              -0.000000000               0.999999999              -0.000008969               0.000015815               0.999999999              -0.000002842               0.000014295               0.999999999              -0.000000060               0.000013863               0.999999999               0.000001308               0.000014137               0.999999999               0.000002107               0.000014861               0.999999999               0.000002794               0.000015936               0.999999999               0.000003600               0.000017285               0.999999999               0.000004647               0.000018907               0.999999999               0.000006050               0.000020734               0.999999999               0.000007845               0.000022855               0.999999999               0.000010110               0.000025235               0.999999999               0.000012891               0.000027814               0.999999999               0.000016164               0.000030531               0.999999999               0.000019892               0.000033237               0.999999999               0.000024048               0.000036111               0.999999999               0.000028642               0.000039253               0.999999999               0.000033720               0.000042603               0.999999999              -0.000008769               0.000031507               0.999999999              -0.000003222               0.000028410               0.999999999              -0.000000732               0.000027669               0.999999999               0.000000610               0.000028284               0.999999999               0.000001588               0.000029817               0.999999999               0.000002598               0.000031984               0.999999999               0.000003814               0.000034757               0.999999999               0.000005329               0.000037929               0.999999999               0.000007223               0.000041672               0.999999999               0.000009596               0.000045831               0.999999999               0.000012434               0.000050621               0.999999999               0.000015768               0.000055747               0.999999999               0.000019589               0.000061029               0.999999999               0.000023776               0.000066321               0.999999999               0.000028410               0.000071929               0.999999999               0.000033514               0.000077985               0.999999999               0.000039025               0.000084325               0.999999999              -0.000008436               0.000046899               0.999999999              -0.000003865               0.000042227               0.999999999              -0.000001781               0.000041300               0.999999999              -0.000000394               0.000042424               0.999999999               0.000000912               0.000044870               0.999999999               0.000002416               0.000048292               0.999999999               0.000004266               0.000052444               0.999999999               0.000006478               0.000057337               0.999999999               0.000009186               0.000062861               0.999999999               0.000012389               0.000069204               0.999999999               0.000016106               0.000076244               0.999999999               0.000020280               0.000083720               0.999999999               0.000024808               0.000091331               0.999999999               0.000029709               0.000099072               0.999999999               0.000035035               0.000107324               0.999999999               0.000040750               0.000115961               0.999999999               0.000046813               0.000124872               0.999999999              -0.000007980               0.000061803               0.999999999              -0.000004743               0.000055657               0.999999999              -0.000003045               0.000054706               0.999999999              -0.000001542               0.000056544               0.999999999               0.000000213               0.000060043               0.999999999               0.000002412               0.000064778               0.999999999               0.000005036               0.000070465               0.999999999               0.000008151               0.000077020               0.999999999               0.000011777               0.000084501               0.999999999               0.000015992               0.000092968               0.999999999               0.000020674               0.000102237               0.999999999               0.000025693               0.000111875               0.999999999               0.000031018               0.000121680               0.999999999               0.000036640               0.000131762               0.999999999               0.000042682               0.000142448               0.999999999               0.000049076               0.000153442               0.999999999               0.000055754               0.000164702               0.999999999              -0.000007459               0.000076100               0.999999999              -0.000005756               0.000068599               0.999999999              -0.000004394               0.000067843               0.999999999              -0.000002624               0.000070525               0.999999999              -0.000000273               0.000075212               0.999999999               0.000002655               0.000081410               0.999999999               0.000006158               0.000088689               0.999999999               0.000010204               0.000097110               0.999999999               0.000014840               0.000106612               0.999999999               0.000020063               0.000117260               0.999999999               0.000025667               0.000128562               0.999999999               0.000031502               0.000140290               0.999999999               0.000037606               0.000152163               0.999999999               0.000044028               0.000164561               0.999999999               0.000050784               0.000177680               0.999999999               0.000057906               0.000191179               0.999999999               0.000065485               0.000205084               0.999999999              -0.000006865               0.000089635               0.999999999              -0.000006817               0.000080965               0.999999999              -0.000005648               0.000080587               0.999999999              -0.000003451               0.000084220               0.999999999              -0.000000453               0.000090261               0.999999999               0.000003272               0.000097987               0.999999999               0.000007616               0.000107059               0.999999999               0.000012555               0.000117444               0.999999999               0.000018121               0.000129121               0.999999999               0.000024252               0.000141936               0.999999999               0.000030706               0.000155359               0.999999999               0.000037373               0.000169164               0.999999999               0.000044343               0.000183326               0.999999999               0.000051636               0.000198235               0.999999999               0.000059312               0.000214052               0.999999999               0.000067479               0.000230442               0.999999999               0.000076133               0.000247425               0.999999999              -0.000006176               0.000102194               0.999999999              -0.000007821               0.000092699               0.999999999              -0.000006639               0.000092841               0.999999999              -0.000003900               0.000097509               0.999999999              -0.000000180               0.000104965               0.999999999               0.000004272               0.000114321               0.999999999               0.000009362               0.000125314               0.999999999               0.000015145               0.000137858               0.999999999               0.000021606               0.000151922               0.999999999               0.000028527               0.000166994               0.999999999               0.000035695               0.000182602               0.999999999               0.000043123               0.000198793               0.999999999               0.000050808               0.000215801               0.999999999               0.000058884               0.000233881               0.999999999               0.000067485               0.000253112               0.999999999               0.000076648               0.000273057               0.999999999               0.000086274               0.000293592               0.999999999              -0.000005393               0.000113586               0.999999999              -0.000008691               0.000103793               0.999999999              -0.000007236               0.000104485               0.999999999              -0.000003905               0.000110240               0.999999999               0.000000497               0.000119109               0.999999999               0.000005596               0.000130209               0.999999999               0.000011404               0.000143356               0.999999999               0.000018010               0.000158270               0.999999999               0.000025264               0.000174688               0.999999999               0.000032776               0.000192109               0.999999999               0.000040480               0.000210422               0.999999999               0.000048370               0.000229771               0.999999999               0.000056606               0.000250490               0.999999999               0.000065468               0.000272634               0.999999999               0.000074932               0.000295832               0.999999999               0.000084901               0.000319877               0.999999999               0.000095202               0.000344590               0.999999999              -0.000004392               0.000124191               0.999999999              -0.000009051               0.000115144               0.999999999              -0.000008245               0.000114839               0.999999999              -0.000005340               0.000119369               0.999999999              -0.000001476               0.000126982               0.999999999               0.000003010               0.000136832               0.999999999               0.000007982               0.000148598               0.999999999               0.000013622               0.000161990               0.999999999               0.000019917               0.000176876               0.999999999               0.000026573               0.000192949               0.999999999               0.000033296               0.000210029               0.999999999               0.000039906               0.000228130               0.999999999               0.000046562               0.000247445               0.999999999               0.000053776               0.000268043               0.999999999               0.000061578               0.000289890               0.999999999               0.000069728               0.000312770               0.999999999               0.000078262               0.000336711               0.999999999              -0.000003451               0.000133729               0.999999999              -0.000008913               0.000125900               0.999999999              -0.000008784               0.000125159               0.999999999              -0.000006434               0.000128732               0.999999999              -0.000003107               0.000135222               0.999999999               0.000000676               0.000143971               0.999999999               0.000004900               0.000154447               0.999999999               0.000009578               0.000166493               0.999999999               0.000014890               0.000179998               0.999999999               0.000020495               0.000194734               0.999999999               0.000026233               0.000210593               0.999999999               0.000031917               0.000227497               0.999999999               0.000037514               0.000245418               0.999999999               0.000043228               0.000264565               0.999999999               0.000049352               0.000284926               0.999999999               0.000055875               0.000306369               0.999999999               0.000062853               0.000328833               0.999999999              -0.000002618               0.000142053               0.999999999              -0.000008321               0.000135859               0.999999999              -0.000008742               0.000135066               0.999999999              -0.000006982               0.000138001               0.999999999              -0.000004298               0.000143673               0.999999999              -0.000001175               0.000151414               0.999999999               0.000002208               0.000160854               0.999999999               0.000006012               0.000171767               0.999999999               0.000010273               0.000184040               0.999999999               0.000014802               0.000197614               0.999999999               0.000019528               0.000212255               0.999999999               0.000024474               0.000227907               0.999999999               0.000029131               0.000244646               0.999999999               0.000033582               0.000262534               0.999999999               0.000038347               0.000281553               0.999999999               0.000043430               0.000301627               0.999999999               0.000048683               0.000322716               0.999999999              -0.000001903               0.000149023               0.999999999              -0.000007251               0.000144628               0.999999999              -0.000008076               0.000144148               0.999999999              -0.000006888               0.000146794               0.999999999              -0.000004815               0.000151877               0.999999999              -0.000002441               0.000158864               0.999999999               0.000000192               0.000167440               0.999999999               0.000003105               0.000177453               0.999999999               0.000006386               0.000188720               0.999999999               0.000009929               0.000201200               0.999999999               0.000013780               0.000214772               0.999999999               0.000017695               0.000229376               0.999999999               0.000021453               0.000245090               0.999999999               0.000024960               0.000261882               0.999999999               0.000028516               0.000279838               0.999999999               0.000032269               0.000298812               0.999999999               0.000035885               0.000318771               0.999999999              -0.000001313               0.000154602               0.999999999              -0.000005805               0.000151911               0.999999999              -0.000006766               0.000151920               0.999999999              -0.000006065               0.000154541               0.999999999              -0.000004601               0.000159274               0.999999999              -0.000002902               0.000165718               0.999999999              -0.000001001               0.000173678               0.999999999               0.000001113               0.000182973               0.999999999               0.000003531               0.000193469               0.999999999               0.000006154               0.000205104               0.999999999               0.000008954               0.000217812               0.999999999               0.000011808               0.000231695               0.999999999               0.000014632               0.000246690               0.999999999               0.000017363               0.000262694               0.999999999               0.000019922               0.000279749               0.999999999               0.000022352               0.000297818               0.999999999               0.000024528               0.000316896               0.999999999              -0.000000805               0.000158656               0.999999999              -0.000004039               0.000157352               0.999999999              -0.000004886               0.000157908               0.999999999              -0.000004528               0.000160649               0.999999999              -0.000003629               0.000165200               0.999999999              -0.000002514               0.000171362               0.999999999              -0.000001321               0.000178886               0.999999999               0.000000093               0.000187675               0.999999999               0.000001649               0.000197699               0.999999999               0.000003358               0.000208861               0.999999999               0.000005116               0.000221072               0.999999999               0.000007009               0.000234379               0.999999999               0.000008911               0.000248824               0.999999999               0.000010809               0.000264415               0.999999999               0.000012523               0.000280943               0.999999999               0.000013789               0.000298337               0.999999999               0.000014623               0.000316754               0.999999999              -0.000000367               0.000161085               0.999999999              -0.000002062               0.000160738               0.999999999              -0.000002582               0.000161711               0.999999999              -0.000002423               0.000164565               0.999999999              -0.000001999               0.000169084               0.999999999              -0.000001456               0.000175101               0.999999999              -0.000000871               0.000182388               0.999999999              -0.000000157               0.000190911               0.999999999               0.000000595               0.000200664               0.999999999               0.000001323               0.000211561               0.999999999               0.000002298               0.000223571               0.999999999               0.000003253               0.000236659               0.999999999               0.000004219               0.000250801               0.999999999               0.000005132               0.000266036               0.999999999               0.000005899               0.000282306               0.999999999               0.000006462               0.000299545               0.999999999               0.000006641               0.000317712               0.999999999               0.000000000               0.000161886               0.999999999              -0.000000000               0.000161911               0.999999999               0.000000000               0.000163037               0.999999999              -0.000000000               0.000165897               0.999999999               0.000000000               0.000170436               0.999999999              -0.000000000               0.000176395               0.999999999              -0.000000000               0.000183620               0.999999999               0.000000000               0.000192102               0.999999999               0.000000000               0.000201727               0.999999999               0.000000000               0.000212496               0.999999999               0.000000000               0.000224460               0.999999999               0.000000000               0.000237534               0.999999999               0.000000000               0.000251672               0.999999999               0.000000000               0.000266745               0.999999999              -0.000000000               0.000282835               0.999999999               0.000000000               0.000300172               0.999999999               0.000000000               0.000318430               0.999999999 </DataArray>
<DataArray type="Float64"                                    Name="defo"                                                      NumberOfComponents=" 3" format="ascii">
              0.000009045              -0.000000000               0.999999999               0.000002708               0.000000000               0.999999999              -0.000000184              -0.000000000               0.999999999              -0.000001561               0.000000000               0.999999999              -0.000002304              -0.000000000               0.999999999              -0.000002872              -0.000000000               0.999999999              -0.000003536               0.000000000               0.999999999              -0.000004432               0.000000000               0.999999999              -0.000005637               0.000000000               0.999999999              -0.000007265              -0.000000000               0.999999999              -0.000009334              -0.000000000               0.999999999              -0.000011884              -0.000000000               0.999999999              -0.000014959              -0.000000000               0.999999999              -0.000018452              -0.000000000               0.999999999              -0.000022366              -0.000000000               0.999999999              -0.000026837              -0.000000000               0.999999999              -0.000031832               0.000000000               0.999999999               0.000008969               0.000015815               0.999999999               0.000002842               0.000014295               0.999999999               0.000000060               0.000013863               0.999999999              -0.000001308               0.000014137               0.999999999              -0.000002107               0.000014861               0.999999999              -0.000002794               0.000015936               0.999999999              -0.000003600               0.000017285               0.999999999              -0.000004647               0.000018907               0.999999999              -0.000006050               0.000020734               0.999999999              -0.000007845               0.000022855               0.999999999              -0.000010110               0.000025235               0.999999999              -0.000012891               0.000027814               0.999999999              -0.000016164               0.000030531               0.999999999              -0.000019892               0.000033237               0.999999999              -0.000024048               0.000036111               0.999999999              -0.000028642               0.000039253               0.999999999              -0.000033720               0.000042603               0.999999999               0.000008769               0.000031507               0.999999999               0.000003222               0.000028410               0.999999999               0.000000732               0.000027669               0.999999999              -0.000000610               0.000028284               0.999999999              -0.000001588               0.000029817               0.999999999              -0.000002598               0.000031984               0.999999999              -0.000003814               0.000034757               0.999999999              -0.000005329               0.000037929               0.999999999              -0.000007223               0.000041672               0.999999999              -0.000009596               0.000045831               0.999999999              -0.000012434               0.000050621               0.999999999              -0.000015768               0.000055747               0.999999999              -0.000019589               0.000061029               0.999999999              -0.000023776               0.000066321               0.999999999              -0.000028410               0.000071929               0.999999999              -0.000033514               0.000077985               0.999999999              -0.000039025               0.000084325               0.999999999               0.000008436               0.000046899               0.999999999               0.000003865               0.000042227               0.999999999               0.000001781               0.000041300               0.999999999               0.000000394               0.000042424               0.999999999              -0.000000912               0.000044870               0.999999999              -0.000002416               0.000048292               0.999999999              -0.000004266               0.000052444               0.999999999              -0.000006478               0.000057337               0.999999999              -0.000009186               0.000062861               0.999999999              -0.000012389               0.000069204               0.999999999              -0.000016106               0.000076244               0.999999999              -0.000020280               0.000083720               0.999999999              -0.000024808               0.000091331               0.999999999              -0.000029709               0.000099072               0.999999999              -0.000035035               0.000107324               0.999999999              -0.000040750               0.000115961               0.999999999              -0.000046813               0.000124872               0.999999999               0.000007980               0.000061803               0.999999999               0.000004743               0.000055657               0.999999999               0.000003045               0.000054706               0.999999999               0.000001542               0.000056544               0.999999999              -0.000000213               0.000060043               0.999999999              -0.000002412               0.000064778               0.999999999              -0.000005036               0.000070465               0.999999999              -0.000008151               0.000077020               0.999999999              -0.000011777               0.000084501               0.999999999              -0.000015992               0.000092968               0.999999999              -0.000020674               0.000102237               0.999999999              -0.000025693               0.000111875               0.999999999              -0.000031018               0.000121680               0.999999999              -0.000036640               0.000131762               0.999999999              -0.000042682               0.000142448               0.999999999              -0.000049076               0.000153442               0.999999999              -0.000055754               0.000164702               0.999999999               0.000007459               0.000076100               0.999999999               0.000005756               0.000068599               0.999999999               0.000004394               0.000067843               0.999999999               0.000002624               0.000070525               0.999999999               0.000000273               0.000075212               0.999999999              -0.000002655               0.000081410               0.999999999              -0.000006158               0.000088689               0.999999999              -0.000010204               0.000097110               0.999999999              -0.000014840               0.000106612               0.999999999              -0.000020063               0.000117260               0.999999999              -0.000025667               0.000128562               0.999999999              -0.000031502               0.000140290               0.999999999              -0.000037606               0.000152163               0.999999999              -0.000044028               0.000164561               0.999999999              -0.000050784               0.000177680               0.999999999              -0.000057906               0.000191179               0.999999999              -0.000065485               0.000205084               0.999999999               0.000006865               0.000089635               0.999999999               0.000006817               0.000080965               0.999999999               0.000005648               0.000080587               0.999999999               0.000003451               0.000084220               0.999999999               0.000000453               0.000090261               0.999999999              -0.000003272               0.000097987               0.999999999              -0.000007616               0.000107059               0.999999999              -0.000012555               0.000117444               0.999999999              -0.000018121               0.000129121               0.999999999              -0.000024252               0.000141936               0.999999999              -0.000030706               0.000155359               0.999999999              -0.000037373               0.000169164               0.999999999              -0.000044343               0.000183326               0.999999999              -0.000051636               0.000198235               0.999999999              -0.000059312               0.000214052               0.999999999              -0.000067479               0.000230442               0.999999999              -0.000076133               0.000247425               0.999999999               0.000006176               0.000102194               0.999999999               0.000007821               0.000092699               0.999999999               0.000006639               0.000092841               0.999999999               0.000003900               0.000097509               0.999999999               0.000000180               0.000104965               0.999999999              -0.000004272               0.000114321               0.999999999              -0.000009362               0.000125314               0.999999999              -0.000015145               0.000137858               0.999999999              -0.000021606               0.000151922               0.999999999              -0.000028527               0.000166994               0.999999999              -0.000035695               0.000182602               0.999999999              -0.000043123               0.000198793               0.999999999              -0.000050808               0.000215801               0.999999999              -0.000058884               0.000233881               0.999999999              -0.000067485               0.000253112               0.999999999              -0.000076648               0.000273057               0.999999999              -0.000086274               0.000293592               0.999999999               0.000005393               0.000113586               0.999999999               0.000008691               0.000103793               0.999999999               0.000007236               0.000104485               0.999999999               0.000003905               0.000110240               0.999999999              -0.000000497               0.000119109               0.999999999              -0.000005596               0.000130209               0.999999999              -0.000011404               0.000143356               0.999999999              -0.000018010               0.000158270               0.999999999              -0.000025264               0.000174688               0.999999999              -0.000032776               0.000192109               0.999999999              -0.000040480               0.000210422               0.999999999              -0.000048370               0.000229771               0.999999999              -0.000056606               0.000250490               0.999999999              -0.000065468               0.000272634               0.999999999              -0.000074932               0.000295832               0.999999999              -0.000084901               0.000319877               0.999999999              -0.000095202               0.000344590               0.999999999               0.000004392               0.000124191               0.999999999               0.000009051               0.000115144               0.999999999               0.000008245               0.000114839               0.999999999               0.000005340               0.000119369               0.999999999               0.000001476               0.000126982               0.999999999              -0.000003010               0.000136832               0.999999999              -0.000007982               0.000148598               0.999999999              -0.000013622               0.000161990               0.999999999              -0.000019917               0.000176876               0.999999999              -0.000026573               0.000192949               0.999999999              -0.000033296               0.000210029               0.999999999              -0.000039906               0.000228130               0.999999999              -0.000046562               0.000247445               0.999999999              -0.000053776               0.000268043               0.999999999              -0.000061578               0.000289890               0.999999999              -0.000069728               0.000312770               0.999999999              -0.000078262               0.000336711               0.999999999               0.000003451               0.000133729               0.999999999               0.000008913               0.000125900               0.999999999               0.000008784               0.000125159               0.999999999               0.000006434               0.000128732               0.999999999               0.000003107               0.000135222               0.999999999              -0.000000676               0.000143971               0.999999999              -0.000004900               0.000154447               0.999999999              -0.000009578               0.000166493               0.999999999              -0.000014890               0.000179998               0.999999999              -0.000020495               0.000194734               0.999999999              -0.000026233               0.000210593               0.999999999              -0.000031917               0.000227497               0.999999999              -0.000037514               0.000245418               0.999999999              -0.000043228               0.000264565               0.999999999              -0.000049352               0.000284926               0.999999999              -0.000055875               0.000306369               0.999999999              -0.000062853               0.000328833               0.999999999               0.000002618               0.000142053               0.999999999               0.000008321               0.000135859               0.999999999               0.000008742               0.000135066               0.999999999               0.000006982               0.000138001               0.999999999               0.000004298               0.000143673               0.999999999               0.000001175               0.000151414               0.999999999              -0.000002208               0.000160854               0.999999999              -0.000006012               0.000171767               0.999999999              -0.000010273               0.000184040               0.999999999              -0.000014802               0.000197614               0.999999999              -0.000019528               0.000212255               0.999999999              -0.000024474               0.000227907               0.999999999              -0.000029131               0.000244646               0.999999999              -0.000033582               0.000262534               0.999999999              -0.000038347               0.000281553               0.999999999              -0.000043430               0.000301627               0.999999999              -0.000048683               0.000322716               0.999999999               0.000001903               0.000149023               0.999999999               0.000007251               0.000144628               0.999999999               0.000008076               0.000144148               0.999999999               0.000006888               0.000146794               0.999999999               0.000004815               0.000151877               0.999999999               0.000002441               0.000158864               0.999999999              -0.000000192               0.000167440               0.999999999              -0.000003105               0.000177453               0.999999999              -0.000006386               0.000188720               0.999999999              -0.000009929               0.000201200               0.999999999              -0.000013780               0.000214772               0.999999999              -0.000017695               0.000229376               0.999999999              -0.000021453               0.000245090               0.999999999              -0.000024960               0.000261882               0.999999999              -0.000028516               0.000279838               0.999999999              -0.000032269               0.000298812               0.999999999              -0.000035885               0.000318771               0.999999999               0.000001313               0.000154602               0.999999999               0.000005805               0.000151911               0.999999999               0.000006766               0.000151920               0.999999999               0.000006065               0.000154541               0.999999999               0.000004601               0.000159274               0.999999999               0.000002902               0.000165718               0.999999999               0.000001001               0.000173678               0.999999999              -0.000001113               0.000182973               0.999999999              -0.000003531               0.000193469               0.999999999              -0.000006154               0.000205104               0.999999999              -0.000008954               0.000217812               0.999999999              -0.000011808               0.000231695               0.999999999              -0.000014632               0.000246690               0.999999999              -0.000017363               0.000262694               0.999999999              -0.000019922               0.000279749               0.999999999              -0.000022352               0.000297818               0.999999999              -0.000024528               0.000316896               0.999999999               0.000000805               0.000158656               0.999999999               0.000004039               0.000157352               0.999999999               0.000004886               0.000157908               0.999999999               0.000004528               0.000160649               0.999999999               0.000003629               0.000165200               0.999999999               0.000002514               0.000171362               0.999999999               0.000001321               0.000178886               0.999999999              -0.000000093               0.000187675               0.999999999              -0.000001649               0.000197699               0.999999999              -0.000003358               0.000208861               0.999999999              -0.000005116               0.000221072               0.999999999              -0.000007009               0.000234379               0.999999999              -0.000008911               0.000248824               0.999999999              -0.000010809               0.000264415               0.999999999              -0.000012523               0.000280943               0.999999999              -0.000013789               0.000298337               0.999999999              -0.000014623               0.000316754               0.999999999               0.000000367               0.000161085               0.999999999               0.000002062               0.000160738               0.999999999               0.000002582               0.000161711               0.999999999               0.000002423               0.000164565               0.999999999               0.000001999               0.000169084               0.999999999               0.000001456               0.000175101               0.999999999               0.000000871               0.000182388               0.999999999               0.000000157               0.000190911               0.999999999              -0.000000595               0.000200664               0.999999999              -0.000001323               0.000211561               0.999999999              -0.000002298               0.000223571               0.999999999              -0.000003253               0.000236659               0.999999999              -0.000004219               0.000250801               0.999999999              -0.000005132               0.000266036               0.999999999              -0.000005899               0.000282306               0.999999999              -0.000006462               0.000299545               0.999999999              -0.000006641               0.000317712               0.999999999               0.000000000               0.000161886               0.999999999              -0.000000000               0.000161911               0.999999999               0.000000000               0.000163037               0.999999999              -0.000000000               0.000165897               0.999999999               0.000000000               0.000170436               0.999999999              -0.000000000               0.000176395               0.999999999              -0.000000000               0.000183620               0.999999999               0.000000000               0.000192102               0.999999999               0.000000000               0.000201727               0.999999999               0.000000000               0.000212496               0.999999999               0.000000000               0.000224460               0.999999999               0.000000000               0.000237534               0.999999999               0.000000000               0.000251672               0.999999999               0.000000000               0.000266745               0.999999999              -0.000000000               0.000282835               0.999999999               0.000000000               0.000300172               0.999999999               0.000000000               0.000318430               0.999999999               0.000009045              -0.000000000               0.999999999               0.000002708               0.000000000               0.999999999              -0.000000184              -0.000000000               0.999999999              -0.000001561               0.000000000               0.999999999              -0.000002304              -0.000000000               0.999999999              -0.000002872              -0.000000000               0.999999999              -0.000003536               0.000000000               0.999999999              -0.000004432               0.000000000               0.999999999              -0.000005637               0.000000000               0.999999999              -0.000007265              -0.000000000               0.999999999              -0.000009334              -0.000000000               0.999999999              -0.000011884              -0.000000000               0.999999999              -0.000014959              -0.000000000               0.999999999              -0.000018452              -0.000000000               0.999999999              -0.000022366              -0.000000000               0.999999999              -0.000026837              -0.000000000               0.999999999              -0.000031832               0.000000000               0.999999999               0.000008969              -0.000015815               0.999999999               0.000002842              -0.000014295               0.999999999               0.000000060              -0.000013863               0.999999999              -0.000001308              -0.000014137               0.999999999              -0.000002107              -0.000014861               0.999999999              -0.000002794              -0.000015936               0.999999999              -0.000003600              -0.000017285               0.999999999              -0.000004647              -0.000018907               0.999999999              -0.000006050              -0.000020734               0.999999999              -0.000007845              -0.000022855               0.999999999              -0.000010110              -0.000025235               0.999999999              -0.000012891              -0.000027814               0.999999999              -0.000016164              -0.000030531               0.999999999              -0.000019892              -0.000033237               0.999999999              -0.000024048              -0.000036111               0.999999999              -0.000028642              -0.000039253               0.999999999              -0.000033720              -0.000042603               0.999999999               0.000008769              -0.000031507               0.999999999               0.000003222              -0.000028410               0.999999999               0.000000732              -0.000027669               0.999999999              -0.000000610              -0.000028284               0.999999999              -0.000001588              -0.000029817               0.999999999              -0.000002598              -0.000031984               0.999999999              -0.000003814              -0.000034757               0.999999999              -0.000005329              -0.000037929               0.999999999              -0.000007223              -0.000041672               0.999999999              -0.000009596              -0.000045831               0.999999999              -0.000012434              -0.000050621               0.999999999              -0.000015768              -0.000055747               0.999999999              -0.000019589              -0.000061029               0.999999999              -0.000023776              -0.000066321               0.999999999              -0.000028410              -0.000071929               0.999999999              -0.000033514              -0.000077985               0.999999999              -0.000039025              -0.000084325               0.999999999               0.000008436              -0.000046899               0.999999999               0.000003865              -0.000042227               0.999999999               0.000001781              -0.000041300               0.999999999               0.000000394              -0.000042424               0.999999999              -0.000000912              -0.000044870               0.999999999              -0.000002416              -0.000048292               0.999999999              -0.000004266              -0.000052444               0.999999999              -0.000006478              -0.000057337               0.999999999              -0.000009186              -0.000062861               0.999999999              -0.000012389              -0.000069204               0.999999999              -0.000016106              -0.000076244               0.999999999              -0.000020280              -0.000083720               0.999999999              -0.000024808              -0.000091331               0.999999999              -0.000029709              -0.000099072               0.999999999              -0.000035035              -0.000107324               0.999999999              -0.000040750              -0.000115961               0.999999999              -0.000046813              -0.000124872               0.999999999               0.000007980              -0.000061803               0.999999999               0.000004743              -0.000055657               0.999999999               0.000003045              -0.000054706               0.999999999               0.000001542              -0.000056544               0.999999999              -0.000000213              -0.000060043               0.999999999              -0.000002412              -0.000064778               0.999999999              -0.000005036              -0.000070465               0.999999999              -0.000008151              -0.000077020               0.999999999              -0.000011777              -0.000084501               0.999999999              -0.000015992              -0.000092968               0.999999999              -0.000020674              -0.000102237               0.999999999              -0.000025693              -0.000111875               0.999999999              -0.000031018              -0.000121680               0.999999999              -0.000036640              -0.000131762               0.999999999              -0.000042682              -0.000142448               0.999999999              -0.000049076              -0.000153442               0.999999999              -0.000055754              -0.000164702               0.999999999               0.000007459              -0.000076100               0.999999999               0.000005756              -0.000068599               0.999999999               0.000004394              -0.000067843               0.999999999               0.000002624              -0.000070525               0.999999999               0.000000273              -0.000075212               0.999999999              -0.000002655              -0.000081410               0.999999999              -0.000006158              -0.000088689               0.999999999              -0.000010204              -0.000097110               0.999999999              -0.000014840              -0.000106612               0.999999999              -0.000020063              -0.000117260               0.999999999              -0.000025667              -0.000128562               0.999999999              -0.000031502              -0.000140290               0.999999999              -0.000037606              -0.000152163               0.999999999              -0.000044028              -0.000164561               0.999999999              -0.000050784              -0.000177680               0.999999999              -0.000057906              -0.000191179               0.999999999              -0.000065485              -0.000205084               0.999999999               0.000006865              -0.000089635               0.999999999               0.000006817              -0.000080965               0.999999999               0.000005648              -0.000080587               0.999999999               0.000003451              -0.000084220               0.999999999               0.000000453              -0.000090261               0.999999999              -0.000003272              -0.000097987               0.999999999              -0.000007616              -0.000107059               0.999999999              -0.000012555              -0.000117444               0.999999999              -0.000018121              -0.000129121               0.999999999              -0.000024252              -0.000141936               0.999999999              -0.000030706              -0.000155359               0.999999999              -0.000037373              -0.000169164               0.999999999              -0.000044343              -0.000183326               0.999999999              -0.000051636              -0.000198235               0.999999999              -0.000059312              -0.000214052               0.999999999              -0.000067479              -0.000230442               0.999999999              -0.000076133              -0.000247425               0.999999999               0.000006176              -0.000102194               0.999999999               0.000007821              -0.000092699               0.999999999               0.000006639              -0.000092841               0.999999999               0.000003900              -0.000097509               0.999999999               0.000000180              -0.000104965               0.999999999              -0.000004272              -0.000114321               0.999999999              -0.000009362              -0.000125314               0.999999999              -0.000015145              -0.000137858               0.999999999              -0.000021606              -0.000151922               0.999999999              -0.000028527              -0.000166994               0.999999999              -0.000035695              -0.000182602               0.999999999              -0.000043123              -0.000198793               0.999999999              -0.000050808              -0.000215801               0.999999999              -0.000058884              -0.000233881               0.999999999              -0.000067485              -0.000253112               0.999999999              -0.000076648              -0.000273057               0.999999999              -0.000086274              -0.000293592               0.999999999               0.000005393              -0.000113586               0.999999999               0.000008691              -0.000103793               0.999999999               0.000007236              -0.000104485               0.999999999               0.000003905              -0.000110240               0.999999999              -0.000000497              -0.000119109               0.999999999              -0.000005596              -0.000130209               0.999999999              -0.000011404              -0.000143356               0.999999999              -0.000018010              -0.000158270               0.999999999              -0.000025264              -0.000174688               0.999999999              -0.000032776              -0.000192109               0.999999999              -0.000040480              -0.000210422               0.999999999              -0.000048370              -0.000229771               0.999999999              -0.000056606              -0.000250490               0.999999999              -0.000065468              -0.000272634               0.999999999              -0.000074932              -0.000295832               0.999999999              -0.000084901              -0.000319877               0.999999999              -0.000095202              -0.000344590               0.999999999               0.000004392              -0.000124191               0.999999999               0.000009051              -0.000115144               0.999999999               0.000008245              -0.000114839               0.999999999               0.000005340              -0.000119369               0.999999999               0.000001476              -0.000126982               0.999999999              -0.000003010              -0.000136832               0.999999999              -0.000007982              -0.000148598               0.999999999              -0.000013622              -0.000161990               0.999999999              -0.000019917              -0.000176876               0.999999999              -0.000026573              -0.000192949               0.999999999              -0.000033296              -0.000210029               0.999999999              -0.000039906              -0.000228130               0.999999999              -0.000046562              -0.000247445               0.999999999              -0.000053776              -0.000268043               0.999999999              -0.000061578              -0.000289890               0.999999999              -0.000069728              -0.000312770               0.999999999              -0.000078262              -0.000336711               0.999999999               0.000003451              -0.000133729               0.999999999               0.000008913              -0.000125900               0.999999999               0.000008784              -0.000125159               0.999999999               0.000006434              -0.000128732               0.999999999               0.000003107              -0.000135222               0.999999999              -0.000000676              -0.000143971               0.999999999              -0.000004900              -0.000154447               0.999999999              -0.000009578              -0.000166493               0.999999999              -0.000014890              -0.000179998               0.999999999              -0.000020495              -0.000194734               0.999999999              -0.000026233              -0.000210593               0.999999999              -0.000031917              -0.000227497               0.999999999              -0.000037514              -0.000245418               0.999999999              -0.000043228              -0.000264565               0.999999999              -0.000049352              -0.000284926               0.999999999              -0.000055875              -0.000306369               0.999999999              -0.000062853              -0.000328833               0.999999999               0.000002618              -0.000142053               0.999999999               0.000008321              -0.000135859               0.999999999               0.000008742              -0.000135066               0.999999999               0.000006982              -0.000138001               0.999999999               0.000004298              -0.000143673               0.999999999               0.000001175              -0.000151414               0.999999999              -0.000002208              -0.000160854               0.999999999              -0.000006012              -0.000171767               0.999999999              -0.000010273              -0.000184040               0.999999999              -0.000014802              -0.000197614               0.999999999              -0.000019528              -0.000212255               0.999999999              -0.000024474              -0.000227907               0.999999999              -0.000029131              -0.000244646               0.999999999              -0.000033582              -0.000262534               0.999999999              -0.000038347              -0.000281553               0.999999999              -0.000043430              -0.000301627               0.999999999              -0.000048683              -0.000322716               0.999999999               0.000001903              -0.000149023               0.999999999               0.000007251              -0.000144628               0.999999999               0.000008076              -0.000144148               0.999999999               0.000006888              -0.000146794               0.999999999               0.000004815              -0.000151877               0.999999999               0.000002441              -0.000158864               0.999999999              -0.000000192              -0.000167440               0.999999999              -0.000003105              -0.000177453               0.999999999              -0.000006386              -0.000188720               0.999999999              -0.000009929              -0.000201200               0.999999999              -0.000013780              -0.000214772               0.999999999              -0.000017695              -0.000229376               0.999999999              -0.000021453              -0.000245090               0.999999999              -0.000024960              -0.000261882               0.999999999              -0.000028516              -0.000279838               0.999999999              -0.000032269              -0.000298812               0.999999999              -0.000035885              -0.000318771               0.999999999               0.000001313              -0.000154602               0.999999999               0.000005805              -0.000151911               0.999999999               0.000006766              -0.000151920               0.999999999               0.000006065              -0.000154541               0.999999999               0.000004601              -0.000159274               0.999999999               0.000002902              -0.000165718               0.999999999               0.000001001              -0.000173678               0.999999999              -0.000001113              -0.000182973               0.999999999              -0.000003531              -0.000193469               0.999999999              -0.000006154              -0.000205104               0.999999999              -0.000008954              -0.000217812               0.999999999              -0.000011808              -0.000231695               0.999999999              -0.000014632              -0.000246690               0.999999999              -0.000017363              -0.000262694               0.999999999              -0.000019922              -0.000279749               0.999999999              -0.000022352              -0.000297818               0.999999999              -0.000024528              -0.000316896               0.999999999               0.000000805              -0.000158656               0.999999999               0.000004039              -0.000157352               0.999999999               0.000004886              -0.000157908               0.999999999               0.000004528              -0.000160649               0.999999999               0.000003629              -0.000165200               0.999999999               0.000002514              -0.000171362               0.999999999               0.000001321              -0.000178886               0.999999999              -0.000000093              -0.000187675               0.999999999              -0.000001649              -0.000197699               0.999999999              -0.000003358              -0.000208861               0.999999999              -0.000005116              -0.000221072               0.999999999              -0.000007009              -0.000234379               0.999999999              -0.000008911              -0.000248824               0.999999999              -0.000010809              -0.000264415               0.999999999              -0.000012523              -0.000280943               0.999999999              -0.000013789              -0.000298337               0.999999999              -0.000014623              -0.000316754               0.999999999               0.000000367              -0.000161085               0.999999999               0.000002062              -0.000160738               0.999999999               0.000002582              -0.000161711               0.999999999               0.000002423              -0.000164565               0.999999999               0.000001999              -0.000169084               0.999999999               0.000001456              -0.000175101               0.999999999               0.000000871              -0.000182388               0.999999999               0.000000157              -0.000190911               0.999999999              -0.000000595              -0.000200664               0.999999999              -0.000001323              -0.000211561               0.999999999              -0.000002298              -0.000223571               0.999999999              -0.000003253              -0.000236659               0.999999999              -0.000004219              -0.000250801               0.999999999              -0.000005132              -0.000266036               0.999999999              -0.000005899              -0.000282306               0.999999999              -0.000006462              -0.000299545               0.999999999              -0.000006641              -0.000317712               0.999999999               0.000000000              -0.000161886               0.999999999              -0.000000000              -0.000161911               0.999999999               0.000000000              -0.000163037               0.999999999               0.000000000              -0.000165897               0.999999999              -0.000000000              -0.000170436               0.999999999               0.000000000              -0.000176395               0.999999999               0.000000000              -0.000183620               0.999999999              -0.000000000              -0.000192102               0.999999999              -0.000000000              -0.000201727               0.999999999               0.000000000              -0.000212496               0.999999999               0.000000000              -0.000224460               0.999999999              -0.000000000              -0.000237534               0.999999999              -0.000000000              -0.000251672               0.999999999               0.000000000              -0.000266745               0.999999999               0.000000000              -0.000282835               0.999999999              -0.000000000              -0.000300172               0.999999999              -0.000000000              -0.000318430               0.999999999              -0.000009045               0.000000000               0.999999999              -0.000002708               0.000000000               0.999999999               0.000000184               0.000000000               0.999999999               0.000001561              -0.000000000               0.999999999               0.000002304              -0.000000000               0.999999999               0.000002872              -0.000000000               0.999999999               0.000003536               0.000000000               0.999999999               0.000004432               0.000000000               0.999999999               0.000005637               0.000000000               0.999999999               0.000007265               0.000000000               0.999999999               0.000009334               0.000000000               0.999999999               0.000011884               0.000000000               0.999999999               0.000014959               0.000000000               0.999999999               0.000018452               0.000000000               0.999999999               0.000022366               0.000000000               0.999999999               0.000026837              -0.000000000               0.999999999               0.000031832              -0.000000000               0.999999999              -0.000008969              -0.000015815               0.999999999              -0.000002842              -0.000014295               0.999999999              -0.000000060              -0.000013863               0.999999999               0.000001308              -0.000014137               0.999999999               0.000002107              -0.000014861               0.999999999               0.000002794              -0.000015936               0.999999999               0.000003600              -0.000017285               0.999999999               0.000004647              -0.000018907               0.999999999               0.000006050              -0.000020734               0.999999999               0.000007845              -0.000022855               0.999999999               0.000010110              -0.000025235               0.999999999               0.000012891              -0.000027814               0.999999999               0.000016164              -0.000030531               0.999999999               0.000019892              -0.000033237               0.999999999               0.000024048              -0.000036111               0.999999999               0.000028642              -0.000039253               0.999999999               0.000033720              -0.000042603               0.999999999              -0.000008769              -0.000031507               0.999999999              -0.000003222              -0.000028410               0.999999999              -0.000000732              -0.000027669               0.999999999               0.000000610              -0.000028284               0.999999999               0.000001588              -0.000029817               0.999999999               0.000002598              -0.000031984               0.999999999               0.000003814              -0.000034757               0.999999999               0.000005329              -0.000037929               0.999999999               0.000007223              -0.000041672               0.999999999               0.000009596              -0.000045831               0.999999999               0.000012434              -0.000050621               0.999999999               0.000015768              -0.000055747               0.999999999               0.000019589              -0.000061029               0.999999999               0.000023776              -0.000066321               0.999999999               0.000028410              -0.000071929               0.999999999               0.000033514              -0.000077985               0.999999999               0.000039025              -0.000084325               0.999999999              -0.000008436              -0.000046899               0.999999999              -0.000003865              -0.000042227               0.999999999              -0.000001781              -0.000041300               0.999999999              -0.000000394              -0.000042424               0.999999999               0.000000912              -0.000044870               0.999999999               0.000002416              -0.000048292               0.999999999               0.000004266              -0.000052444               0.999999999               0.000006478              -0.000057337               0.999999999               0.000009186              -0.000062861               0.999999999               0.000012389              -0.000069204               0.999999999               0.000016106              -0.000076244               0.999999999               0.000020280              -0.000083720               0.999999999               0.000024808              -0.000091331               0.999999999               0.000029709              -0.000099072               0.999999999               0.000035035              -0.000107324               0.999999999               0.000040750              -0.000115961               0.999999999               0.000046813              -0.000124872               0.999999999              -0.000007980              -0.000061803               0.999999999              -0.000004743              -0.000055657               0.999999999              -0.000003045              -0.000054706               0.999999999              -0.000001542              -0.000056544               0.999999999               0.000000213              -0.000060043               0.999999999               0.000002412              -0.000064778               0.999999999               0.000005036              -0.000070465               0.999999999               0.000008151              -0.000077020               0.999999999               0.000011777              -0.000084501               0.999999999               0.000015992              -0.000092968               0.999999999               0.000020674              -0.000102237               0.999999999               0.000025693              -0.000111875               0.999999999               0.000031018              -0.000121680               0.999999999               0.000036640              -0.000131762               0.999999999               0.000042682              -0.000142448               0.999999999               0.000049076              -0.000153442               0.999999999               0.000055754              -0.000164702               0.999999999              -0.000007459              -0.000076100               0.999999999              -0.000005756              -0.000068599               0.999999999              -0.000004394              -0.000067843               0.999999999              -0.000002624              -0.000070525               0.999999999              -0.000000273              -0.000075212               0.999999999               0.000002655              -0.000081410               0.999999999               0.000006158              -0.000088689               0.999999999               0.000010204              -0.000097110               0.999999999               0.000014840              -0.000106612               0.999999999               0.000020063              -0.000117260               0.999999999               0.000025667              -0.000128562               0.999999999               0.000031502              -0.000140290               0.999999999               0.000037606              -0.000152163               0.999999999               0.000044028              -0.000164561               0.999999999               0.000050784              -0.000177680               0.999999999               0.000057906              -0.000191179               0.999999999               0.000065485              -0.000205084               0.999999999              -0.000006865              -0.000089635               0.999999999              -0.000006817              -0.000080965               0.999999999              -0.000005648              -0.000080587               0.999999999              -0.000003451              -0.000084220               0.999999999              -0.000000453              -0.000090261               0.999999999               0.000003272              -0.000097987               0.999999999               0.000007616              -0.000107059               0.999999999               0.000012555              -0.000117444               0.999999999               0.000018121              -0.000129121               0.999999999               0.000024252              -0.000141936               0.999999999               0.000030706              -0.000155359               0.999999999               0.000037373              -0.000169164               0.999999999               0.000044343              -0.000183326               0.999999999               0.000051636              -0.000198235               0.999999999               0.000059312              -0.000214052               0.999999999               0.000067479              -0.000230442               0.999999999               0.000076133              -0.000247425               0.999999999              -0.000006176              -0.000102194               0.999999999              -0.000007821              -0.000092699               0.999999999              -0.000006639              -0.000092841               0.999999999              -0.000003900              -0.000097509               0.999999999              -0.000000180              -0.000104965               0.999999999               0.000004272              -0.000114321               0.999999999               0.000009362              -0.000125314               0.999999999               0.000015145              -0.000137858               0.999999999               0.000021606              -0.000151922               0.999999999               0.000028527              -0.000166994               0.999999999               0.000035695              -0.000182602               0.999999999               0.000043123              -0.000198793               0.999999999               0.000050808              -0.000215801               0.999999999               0.000058884              -0.000233881               0.999999999               0.000067485              -0.000253112               0.999999999               0.000076648              -0.000273057               0.999999999               0.000086274              -0.000293592               0.999999999              -0.000005393              -0.000113586               0.999999999              -0.000008691              -0.000103793               0.999999999              -0.000007236              -0.000104485               0.999999999              -0.000003905              -0.000110240               0.999999999               0.000000497              -0.000119109               0.999999999               0.000005596              -0.000130209               0.999999999               0.000011404              -0.000143356               0.999999999               0.000018010              -0.000158270               0.999999999               0.000025264              -0.000174688               0.999999999               0.000032776              -0.000192109               0.999999999               0.000040480              -0.000210422               0.999999999               0.000048370              -0.000229771               0.999999999               0.000056606              -0.000250490               0.999999999               0.000065468              -0.000272634               0.999999999               0.000074932              -0.000295832               0.999999999               0.000084901              -0.000319877               0.999999999               0.000095202              -0.000344590               0.999999999              -0.000004392              -0.000124191               0.999999999              -0.000009051              -0.000115144               0.999999999              -0.000008245              -0.000114839               0.999999999              -0.000005340              -0.000119369               0.999999999              -0.000001476              -0.000126982               0.999999999               0.000003010              -0.000136832               0.999999999               0.000007982              -0.000148598               0.999999999               0.000013622              -0.000161990               0.999999999               0.000019917              -0.000176876               0.999999999               0.000026573              -0.000192949               0.999999999               0.000033296              -0.000210029               0.999999999               0.000039906              -0.000228130               0.999999999               0.000046562              -0.000247445               0.999999999               0.000053776              -0.000268043               0.999999999               0.000061578              -0.000289890               0.999999999               0.000069728              -0.000312770               0.999999999               0.000078262              -0.000336711               0.999999999              -0.000003451              -0.000133729               0.999999999              -0.000008913              -0.000125900               0.999999999              -0.000008784              -0.000125159               0.999999999              -0.000006434              -0.000128732               0.999999999              -0.000003107              -0.000135222               0.999999999               0.000000676              -0.000143971               0.999999999               0.000004900              -0.000154447               0.999999999               0.000009578              -0.000166493               0.999999999               0.000014890              -0.000179998               0.999999999               0.000020495              -0.000194734               0.999999999               0.000026233              -0.000210593               0.999999999               0.000031917              -0.000227497               0.999999999               0.000037514              -0.000245418               0.999999999               0.000043228              -0.000264565               0.999999999               0.000049352              -0.000284926               0.999999999               0.000055875              -0.000306369               0.999999999               0.000062853              -0.000328833               0.999999999              -0.000002618              -0.000142053               0.999999999              -0.000008321              -0.000135859               0.999999999              -0.000008742              -0.000135066               0.999999999              -0.000006982              -0.000138001               0.999999999              -0.000004298              -0.000143673               0.999999999              -0.000001175              -0.000151414               0.999999999               0.000002208              -0.000160854               0.999999999               0.000006012              -0.000171767               0.999999999               0.000010273              -0.000184040               0.999999999               0.000014802              -0.000197614               0.999999999               0.000019528              -0.000212255               0.999999999               0.000024474              -0.000227907               0.999999999               0.000029131              -0.000244646               0.999999999               0.000033582              -0.000262534               0.999999999               0.000038347              -0.000281553               0.999999999               0.000043430              -0.000301627               0.999999999               0.000048683              -0.000322716               0.999999999              -0.000001903              -0.000149023               0.999999999              -0.000007251              -0.000144628               0.999999999              -0.000008076              -0.000144148               0.999999999              -0.000006888              -0.000146794               0.999999999              -0.000004815              -0.000151877               0.999999999              -0.000002441              -0.000158864               0.999999999               0.000000192              -0.000167440               0.999999999               0.000003105              -0.000177453               0.999999999               0.000006386              -0.000188720               0.999999999               0.000009929              -0.000201200               0.999999999               0.000013780              -0.000214772               0.999999999               0.000017695              -0.000229376               0.999999999               0.000021453              -0.000245090               0.999999999               0.000024960              -0.000261882               0.999999999               0.000028516              -0.000279838               0.999999999               0.000032269              -0.000298812               0.999999999               0.000035885              -0.000318771               0.999999999              -0.000001313              -0.000154602               0.999999999              -0.000005805              -0.000151911               0.999999999              -0.000006766              -0.000151920               0.999999999              -0.000006065              -0.000154541               0.999999999              -0.000004601              -0.000159274               0.999999999              -0.000002902              -0.000165718               0.999999999              -0.000001001              -0.000173678               0.999999999               0.000001113              -0.000182973               0.999999999               0.000003531              -0.000193469               0.999999999               0.000006154              -0.000205104               0.999999999               0.000008954              -0.000217812               0.999999999               0.000011808              -0.000231695               0.999999999               0.000014632              -0.000246690               0.999999999               0.000017363              -0.000262694               0.999999999               0.000019922              -0.000279749               0.999999999               0.000022352              -0.000297818               0.999999999               0.000024528              -0.000316896               0.999999999              -0.000000805              -0.000158656               0.999999999              -0.000004039              -0.000157352               0.999999999              -0.000004886              -0.000157908               0.999999999              -0.000004528              -0.000160649               0.999999999              -0.000003629              -0.000165200               0.999999999              -0.000002514              -0.000171362               0.999999999              -0.000001321              -0.000178886               0.999999999               0.000000093              -0.000187675               0.999999999               0.000001649              -0.000197699               0.999999999               0.000003358              -0.000208861               0.999999999               0.000005116              -0.000221072               0.999999999               0.000007009              -0.000234379               0.999999999               0.000008911              -0.000248824               0.999999999               0.000010809              -0.000264415               0.999999999               0.000012523              -0.000280943               0.999999999               0.000013789              -0.000298337               0.999999999               0.000014623              -0.000316754               0.999999999              -0.000000367              -0.000161085               0.999999999              -0.000002062              -0.000160738               0.999999999              -0.000002582              -0.000161711               0.999999999              -0.000002423              -0.000164565               0.999999999              -0.000001999              -0.000169084               0.999999999              -0.000001456              -0.000175101               0.999999999              -0.000000871              -0.000182388               0.999999999              -0.000000157              -0.000190911               0.999999999               0.000000595              -0.000200664               0.999999999               0.000001323              -0.000211561               0.999999999               0.000002298              -0.000223571               0.999999999               0.000003253              -0.000236659               0.999999999               0.000004219              -0.000250801               0.999999999               0.000005132              -0.000266036               0.999999999               0.000005899              -0.000282306               0.999999999               0.000006462              -0.000299545               0.999999999               0.000006641              -0.000317712               0.999999999               0.000000000              -0.000161886               0.999999999              -0.000000000              -0.000161911               0.999999999               0.000000000              -0.000163037               0.999999999               0.000000000              -0.000165897               0.999999999              -0.000000000              -0.000170436               0.999999999               0.000000000              -0.000176395               0.999999999               0.000000000              -0.000183620               0.999999999              -0.000000000              -0.000192102               0.999999999              -0.000000000              -0.000201727               0.999999999               0.000000000              -0.000212496               0.999999999               0.000000000              -0.000224460               0.999999999              -0.000000000              -0.000237534               0.999999999              -0.000000000              -0.000251672               0.999999999               0.000000000              -0.000266745               0.999999999               0.000000000              -0.000282835               0.999999999              -0.000000000              -0.000300172               0.999999999              -0.000000000              -0.000318430               0.999999999              -0.000009045               0.000000000               0.999999999              -0.000002708               0.000000000               0.999999999               0.000000184               0.000000000               0.999999999               0.000001561              -0.000000000               0.999999999               0.000002304              -0.000000000               0.999999999               0.000002872              -0.000000000               0.999999999               0.000003536               0.000000000               0.999999999               0.000004432               0.000000000               0.999999999               0.000005637               0.000000000               0.999999999               0.000007265               0.000000000               0.999999999               0.000009334               0.000000000               0.999999999               0.000011884               0.000000000               0.999999999               0.000014959               0.000000000               0.999999999               0.000018452               0.000000000               0.999999999               0.000022366               0.000000000               0.999999999               0.000026837              -0.000000000               0.999999999               0.000031832              -0.000000000               0.999999999              -0.000008969               0.000015815               0.999999999              -0.000002842               0.000014295               0.999999999              -0.000000060               0.000013863               0.999999999               0.000001308               0.000014137               0.999999999               0.000002107               0.000014861               0.999999999               0.000002794               0.000015936               0.999999999               0.000003600               0.000017285               0.999999999               0.000004647               0.000018907               0.999999999               0.000006050               0.000020734               0.999999999               0.000007845               0.000022855               0.999999999               0.000010110               0.000025235               0.999999999               0.000012891               0.000027814               0.999999999               0.000016164               0.000030531               0.999999999               0.000019892               0.000033237               0.999999999               0.000024048               0.000036111               0.999999999               0.000028642               0.000039253               0.999999999               0.000033720               0.000042603               0.999999999              -0.000008769               0.000031507               0.999999999              -0.000003222               0.000028410               0.999999999              -0.000000732               0.000027669               0.999999999               0.000000610               0.000028284               0.999999999               0.000001588               0.000029817               0.999999999               0.000002598               0.000031984               0.999999999               0.000003814               0.000034757               0.999999999               0.000005329               0.000037929               0.999999999               0.000007223               0.000041672               0.999999999               0.000009596               0.000045831               0.999999999               0.000012434               0.000050621               0.999999999               0.000015768               0.000055747               0.999999999               0.000019589               0.000061029               0.999999999               0.000023776               0.000066321               0.999999999               0.000028410               0.000071929               0.999999999               0.000033514               0.000077985               0.999999999               0.000039025               0.000084325               0.999999999              -0.000008436               0.000046899               0.999999999              -0.000003865               0.000042227               0.999999999              -0.000001781               0.000041300               0.999999999              -0.000000394               0.000042424               0.999999999               0.000000912               0.000044870               0.999999999               0.000002416               0.000048292               0.999999999               0.000004266               0.000052444               0.999999999               0.000006478               0.000057337               0.999999999               0.000009186               0.000062861               0.999999999               0.000012389               0.000069204               0.999999999               0.000016106               0.000076244               0.999999999               0.000020280               0.000083720               0.999999999               0.000024808               0.000091331               0.999999999               0.000029709               0.000099072               0.999999999               0.000035035               0.000107324               0.999999999               0.000040750               0.000115961               0.999999999               0.000046813               0.000124872               0.999999999              -0.000007980               0.000061803               0.999999999              -0.000004743               0.000055657               0.999999999              -0.000003045               0.000054706               0.999999999              -0.000001542               0.000056544               0.999999999               0.000000213               0.000060043               0.999999999               0.000002412               0.000064778               0.999999999               0.000005036               0.000070465               0.999999999               0.000008151               0.000077020               0.999999999               0.000011777               0.000084501               0.999999999               0.000015992               0.000092968               0.999999999               0.000020674               0.000102237               0.999999999               0.000025693               0.000111875               0.999999999               0.000031018               0.000121680               0.999999999               0.000036640               0.000131762               0.999999999               0.000042682               0.000142448               0.999999999               0.000049076               0.000153442               0.999999999               0.000055754               0.000164702               0.999999999              -0.000007459               0.000076100               0.999999999              -0.000005756               0.000068599               0.999999999              -0.000004394               0.000067843               0.999999999              -0.000002624               0.000070525               0.999999999              -0.000000273               0.000075212               0.999999999               0.000002655               0.000081410               0.999999999               0.000006158               0.000088689               0.999999999               0.000010204               0.000097110               0.999999999               0.000014840               0.000106612               0.999999999               0.000020063               0.000117260               0.999999999               0.000025667               0.000128562               0.999999999               0.000031502               0.000140290               0.999999999               0.000037606               0.000152163               0.999999999               0.000044028               0.000164561               0.999999999               0.000050784               0.000177680               0.999999999               0.000057906               0.000191179               0.999999999               0.000065485               0.000205084               0.999999999              -0.000006865               0.000089635               0.999999999              -0.000006817               0.000080965               0.999999999              -0.000005648               0.000080587               0.999999999              -0.000003451               0.000084220               0.999999999              -0.000000453               0.000090261               0.999999999               0.000003272               0.000097987               0.999999999               0.000007616               0.000107059               0.999999999               0.000012555               0.000117444               0.999999999               0.000018121               0.000129121               0.999999999               0.000024252               0.000141936               0.999999999               0.000030706               0.000155359               0.999999999               0.000037373               0.000169164               0.999999999               0.000044343               0.000183326               0.999999999               0.000051636               0.000198235               0.999999999               0.000059312               0.000214052               0.999999999               0.000067479               0.000230442               0.999999999               0.000076133               0.000247425               0.999999999              -0.000006176               0.000102194               0.999999999              -0.000007821               0.000092699               0.999999999              -0.000006639               0.000092841               0.999999999              -0.000003900               0.000097509               0.999999999              -0.000000180               0.000104965               0.999999999               0.000004272               0.000114321               0.999999999               0.000009362               0.000125314               0.999999999               0.000015145               0.000137858               0.999999999               0.000021606               0.000151922               0.999999999               0.000028527               0.000166994               0.999999999               0.000035695               0.000182602               0.999999999               0.000043123               0.000198793               0.999999999               0.000050808               0.000215801               0.999999999               0.000058884               0.000233881               0.999999999               0.000067485               0.000253112               0.999999999               0.000076648               0.000273057               0.999999999               0.000086274               0.000293592               0.999999999              -0.000005393               0.000113586               0.999999999              -0.000008691               0.000103793               0.999999999              -0.000007236               0.000104485               0.999999999              -0.000003905               0.000110240               0.999999999               0.000000497               0.000119109               0.999999999               0.000005596               0.000130209               0.999999999               0.000011404               0.000143356               0.999999999               0.000018010               0.000158270               0.999999999               0.000025264               0.000174688               0.999999999               0.000032776               0.000192109               0.999999999               0.000040480               0.000210422               0.999999999               0.000048370               0.000229771               0.999999999               0.000056606               0.000250490               0.999999999               0.000065468               0.000272634               0.999999999               0.000074932               0.000295832               0.999999999               0.000084901               0.000319877               0.999999999               0.000095202               0.000344590               0.999999999              -0.000004392               0.000124191               0.999999999              -0.000009051               0.000115144               0.999999999              -0.000008245               0.000114839               0.999999999              -0.000005340               0.000119369               0.999999999              -0.000001476               0.000126982               0.999999999               0.000003010               0.000136832               0.999999999               0.000007982               0.000148598               0.999999999               0.000013622               0.000161990               0.999999999               0.000019917               0.000176876               0.999999999               0.000026573               0.000192949               0.999999999               0.000033296               0.000210029               0.999999999               0.000039906               0.000228130               0.999999999               0.000046562               0.000247445               0.999999999               0.000053776               0.000268043               0.999999999               0.000061578               0.000289890               0.999999999               0.000069728               0.000312770               0.999999999               0.000078262               0.000336711               0.999999999              -0.000003451               0.000133729               0.999999999              -0.000008913               0.000125900               0.999999999              -0.000008784               0.000125159               0.999999999              -0.000006434               0.000128732               0.999999999              -0.000003107               0.000135222               0.999999999               0.000000676               0.000143971               0.999999999               0.000004900               0.000154447               0.999999999               0.000009578               0.000166493               0.999999999               0.000014890               0.000179998               0.999999999               0.000020495               0.000194734               0.999999999               0.000026233               0.000210593               0.999999999               0.000031917               0.000227497               0.999999999               0.000037514               0.000245418               0.999999999               0.000043228               0.000264565               0.999999999               0.000049352               0.000284926               0.999999999               0.000055875               0.000306369               0.999999999               0.000062853               0.000328833               0.999999999              -0.000002618               0.000142053               0.999999999              -0.000008321               0.000135859               0.999999999              -0.000008742               0.000135066               0.999999999              -0.000006982               0.000138001               0.999999999              -0.000004298               0.000143673               0.999999999              -0.000001175               0.000151414               0.999999999               0.000002208               0.000160854               0.999999999               0.000006012               0.000171767               0.999999999               0.000010273               0.000184040               0.999999999               0.000014802               0.000197614               0.999999999               0.000019528               0.000212255               0.999999999               0.000024474               0.000227907               0.999999999               0.000029131               0.000244646               0.999999999               0.000033582               0.000262534               0.999999999               0.000038347               0.000281553               0.999999999               0.000043430               0.000301627               0.999999999               0.000048683               0.000322716               0.999999999              -0.000001903               0.000149023               0.999999999              -0.000007251               0.000144628               0.999999999              -0.000008076               0.000144148               0.999999999              -0.000006888               0.000146794               0.999999999              -0.000004815               0.000151877               0.999999999              -0.000002441               0.000158864               0.999999999               0.000000192               0.000167440               0.999999999               0.000003105               0.000177453               0.999999999               0.000006386               0.000188720               0.999999999               0.000009929               0.000201200               0.999999999               0.000013780               0.000214772               0.999999999               0.000017695               0.000229376               0.999999999               0.000021453               0.000245090               0.999999999               0.000024960               0.000261882               0.999999999               0.000028516               0.000279838               0.999999999               0.000032269               0.000298812               0.999999999               0.000035885               0.000318771               0.999999999              -0.000001313               0.000154602               0.999999999              -0.000005805               0.000151911               0.999999999              -0.000006766               0.000151920               0.999999999              -0.000006065               0.000154541               0.999999999              -0.000004601               0.000159274               0.999999999              -0.000002902               0.000165718               0.999999999              -0.000001001               0.000173678               0.999999999               0.000001113               0.000182973               0.999999999               0.000003531               0.000193469               0.999999999               0.000006154               0.000205104               0.999999999               0.000008954               0.000217812               0.999999999               0.000011808               0.000231695               0.999999999               0.000014632               0.000246690               0.999999999               0.000017363               0.000262694               0.999999999               0.000019922               0.000279749               0.999999999               0.000022352               0.000297818               0.999999999               0.000024528               0.000316896               0.999999999              -0.000000805               0.000158656               0.999999999              -0.000004039               0.000157352               0.999999999              -0.000004886               0.000157908               0.999999999              -0.000004528               0.000160649               0.999999999              -0.000003629               0.000165200               0.999999999              -0.000002514               0.000171362               0.999999999              -0.000001321               0.000178886               0.999999999               0.000000093               0.000187675               0.999999999               0.000001649               0.000197699               0.999999999               0.000003358               0.000208861               0.999999999               0.000005116               0.000221072               0.999999999               0.000007009               0.000234379               0.999999999               0.000008911               0.000248824               0.999999999               0.000010809               0.000264415               0.999999999               0.000012523               0.000280943               0.999999999               0.000013789               0.000298337               0.999999999               0.000014623               0.000316754               0.999999999              -0.000000367               0.000161085               0.999999999              -0.000002062               0.000160738               0.999999999              -0.000002582               0.000161711               0.999999999              -0.000002423               0.000164565               0.999999999              -0.000001999               0.000169084               0.999999999              -0.000001456               0.000175101               0.999999999              -0.000000871               0.000182388               0.999999999              -0.000000157               0.000190911               0.999999999               0.000000595               0.000200664               0.999999999               0.000001323               0.000211561               0.999999999               0.000002298               0.000223571               0.999999999               0.000003253               0.000236659               0.999999999               0.000004219               0.000250801               0.999999999               0.000005132               0.000266036               0.999999999               0.000005899               0.000282306               0.999999999               0.000006462               0.000299545               0.999999999               0.000006641               0.000317712               0.999999999               0.000000000               0.000161886               0.999999999              -0.000000000               0.000161911               0.999999999               0.000000000               0.000163037               0.999999999              -0.000000000               0.000165897               0.999999999               0.000000000               0.000170436               0.999999999              -0.000000000               0.000176395               0.999999999              -0.000000000               0.000183620               0.999999999               0.000000000               0.000192102               0.999999999               0.000000000               0.000201727               0.999999999               0.000000000               0.000212496               0.999999999               0.000000000               0.000224460               0.999999999               0.000000000               0.000237534               0.999999999               0.000000000               0.000251672               0.999999999               0.000000000               0.000266745               0.999999999              -0.000000000               0.000282835               0.999999999               0.000000000               0.000300172               0.999999999               0.000000000               0.000318430               0.999999999 </DataArray>
<DataArray type="Float64"                                    Name="stress"                                                      NumberOfComponents="10" format="ascii">
              0.000267648               0.002982832               0.000000000              -0.000272485               0.001085096               0.000812611               0.000000000               0.000000000               0.000000000               0.000000000               0.000313611               0.002492749               0.000000000              -0.000193989               0.000895571               0.000701582               0.000000000               0.000000000               0.000000000               0.000000000               0.000453988               0.002088507               0.000000000              -0.000090818               0.000726435               0.000635617               0.000000000               0.000000000               0.000000000               0.000000000               0.000497462               0.001863188               0.000000000              -0.000046350               0.000636507               0.000590156               0.000000000               0.000000000               0.000000000               0.000000000               0.000497051               0.001731228              -0.000000000              -0.000030009               0.000587073               0.000557064               0.000000000               0.000000000               0.000000000               0.000000000               0.000474039               0.001653384               0.000000000              -0.000028908               0.000560759               0.000531850               0.000000000               0.000000000               0.000000000               0.000000000               0.000440160               0.001609806               0.000000000              -0.000036166               0.000548652               0.000512486               0.000000000               0.000000000               0.000000000               0.000000000               0.000401633               0.001590497               0.000000000              -0.000048199               0.000546227               0.000498027               0.000000000               0.000000000               0.000000000               0.000000000               0.000358015               0.001586853              -0.000000000              -0.000064101               0.000550312               0.000486212               0.000000000               0.000000000               0.000000000               0.000000000               0.000312185               0.001598640              -0.000000000              -0.000082760               0.000560461               0.000477701               0.000000000               0.000000000               0.000000000               0.000000000               0.000265499               0.001621771               0.000000000              -0.000103159               0.000574971               0.000471812               0.000000000               0.000000000               0.000000000               0.000000000               0.000217013               0.001650445               0.000000000              -0.000124926               0.000591785               0.000466859               0.000000000               0.000000000               0.000000000               0.000000000               0.000173036               0.001681661               0.000000000              -0.000145319               0.000608988               0.000463669               0.000000000               0.000000000               0.000000000               0.000000000               0.000133662               0.001711257              -0.000000000              -0.000163783               0.000625008               0.000461224               0.000000000               0.000000000               0.000000000               0.000000000               0.000089428               0.001741876              -0.000000000              -0.000184199               0.000642019               0.000457820               0.000000000               0.000000000               0.000000000               0.000000000               0.000041681               0.001777442              -0.000000000              -0.000206549               0.000661325               0.000454775               0.000000000               0.000000000               0.000000000               0.000000000               0.000022466               0.001807275              -0.000000000              -0.000217484               0.000674913               0.000457430               0.000000000               0.000000000               0.000000000               0.000000000               0.000285751               0.002938165              -0.000233049              -0.000260113               0.001066083               0.000805969               0.000000000               0.000000000               0.000000000               0.000000000               0.000320821               0.002459492              -0.000159361              -0.000187128               0.000882198               0.000695070               0.000000000               0.000000000               0.000000000               0.000000000               0.000449325               0.002072434              -0.000081918              -0.000090557               0.000720990               0.000630433               0.000000000               0.000000000               0.000000000               0.000000000               0.000486025               0.001856189              -0.000044807              -0.000049764               0.000635312               0.000585547               0.000000000               0.000000000               0.000000000               0.000000000               0.000482491               0.001729715              -0.000027396              -0.000035280               0.000588326               0.000553046               0.000000000               0.000000000               0.000000000               0.000000000               0.000458685               0.001654399              -0.000019213              -0.000034793               0.000563059               0.000528266               0.000000000               0.000000000               0.000000000               0.000000000               0.000426559               0.001613307              -0.000015241              -0.000041704               0.000551665               0.000509961               0.000000000               0.000000000               0.000000000               0.000000000               0.000388452               0.001593117              -0.000013003              -0.000053470               0.000548857               0.000495387               0.000000000               0.000000000               0.000000000               0.000000000               0.000346742               0.001591023              -0.000010871              -0.000068849               0.000553286               0.000484436               0.000000000               0.000000000               0.000000000               0.000000000               0.000302656               0.001601833              -0.000007797              -0.000086733               0.000562850               0.000476117               0.000000000               0.000000000               0.000000000               0.000000000               0.000256803               0.001624840              -0.000006333              -0.000106804               0.000577209               0.000470405               0.000000000               0.000000000               0.000000000               0.000000000               0.000210227               0.001652438              -0.000007676              -0.000127719               0.000593380               0.000465661               0.000000000               0.000000000               0.000000000               0.000000000               0.000167517               0.001680186              -0.000012064              -0.000147204               0.000609124               0.000461920               0.000000000               0.000000000               0.000000000               0.000000000               0.000127558               0.001706103              -0.000014235              -0.000165428               0.000623838               0.000458410               0.000000000               0.000000000               0.000000000               0.000000000               0.000086380               0.001734128              -0.000010399              -0.000184373               0.000639495               0.000455122               0.000000000               0.000000000               0.000000000               0.000000000               0.000043483               0.001766127              -0.000005367              -0.000204459               0.000656856               0.000452397               0.000000000               0.000000000               0.000000000               0.000000000               0.000025268               0.001791778              -0.000003820              -0.000214496               0.000668752               0.000454256               0.000000000               0.000000000               0.000000000               0.000000000               0.000333223               0.002805794              -0.000444868              -0.000225765               0.001010510               0.000784745               0.000000000               0.000000000               0.000000000               0.000000000               0.000338700               0.002364314              -0.000303322              -0.000168526               0.000844272               0.000675746               0.000000000               0.000000000               0.000000000               0.000000000               0.000434050               0.002023764              -0.000157347              -0.000090202               0.000704648               0.000614447               0.000000000               0.000000000               0.000000000               0.000000000               0.000453614               0.001834430              -0.000089801              -0.000059198               0.000631203               0.000572005               0.000000000               0.000000000               0.000000000               0.000000000               0.000443026               0.001723830              -0.000058115              -0.000049344               0.000591052               0.000541708               0.000000000               0.000000000               0.000000000               0.000000000               0.000418284               0.001658520              -0.000042351              -0.000050459               0.000569654               0.000519196               0.000000000               0.000000000               0.000000000               0.000000000               0.000388438               0.001621458              -0.000034671              -0.000057018               0.000559487               0.000502469               0.000000000               0.000000000               0.000000000               0.000000000               0.000354357               0.001604577              -0.000029306              -0.000067688               0.000557416               0.000489728               0.000000000               0.000000000               0.000000000               0.000000000               0.000314838               0.001602132              -0.000024152              -0.000082202               0.000561439               0.000479237               0.000000000               0.000000000               0.000000000               0.000000000               0.000274634               0.001613540              -0.000017925              -0.000098704               0.000570743               0.000472038               0.000000000               0.000000000               0.000000000               0.000000000               0.000234619               0.001633609              -0.000013907              -0.000116219               0.000583271               0.000467052               0.000000000               0.000000000               0.000000000               0.000000000               0.000193704               0.001654752              -0.000016921              -0.000134205               0.000596313               0.000462109               0.000000000               0.000000000               0.000000000               0.000000000               0.000156778               0.001674176              -0.000023646              -0.000150480               0.000608213               0.000457733               0.000000000               0.000000000               0.000000000               0.000000000               0.000120053               0.001693800              -0.000024795              -0.000166705               0.000620163               0.000453458               0.000000000               0.000000000               0.000000000               0.000000000               0.000079199               0.001715033              -0.000017165              -0.000184679               0.000633232               0.000448553               0.000000000               0.000000000               0.000000000               0.000000000               0.000039185               0.001736003              -0.000009605              -0.000202305               0.000646097               0.000443792               0.000000000               0.000000000               0.000000000               0.000000000               0.000022553               0.001752147              -0.000007704              -0.000210561               0.000654230               0.000443670               0.000000000               0.000000000               0.000000000               0.000000000               0.000402025               0.002598797              -0.000615686              -0.000174090               0.000924287               0.000750197               0.000000000               0.000000000               0.000000000               0.000000000               0.000362820               0.002221206              -0.000420453              -0.000141593               0.000787592               0.000645999               0.000000000               0.000000000               0.000000000               0.000000000               0.000408141               0.001949917              -0.000222324              -0.000090687               0.000680195               0.000589508               0.000000000               0.000000000               0.000000000               0.000000000               0.000405612               0.001801221              -0.000134011              -0.000073048               0.000624750               0.000551702               0.000000000               0.000000000               0.000000000               0.000000000               0.000387629               0.001713653              -0.000091887              -0.000068846               0.000594161               0.000525315               0.000000000               0.000000000               0.000000000               0.000000000               0.000363150               0.001662424              -0.000071384              -0.000071622               0.000578010               0.000506388               0.000000000               0.000000000               0.000000000               0.000000000               0.000336446               0.001632911              -0.000059295              -0.000077946               0.000570280               0.000492334               0.000000000               0.000000000               0.000000000               0.000000000               0.000305892               0.001620518              -0.000050350              -0.000087855               0.000569452               0.000481597               0.000000000               0.000000000               0.000000000               0.000000000               0.000269968               0.001620210              -0.000040253              -0.000101288               0.000573827               0.000472539               0.000000000               0.000000000               0.000000000               0.000000000               0.000235344               0.001632823              -0.000029454              -0.000115849               0.000582885               0.000467036               0.000000000               0.000000000               0.000000000               0.000000000               0.000202143               0.001647448              -0.000024218              -0.000130127               0.000592520               0.000462393               0.000000000               0.000000000               0.000000000               0.000000000               0.000171628               0.001659692              -0.000026825              -0.000143101               0.000600925               0.000457825               0.000000000               0.000000000               0.000000000               0.000000000               0.000142069               0.001670475              -0.000031832              -0.000155533               0.000608664               0.000453131               0.000000000               0.000000000               0.000000000               0.000000000               0.000107746               0.001683112              -0.000027931              -0.000169984               0.000617693               0.000447709               0.000000000               0.000000000               0.000000000               0.000000000               0.000070559               0.001697094              -0.000017966              -0.000185677               0.000627585               0.000441908               0.000000000               0.000000000               0.000000000               0.000000000               0.000035152               0.001707431              -0.000010565              -0.000200246               0.000635887               0.000435640               0.000000000               0.000000000               0.000000000               0.000000000               0.000019836               0.001715225              -0.000008205              -0.000206964               0.000640724               0.000433760               0.000000000               0.000000000               0.000000000               0.000000000               0.000478532               0.002341860              -0.000732860              -0.000113283               0.000818373               0.000705090               0.000000000               0.000000000               0.000000000               0.000000000               0.000386923               0.002046480              -0.000505852              -0.000110714               0.000719058               0.000608344               0.000000000               0.000000000               0.000000000               0.000000000               0.000376164               0.001862684              -0.000276477              -0.000091774               0.000651480               0.000559706               0.000000000               0.000000000               0.000000000               0.000000000               0.000353251               0.001759846              -0.000176739              -0.000087512               0.000615780               0.000528268               0.000000000               0.000000000               0.000000000               0.000000000               0.000327575               0.001697856              -0.000128937              -0.000089391               0.000595744               0.000506352               0.000000000               0.000000000               0.000000000               0.000000000               0.000303529               0.001662669              -0.000103642              -0.000094010               0.000585554               0.000491544               0.000000000               0.000000000               0.000000000               0.000000000               0.000280341               0.001644356              -0.000087475              -0.000100416               0.000581585               0.000481169               0.000000000               0.000000000               0.000000000               0.000000000               0.000254305               0.001639944              -0.000073042              -0.000109629               0.000583185               0.000473557               0.000000000               0.000000000               0.000000000               0.000000000               0.000223261               0.001646391              -0.000056718              -0.000122076               0.000589483               0.000467408               0.000000000               0.000000000               0.000000000               0.000000000               0.000193735               0.001658055              -0.000041793              -0.000134606               0.000597548               0.000462942               0.000000000               0.000000000               0.000000000               0.000000000               0.000170637               0.001666893              -0.000034365              -0.000144372               0.000603750               0.000459377               0.000000000               0.000000000               0.000000000               0.000000000               0.000149137               0.001671870              -0.000034741              -0.000153057               0.000608304               0.000455246               0.000000000               0.000000000               0.000000000               0.000000000               0.000125499               0.001676026              -0.000034633              -0.000162441               0.000612817               0.000450376               0.000000000               0.000000000               0.000000000               0.000000000               0.000095507               0.001684329              -0.000024658              -0.000174726               0.000619679               0.000444954               0.000000000               0.000000000               0.000000000               0.000000000               0.000061299               0.001693650              -0.000013188              -0.000188719               0.000627450               0.000438732               0.000000000               0.000000000               0.000000000               0.000000000               0.000030720               0.001702609              -0.000007389              -0.000201306               0.000634633               0.000433327               0.000000000               0.000000000               0.000000000               0.000000000               0.000019241               0.001711454              -0.000006314              -0.000206716               0.000639384               0.000432668               0.000000000               0.000000000               0.000000000               0.000000000               0.000544516               0.002056051              -0.000796167              -0.000052814               0.000702948               0.000650134               0.000000000               0.000000000               0.000000000               0.000000000               0.000405583               0.001853929              -0.000559128              -0.000079648               0.000644519               0.000564872               0.000000000               0.000000000               0.000000000               0.000000000               0.000342159               0.001765949              -0.000320040              -0.000092434               0.000619455               0.000527021               0.000000000               0.000000000               0.000000000               0.000000000               0.000303725               0.001709142              -0.000217337              -0.000099746               0.000602957               0.000503211               0.000000000               0.000000000               0.000000000               0.000000000               0.000276139               0.001676225              -0.000165871              -0.000105976               0.000594061               0.000488086               0.000000000               0.000000000               0.000000000               0.000000000               0.000252779               0.001658762              -0.000135920              -0.000112553               0.000590433               0.000477880               0.000000000               0.000000000               0.000000000               0.000000000               0.000231544               0.001654458              -0.000114022              -0.000119978               0.000591473               0.000471495               0.000000000               0.000000000               0.000000000               0.000000000               0.000208029               0.001661860              -0.000092775              -0.000129721               0.000597188               0.000467467               0.000000000               0.000000000               0.000000000               0.000000000               0.000179906               0.001674657              -0.000070910              -0.000141867               0.000605502               0.000463635               0.000000000               0.000000000               0.000000000               0.000000000               0.000156347               0.001686278              -0.000053730              -0.000152154               0.000612805               0.000460651               0.000000000               0.000000000               0.000000000               0.000000000               0.000142479               0.001691809              -0.000044927              -0.000158046               0.000616613               0.000458567               0.000000000               0.000000000               0.000000000               0.000000000               0.000128510               0.001694240              -0.000042720              -0.000163588               0.000619270               0.000455682               0.000000000               0.000000000               0.000000000               0.000000000               0.000109301               0.001699162              -0.000037774              -0.000171407               0.000623517               0.000452111               0.000000000               0.000000000               0.000000000               0.000000000               0.000087030               0.001711770              -0.000022740              -0.000181334               0.000631029               0.000449695               0.000000000               0.000000000               0.000000000               0.000000000               0.000060688               0.001727614              -0.000010782              -0.000193193               0.000640263               0.000447070               0.000000000               0.000000000               0.000000000               0.000000000               0.000031258               0.001745370              -0.000006385              -0.000206449               0.000650601               0.000444152               0.000000000               0.000000000               0.000000000               0.000000000               0.000020430               0.001761786              -0.000007033              -0.000212561               0.000658110               0.000445548               0.000000000               0.000000000               0.000000000               0.000000000               0.000591986               0.001758308              -0.000809758               0.000002205               0.000585362               0.000587567               0.000000000               0.000000000               0.000000000               0.000000000               0.000417190               0.001657498              -0.000583873              -0.000050741               0.000569407               0.000518666               0.000000000               0.000000000               0.000000000               0.000000000               0.000312184               0.001665618              -0.000354956              -0.000091133               0.000585578               0.000494445               0.000000000               0.000000000               0.000000000               0.000000000               0.000266816               0.001654074              -0.000253716              -0.000106703               0.000586920               0.000480217               0.000000000               0.000000000               0.000000000               0.000000000               0.000240893               0.001648568              -0.000199211              -0.000115736               0.000588096               0.000472360               0.000000000               0.000000000               0.000000000               0.000000000               0.000218498               0.001648485              -0.000163390              -0.000124124               0.000590864               0.000466741               0.000000000               0.000000000               0.000000000               0.000000000               0.000197616               0.001660312              -0.000134437              -0.000133433               0.000597909               0.000464477               0.000000000               0.000000000               0.000000000               0.000000000               0.000174396               0.001680399              -0.000107146              -0.000144651               0.000608344               0.000463693               0.000000000               0.000000000               0.000000000               0.000000000               0.000149796               0.001703033              -0.000082496              -0.000156705               0.000619907               0.000463202               0.000000000               0.000000000               0.000000000               0.000000000               0.000130454               0.001716385              -0.000064699              -0.000165628               0.000627332               0.000461704               0.000000000               0.000000000               0.000000000               0.000000000               0.000119740               0.001723639              -0.000054971              -0.000170552               0.000631391               0.000460839               0.000000000               0.000000000               0.000000000               0.000000000               0.000108798               0.001733437              -0.000048960              -0.000175880               0.000636433               0.000460553               0.000000000               0.000000000               0.000000000               0.000000000               0.000094197               0.001755129              -0.000038877              -0.000184067               0.000646393               0.000462326               0.000000000               0.000000000               0.000000000               0.000000000               0.000076685               0.001786251              -0.000021203              -0.000194524               0.000660253               0.000465729               0.000000000               0.000000000               0.000000000               0.000000000               0.000053543               0.001820359              -0.000009920              -0.000207466               0.000675935               0.000468470               0.000000000               0.000000000               0.000000000               0.000000000               0.000027338               0.001855244              -0.000006757              -0.000221653               0.000692293               0.000470640               0.000000000               0.000000000               0.000000000               0.000000000               0.000019457               0.001881320              -0.000008257              -0.000227868               0.000703056               0.000475188               0.000000000               0.000000000               0.000000000               0.000000000               0.000618968               0.001470107              -0.000778793               0.000048348               0.000473914               0.000522263               0.000000000               0.000000000               0.000000000               0.000000000               0.000422784               0.001472055              -0.000585278              -0.000025464               0.000499168               0.000473704               0.000000000               0.000000000               0.000000000               0.000000000               0.000291817               0.001567678              -0.000382604              -0.000086528               0.000551397               0.000464868               0.000000000               0.000000000               0.000000000               0.000000000               0.000245809               0.001596246              -0.000284195              -0.000107352               0.000567861               0.000460508               0.000000000               0.000000000               0.000000000               0.000000000               0.000223031               0.001613386              -0.000224769              -0.000118036               0.000577135               0.000459099               0.000000000               0.000000000               0.000000000               0.000000000               0.000202788               0.001632960              -0.000181671              -0.000128074               0.000587006               0.000458932               0.000000000               0.000000000               0.000000000               0.000000000               0.000180884               0.001663452              -0.000146903              -0.000140100               0.000601178               0.000461079               0.000000000               0.000000000               0.000000000               0.000000000               0.000156505               0.001697670              -0.000115945              -0.000153519               0.000617057               0.000463538               0.000000000               0.000000000               0.000000000               0.000000000               0.000135724               0.001726531              -0.000089855              -0.000164919               0.000630478               0.000465558               0.000000000               0.000000000               0.000000000               0.000000000               0.000120687               0.001745183              -0.000071817              -0.000172890               0.000639352               0.000466462               0.000000000               0.000000000               0.000000000               0.000000000               0.000110314               0.001767055              -0.000059381              -0.000179514               0.000648850               0.000469337               0.000000000               0.000000000               0.000000000               0.000000000               0.000100872               0.001803525              -0.000046192              -0.000187613               0.000663707               0.000476093               0.000000000               0.000000000               0.000000000               0.000000000               0.000088475               0.001857391              -0.000030435              -0.000198995               0.000685456               0.000486461               0.000000000               0.000000000               0.000000000               0.000000000               0.000070107               0.001917594              -0.000014057              -0.000213408               0.000710328               0.000496919               0.000000000               0.000000000               0.000000000               0.000000000               0.000045876               0.001972818              -0.000004973              -0.000229398               0.000734066               0.000504667               0.000000000               0.000000000               0.000000000               0.000000000               0.000022637               0.002025332              -0.000003845              -0.000244677               0.000756663               0.000511986               0.000000000               0.000000000               0.000000000               0.000000000               0.000016925               0.002061222              -0.000007060              -0.000251305               0.000770835               0.000519530               0.000000000               0.000000000               0.000000000               0.000000000               0.000631210               0.001216391              -0.000718191               0.000084653               0.000377242               0.000461895               0.000000000               0.000000000               0.000000000               0.000000000               0.000430365               0.001305633              -0.000574484              -0.000001818               0.000435812               0.000433994               0.000000000               0.000000000               0.000000000               0.000000000               0.000286141               0.001476185              -0.000410517              -0.000077220               0.000517797               0.000440576               0.000000000               0.000000000               0.000000000               0.000000000               0.000243807               0.001540992              -0.000314333              -0.000101196               0.000547391               0.000446195               0.000000000               0.000000000               0.000000000               0.000000000               0.000222846               0.001579809              -0.000248575              -0.000113909               0.000564567               0.000450659               0.000000000               0.000000000               0.000000000               0.000000000               0.000205756               0.001621040              -0.000198649              -0.000125471               0.000582165               0.000456694               0.000000000               0.000000000               0.000000000               0.000000000               0.000182928               0.001667406              -0.000159436              -0.000139827               0.000602406               0.000462578               0.000000000               0.000000000               0.000000000               0.000000000               0.000157754               0.001710042              -0.000127550              -0.000154597               0.000621541               0.000466943               0.000000000               0.000000000               0.000000000               0.000000000               0.000140350               0.001743086              -0.000099752              -0.000165254               0.000636108               0.000470854               0.000000000               0.000000000               0.000000000               0.000000000               0.000131188               0.001773031              -0.000076838              -0.000172433               0.000648482               0.000476049               0.000000000               0.000000000               0.000000000               0.000000000               0.000124936               0.001817527              -0.000056502              -0.000180339               0.000665949               0.000485610               0.000000000               0.000000000               0.000000000               0.000000000               0.000115689               0.001884179              -0.000034987              -0.000192138               0.000692099               0.000499961               0.000000000               0.000000000               0.000000000               0.000000000               0.000099719               0.001966804              -0.000016782              -0.000208455               0.000725080               0.000516625               0.000000000               0.000000000               0.000000000               0.000000000               0.000080109               0.002046851              -0.000006078              -0.000225815               0.000757548               0.000531733               0.000000000               0.000000000               0.000000000               0.000000000               0.000059903               0.002115757              -0.000000482              -0.000242005               0.000785914               0.000543908               0.000000000               0.000000000               0.000000000               0.000000000               0.000042207               0.002181741               0.000002067              -0.000256889               0.000812870               0.000555980               0.000000000               0.000000000               0.000000000               0.000000000               0.000034574               0.002221137               0.000001248              -0.000264676               0.000828597               0.000563921               0.000000000               0.000000000               0.000000000               0.000000000               0.000626106               0.000968207              -0.000642485               0.000113762               0.000284811               0.000398574               0.000000000               0.000000000               0.000000000               0.000000000               0.000443588               0.001110301              -0.000557295               0.000027557               0.000360911               0.000388467               0.000000000               0.000000000               0.000000000               0.000000000               0.000297183               0.001335139              -0.000444324              -0.000055449               0.000463525               0.000408076               0.000000000               0.000000000               0.000000000               0.000000000               0.000254814               0.001439764              -0.000353946              -0.000084415               0.000508055               0.000423640               0.000000000               0.000000000               0.000000000               0.000000000               0.000236083               0.001506572              -0.000283759              -0.000099790               0.000535449               0.000435659               0.000000000               0.000000000               0.000000000               0.000000000               0.000220551               0.001566913              -0.000228645              -0.000113157               0.000560018               0.000446861               0.000000000               0.000000000               0.000000000               0.000000000               0.000199582               0.001621159              -0.000185007              -0.000127801               0.000582981               0.000455180               0.000000000               0.000000000               0.000000000               0.000000000               0.000174470               0.001672470              -0.000151678              -0.000143632               0.000605362               0.000461730               0.000000000               0.000000000               0.000000000               0.000000000               0.000155882               0.001720913              -0.000122968              -0.000156658               0.000625851               0.000469193               0.000000000               0.000000000               0.000000000               0.000000000               0.000145634               0.001768185              -0.000095282              -0.000166410               0.000644859               0.000478449               0.000000000               0.000000000               0.000000000               0.000000000               0.000142093               0.001826652              -0.000067505              -0.000175046               0.000667227               0.000492180               0.000000000               0.000000000               0.000000000               0.000000000               0.000140909               0.001903767              -0.000040879              -0.000185129               0.000696292               0.000511163               0.000000000               0.000000000               0.000000000               0.000000000               0.000135093               0.001993837              -0.000022488              -0.000198569               0.000730795               0.000532226               0.000000000               0.000000000               0.000000000               0.000000000               0.000122147               0.002084653              -0.000012684              -0.000214776               0.000766469               0.000551693               0.000000000               0.000000000               0.000000000               0.000000000               0.000106691               0.002167915              -0.000004235              -0.000230980               0.000799624               0.000568645               0.000000000               0.000000000               0.000000000               0.000000000               0.000094161               0.002250308               0.000002524              -0.000245978               0.000832088               0.000586110               0.000000000               0.000000000               0.000000000               0.000000000               0.000084074               0.002290575               0.000006519              -0.000254793               0.000848449               0.000593655               0.000000000               0.000000000               0.000000000               0.000000000               0.000592710               0.000734366              -0.000551086               0.000130469               0.000201296               0.000331765               0.000000000               0.000000000               0.000000000               0.000000000               0.000455110               0.000914677              -0.000525280               0.000056331               0.000286112               0.000342443               0.000000000               0.000000000               0.000000000               0.000000000               0.000324246               0.001176160              -0.000467316              -0.000025428               0.000400525               0.000375097               0.000000000               0.000000000               0.000000000               0.000000000               0.000279024               0.001318220              -0.000391168              -0.000060144               0.000459450               0.000399306               0.000000000               0.000000000               0.000000000               0.000000000               0.000260434               0.001416697              -0.000321182              -0.000079424               0.000498702               0.000419278               0.000000000               0.000000000               0.000000000               0.000000000               0.000244305               0.001493553              -0.000262460              -0.000095080               0.000529539               0.000434460               0.000000000               0.000000000               0.000000000               0.000000000               0.000223914               0.001558625              -0.000216002              -0.000110860               0.000556490               0.000445630               0.000000000               0.000000000               0.000000000               0.000000000               0.000201836               0.001624218              -0.000181414              -0.000127338               0.000583847               0.000456508               0.000000000               0.000000000               0.000000000               0.000000000               0.000181194               0.001687330              -0.000150795              -0.000142968               0.000610094               0.000467126               0.000000000               0.000000000               0.000000000               0.000000000               0.000166376               0.001748682              -0.000119878              -0.000156194               0.000634953               0.000478759               0.000000000               0.000000000               0.000000000               0.000000000               0.000162874               0.001814777              -0.000090843              -0.000165769               0.000660176               0.000494407               0.000000000               0.000000000               0.000000000               0.000000000               0.000171561               0.001890535              -0.000063165              -0.000171981               0.000687499               0.000515518               0.000000000               0.000000000               0.000000000               0.000000000               0.000178489               0.001979799              -0.000038871              -0.000180541               0.000720107               0.000539566               0.000000000               0.000000000               0.000000000               0.000000000               0.000174423               0.002076119              -0.000022868              -0.000194106               0.000756735               0.000562629               0.000000000               0.000000000               0.000000000               0.000000000               0.000164584               0.002165587              -0.000012368              -0.000208979               0.000791515               0.000582536               0.000000000               0.000000000               0.000000000               0.000000000               0.000155322               0.002249985              -0.000004144              -0.000223002               0.000824322               0.000601320               0.000000000               0.000000000               0.000000000               0.000000000               0.000142331               0.002284618               0.000002887              -0.000232202               0.000838932               0.000606730               0.000000000               0.000000000               0.000000000               0.000000000               0.000531226               0.000526642              -0.000445878               0.000133378               0.000131086               0.000264464               0.000000000               0.000000000               0.000000000               0.000000000               0.000454838               0.000725260              -0.000471315               0.000079905               0.000215116               0.000295021               0.000000000               0.000000000               0.000000000               0.000000000               0.000356388               0.001000592              -0.000463277               0.000008571               0.000330670               0.000339241               0.000000000               0.000000000               0.000000000               0.000000000               0.000314739               0.001175091              -0.000406690              -0.000028860               0.000401313               0.000372453               0.000000000               0.000000000               0.000000000               0.000000000               0.000293732               0.001300640              -0.000343344              -0.000052431               0.000451019               0.000398588               0.000000000               0.000000000               0.000000000               0.000000000               0.000275357               0.001396217              -0.000284840              -0.000071268               0.000489157               0.000417889               0.000000000               0.000000000               0.000000000               0.000000000               0.000255606               0.001479093              -0.000238279              -0.000089034               0.000522704               0.000433670               0.000000000               0.000000000               0.000000000               0.000000000               0.000234987               0.001557832              -0.000203743              -0.000106609               0.000554808               0.000448200               0.000000000               0.000000000               0.000000000               0.000000000               0.000215269               0.001635303              -0.000172264              -0.000123687               0.000586325               0.000462638               0.000000000               0.000000000               0.000000000               0.000000000               0.000201390               0.001709337              -0.000142755              -0.000138146               0.000615822               0.000477676               0.000000000               0.000000000               0.000000000               0.000000000               0.000196337               0.001780606              -0.000117865              -0.000148949               0.000643179               0.000494230               0.000000000               0.000000000               0.000000000               0.000000000               0.000202246               0.001862265              -0.000089415              -0.000156940               0.000673062               0.000516122               0.000000000               0.000000000               0.000000000               0.000000000               0.000213789               0.001958996              -0.000058213              -0.000164703               0.000707893               0.000543190               0.000000000               0.000000000               0.000000000               0.000000000               0.000220557               0.002060981              -0.000038070              -0.000174913               0.000745291               0.000570378               0.000000000               0.000000000               0.000000000               0.000000000               0.000220391               0.002158232              -0.000028040              -0.000187132               0.000781781               0.000594649               0.000000000               0.000000000               0.000000000               0.000000000               0.000215085               0.002248800              -0.000016331              -0.000200443               0.000816407               0.000615964               0.000000000               0.000000000               0.000000000               0.000000000               0.000200288               0.002285560              -0.000005297              -0.000210586               0.000832041               0.000621455               0.000000000               0.000000000               0.000000000               0.000000000               0.000449589               0.000355251              -0.000338800               0.000124188               0.000077020               0.000201208               0.000000000               0.000000000               0.000000000               0.000000000               0.000443325               0.000551132              -0.000397735               0.000097354               0.000151257               0.000248611               0.000000000               0.000000000               0.000000000               0.000000000               0.000391161               0.000822923              -0.000427027               0.000043819               0.000259698               0.000303518               0.000000000               0.000000000               0.000000000               0.000000000               0.000357391               0.001018000              -0.000392250               0.000006771               0.000337073               0.000343844               0.000000000               0.000000000               0.000000000               0.000000000               0.000335020               0.001163318              -0.000339236              -0.000019783               0.000394363               0.000374581               0.000000000               0.000000000               0.000000000               0.000000000               0.000314444               0.001277721              -0.000286424              -0.000041799               0.000439836               0.000398037               0.000000000               0.000000000               0.000000000               0.000000000               0.000296790               0.001379514              -0.000243648              -0.000061143               0.000480214               0.000419071               0.000000000               0.000000000               0.000000000               0.000000000               0.000278273               0.001472350              -0.000210890              -0.000079691               0.000517342               0.000437651               0.000000000               0.000000000               0.000000000               0.000000000               0.000261679               0.001561094              -0.000182762              -0.000097007               0.000552695               0.000455688               0.000000000               0.000000000               0.000000000               0.000000000               0.000249339               0.001646821              -0.000157578              -0.000112350               0.000586385               0.000474035               0.000000000               0.000000000               0.000000000               0.000000000               0.000241431               0.001731587              -0.000134475              -0.000125912               0.000619160               0.000493249               0.000000000               0.000000000               0.000000000               0.000000000               0.000240552               0.001826657              -0.000107738              -0.000138125               0.000654921               0.000516796               0.000000000               0.000000000               0.000000000               0.000000000               0.000251436               0.001931246              -0.000079238              -0.000147117               0.000692781               0.000545664               0.000000000               0.000000000               0.000000000               0.000000000               0.000267293               0.002041390              -0.000057341              -0.000154939               0.000732103               0.000577164               0.000000000               0.000000000               0.000000000               0.000000000               0.000274677               0.002147425              -0.000043313              -0.000165424               0.000770942               0.000605519               0.000000000               0.000000000               0.000000000               0.000000000               0.000271799               0.002243945              -0.000025811              -0.000178568               0.000807497               0.000628929               0.000000000               0.000000000               0.000000000               0.000000000               0.000259469               0.002285159              -0.000011455              -0.000188343               0.000824493               0.000636150               0.000000000               0.000000000               0.000000000               0.000000000               0.000360780               0.000223029              -0.000238274               0.000107413               0.000038538               0.000145951               0.000000000               0.000000000               0.000000000               0.000000000               0.000422378               0.000401290              -0.000309175               0.000108229               0.000097685               0.000205915               0.000000000               0.000000000               0.000000000               0.000000000               0.000424020               0.000657519              -0.000357582               0.000076817               0.000193565               0.000270382               0.000000000               0.000000000               0.000000000               0.000000000               0.000402986               0.000861645              -0.000341148               0.000043414               0.000272741               0.000316155               0.000000000               0.000000000               0.000000000               0.000000000               0.000379229               0.001019176              -0.000301663               0.000014813               0.000334784               0.000349598               0.000000000               0.000000000               0.000000000               0.000000000               0.000360081               0.001151202              -0.000259549              -0.000008870               0.000386687               0.000377817               0.000000000               0.000000000               0.000000000               0.000000000               0.000342403               0.001268500              -0.000224087              -0.000030162               0.000432883               0.000402721               0.000000000               0.000000000               0.000000000               0.000000000               0.000327126               0.001375987              -0.000196729              -0.000049326               0.000475100               0.000425774               0.000000000               0.000000000               0.000000000               0.000000000               0.000312424               0.001478304              -0.000174276              -0.000067629               0.000515306               0.000447677               0.000000000               0.000000000               0.000000000               0.000000000               0.000299291               0.001576970              -0.000153674              -0.000084887               0.000553947               0.000469060               0.000000000               0.000000000               0.000000000               0.000000000               0.000288845               0.001679536              -0.000133473              -0.000101625               0.000593715               0.000492090               0.000000000               0.000000000               0.000000000               0.000000000               0.000288676               0.001791622              -0.000112840              -0.000115699               0.000635768               0.000520069               0.000000000               0.000000000               0.000000000               0.000000000               0.000297751               0.001904291              -0.000092631              -0.000126379               0.000676884               0.000550504               0.000000000               0.000000000               0.000000000               0.000000000               0.000314141               0.002017767              -0.000073508              -0.000134418               0.000717388               0.000582970               0.000000000               0.000000000               0.000000000               0.000000000               0.000325956               0.002126702              -0.000053475              -0.000143604               0.000756762               0.000613158               0.000000000               0.000000000               0.000000000               0.000000000               0.000326696               0.002230020              -0.000029601              -0.000156241               0.000795413               0.000639172               0.000000000               0.000000000               0.000000000               0.000000000               0.000317623               0.002276976              -0.000014142              -0.000165513               0.000814155               0.000648642               0.000000000               0.000000000               0.000000000               0.000000000               0.000280890               0.000128991              -0.000147475               0.000089209               0.000013260               0.000102469               0.000000000               0.000000000               0.000000000               0.000000000               0.000400073               0.000286665              -0.000210035               0.000114193               0.000057489               0.000171683               0.000000000               0.000000000               0.000000000               0.000000000               0.000450217               0.000522427              -0.000258063               0.000103527               0.000139632               0.000243158               0.000000000               0.000000000               0.000000000               0.000000000               0.000444248               0.000726685              -0.000253386               0.000075757               0.000216974               0.000292730               0.000000000               0.000000000               0.000000000               0.000000000               0.000422250               0.000892911              -0.000228771               0.000046729               0.000282058               0.000328787               0.000000000               0.000000000               0.000000000               0.000000000               0.000402512               0.001036198              -0.000199770               0.000021417               0.000338257               0.000359674               0.000000000               0.000000000               0.000000000               0.000000000               0.000384764               0.001163507              -0.000174789              -0.000001152               0.000388216               0.000387064               0.000000000               0.000000000               0.000000000               0.000000000               0.000371382               0.001286860              -0.000155246              -0.000021589               0.000436145               0.000414556               0.000000000               0.000000000               0.000000000               0.000000000               0.000357459               0.001405377              -0.000138380              -0.000041625               0.000482329               0.000440704               0.000000000               0.000000000               0.000000000               0.000000000               0.000343362               0.001516858              -0.000123976              -0.000060846               0.000525896               0.000465050               0.000000000               0.000000000               0.000000000               0.000000000               0.000337310               0.001631063              -0.000111931              -0.000077392               0.000569480               0.000492088               0.000000000               0.000000000               0.000000000               0.000000000               0.000338447               0.001751696              -0.000099343              -0.000092044               0.000614574               0.000522530               0.000000000               0.000000000               0.000000000               0.000000000               0.000346282               0.001876028              -0.000085920              -0.000104648               0.000660219               0.000555572               0.000000000               0.000000000               0.000000000               0.000000000               0.000356933               0.001994095              -0.000070958              -0.000115412               0.000703162               0.000587751               0.000000000               0.000000000               0.000000000               0.000000000               0.000367259               0.002100951              -0.000050282              -0.000124896               0.000741942               0.000617046               0.000000000               0.000000000               0.000000000               0.000000000               0.000379484               0.002210676              -0.000025373              -0.000134028               0.000781560               0.000647533               0.000000000               0.000000000               0.000000000               0.000000000               0.000381384               0.002265207              -0.000011284              -0.000140132               0.000801772               0.000661640               0.000000000               0.000000000               0.000000000               0.000000000               0.000222442               0.000077516              -0.000068978               0.000073725               0.000001263               0.000074989               0.000000000               0.000000000               0.000000000               0.000000000               0.000381733               0.000216982              -0.000106190               0.000116026               0.000033651               0.000149677               0.000000000               0.000000000               0.000000000               0.000000000               0.000468554               0.000432903              -0.000135942               0.000121593               0.000103768               0.000225362               0.000000000               0.000000000               0.000000000               0.000000000               0.000473693               0.000635019              -0.000135414               0.000098257               0.000178919               0.000277175               0.000000000               0.000000000               0.000000000               0.000000000               0.000454048               0.000806193              -0.000123919               0.000069493               0.000245564               0.000315057               0.000000000               0.000000000               0.000000000               0.000000000               0.000432126               0.000953636              -0.000109070               0.000042842               0.000303595               0.000346437               0.000000000               0.000000000               0.000000000               0.000000000               0.000414746               0.001088781              -0.000096716               0.000019432               0.000356446               0.000375878               0.000000000               0.000000000               0.000000000               0.000000000               0.000400786               0.001222013              -0.000086681              -0.000002457               0.000408152               0.000405696               0.000000000               0.000000000               0.000000000               0.000000000               0.000389491               0.001350881              -0.000075593              -0.000022801               0.000457890               0.000435089               0.000000000               0.000000000               0.000000000               0.000000000               0.000380561               0.001475576              -0.000069292              -0.000041736               0.000505766               0.000464029               0.000000000               0.000000000               0.000000000               0.000000000               0.000375998               0.001599321              -0.000065613              -0.000058916               0.000552740               0.000493824               0.000000000               0.000000000               0.000000000               0.000000000               0.000374304               0.001721829              -0.000059664              -0.000074864               0.000598892               0.000524028               0.000000000               0.000000000               0.000000000               0.000000000               0.000377447               0.001845272              -0.000052758              -0.000089116               0.000644790               0.000555674               0.000000000               0.000000000               0.000000000               0.000000000               0.000385221               0.001966918              -0.000042448              -0.000101406               0.000689435               0.000588028               0.000000000               0.000000000               0.000000000               0.000000000               0.000400896               0.002087467              -0.000030137              -0.000110597               0.000732681               0.000622084               0.000000000               0.000000000               0.000000000               0.000000000               0.000428216               0.002208431              -0.000016634              -0.000115473               0.000774627               0.000659154               0.000000000               0.000000000               0.000000000               0.000000000               0.000444529               0.002267163              -0.000008828              -0.000116697               0.000794612               0.000677916               0.000000000               0.000000000               0.000000000               0.000000000               0.000200296               0.000063207               0.000000000               0.000067209              -0.000001334               0.000065875               0.000000000               0.000000000               0.000000000               0.000000000               0.000374382               0.000194189               0.000000000               0.000116118               0.000026023               0.000142141               0.000000000               0.000000000               0.000000000               0.000000000               0.000475815               0.000400415               0.000000000               0.000128378               0.000090678               0.000219055               0.000000000               0.000000000               0.000000000               0.000000000               0.000484479               0.000602039               0.000000000               0.000106424               0.000165203               0.000271627               0.000000000               0.000000000               0.000000000               0.000000000               0.000465594               0.000775038              -0.000000000               0.000077717               0.000232438               0.000310155               0.000000000               0.000000000               0.000000000               0.000000000               0.000443002               0.000923462              -0.000000000               0.000050693               0.000290920               0.000341613               0.000000000               0.000000000               0.000000000               0.000000000               0.000425668               0.001062892              -0.000000000               0.000026764               0.000345373               0.000372136               0.000000000               0.000000000               0.000000000               0.000000000               0.000410524               0.001197637               0.000000000               0.000004242               0.000397794               0.000402036               0.000000000               0.000000000               0.000000000               0.000000000               0.000400760               0.001328110               0.000000000              -0.000015729               0.000447942               0.000432213               0.000000000               0.000000000               0.000000000               0.000000000               0.000397701               0.001460739              -0.000000000              -0.000033454               0.000498059               0.000464605               0.000000000               0.000000000               0.000000000               0.000000000               0.000390450               0.001589489              -0.000000000              -0.000052267               0.000547247               0.000494980               0.000000000               0.000000000               0.000000000               0.000000000               0.000386489               0.001713359               0.000000000              -0.000069236               0.000594193               0.000524956               0.000000000               0.000000000               0.000000000               0.000000000               0.000386666               0.001832077               0.000000000              -0.000084009               0.000638689               0.000554680               0.000000000               0.000000000               0.000000000               0.000000000               0.000394399               0.001951060               0.000000000              -0.000095983               0.000682341               0.000586358               0.000000000               0.000000000               0.000000000               0.000000000               0.000417254               0.002084980               0.000000000              -0.000104152               0.000729704               0.000625552               0.000000000               0.000000000               0.000000000               0.000000000               0.000451816               0.002217003               0.000000000              -0.000107694               0.000774892               0.000667198               0.000000000               0.000000000               0.000000000               0.000000000               0.000473506               0.002277027               0.000000000              -0.000107063               0.000794689               0.000687626               0.000000000               0.000000000               0.000000000               0.000000000               0.000000000               0.000000000               0.000000000               0.000000000               0.000000000               0.000000000               0.000000000               0.000000000               0.000000000               0.000000000               0.000000000               0.000000000               0.000000000               0.000000000               0.000000000               0.000000000               0.000000000               0.000000000               0.000000000               0.000000000               0.000000000               0.000000000               0.000000000               0.000000000               0.000000000               0.000000000               0.000000000               0.000000000               0.000000000               0.000000000               0.000000000               0.000000000               0.000000000               0.000000000               0.000000000               0.000000000               0.000000000               0.000000000               0.000000000               0.000000000               0.000000000               0.000000000               0.000000000               0.000000000               0.000000000               0.000000000               0.000000000               0.000000000               0.000000000               0.000000000               0.000000000               0.000000000               0.000000000               0.000000000               0.000000000               0.000000000               0.000000000               0.000000000               0.000000000               0.000000000               0.000000000               0.000000000               0.000000000               0.000000000               0.000000000               0.000000000               0.000000000               0.000000000               0.000000000               0.000000000               0.000000000               0.000000000               0.000000000               0.000000000               0.000000000               0.000000000               0.000000000               0.000000000               0.000000000               0.000000000               0.000000000               0.000000000               0.000000000               0.000000000               0.000000000               0.000000000               0.000000000               0.000000000               0.000000000               0.000000000               0.000000000               0.000000000               0.000000000               0.000000000               0.000000000               0.000000000               0.000000000               0.000000000               0.000000000               0.000000000               0.000000000               0.000000000               0.000000000               0.000000000               0.000000000               0.000000000               0.000000000               0.000000000               0.000000000               0.000000000               0.000000000               0.000000000               0.000000000               0.000000000               0.000000000               0.000000000               0.000000000               0.000000000               0.000000000               0.000000000               0.000000000               0.000000000               0.000000000               0.000000000               0.000000000               0.000000000               0.000000000               0.000000000               0.000000000               0.000000000               0.000000000               0.000000000               0.000000000               0.000000000               0.000000000               0.000000000               0.000000000               0.000000000               0.000000000               0.000000000               0.000000000               0.000000000               0.000000000               0.000000000               0.000000000               0.000000000               0.000000000               0.000000000               0.000000000               0.000000000               0.000000000               0.000000000               0.000000000               0.000000000               0.000000000               0.000000000               0.000000000               0.000000000               0.000000000               0.000000000               0.000000000               0.000000000               0.000000000               0.000000000               0.000000000               0.000000000               0.000000000               0.000000000               0.000000000               0.000000000               0.000285751               0.002938165               0.000233049              -0.000260113               0.001066083               0.000805969               0.000000000               0.000000000               0.000000000               0.000000000               0.000320821               0.002459492               0.000159361              -0.000187128               0.000882198               0.000695070               0.000000000               0.000000000               0.000000000               0.000000000               0.000449325               0.002072434               0.000081918              -0.000090557               0.000720990               0.000630433               0.000000000               0.000000000               0.000000000               0.000000000               0.000486025               0.001856189               0.000044807              -0.000049764               0.000635312               0.000585547               0.000000000               0.000000000               0.000000000               0.000000000               0.000482491               0.001729715               0.000027396              -0.000035280               0.000588326               0.000553046               0.000000000               0.000000000               0.000000000               0.000000000               0.000458685               0.001654399               0.000019213              -0.000034793               0.000563059               0.000528266               0.000000000               0.000000000               0.000000000               0.000000000               0.000426559               0.001613307               0.000015241              -0.000041704               0.000551665               0.000509961               0.000000000               0.000000000               0.000000000               0.000000000               0.000388452               0.001593117               0.000013003              -0.000053470               0.000548857               0.000495387               0.000000000               0.000000000               0.000000000               0.000000000               0.000346742               0.001591023               0.000010871              -0.000068849               0.000553286               0.000484436               0.000000000               0.000000000               0.000000000               0.000000000               0.000302656               0.001601833               0.000007797              -0.000086733               0.000562850               0.000476117               0.000000000               0.000000000               0.000000000               0.000000000               0.000256803               0.001624840               0.000006333              -0.000106804               0.000577209               0.000470405               0.000000000               0.000000000               0.000000000               0.000000000               0.000210227               0.001652438               0.000007676              -0.000127719               0.000593380               0.000465661               0.000000000               0.000000000               0.000000000               0.000000000               0.000167517               0.001680186               0.000012064              -0.000147204               0.000609124               0.000461920               0.000000000               0.000000000               0.000000000               0.000000000               0.000127558               0.001706103               0.000014235              -0.000165428               0.000623838               0.000458410               0.000000000               0.000000000               0.000000000               0.000000000               0.000086380               0.001734128               0.000010399              -0.000184373               0.000639495               0.000455122               0.000000000               0.000000000               0.000000000               0.000000000               0.000043483               0.001766127               0.000005367              -0.000204459               0.000656856               0.000452397               0.000000000               0.000000000               0.000000000               0.000000000               0.000025268               0.001791778               0.000003820              -0.000214496               0.000668752               0.000454256               0.000000000               0.000000000               0.000000000               0.000000000               0.000333223               0.002805794               0.000444868              -0.000225765               0.001010510               0.000784745               0.000000000               0.000000000               0.000000000               0.000000000               0.000338700               0.002364314               0.000303322              -0.000168526               0.000844272               0.000675746               0.000000000               0.000000000               0.000000000               0.000000000               0.000434050               0.002023764               0.000157347              -0.000090202               0.000704648               0.000614447               0.000000000               0.000000000               0.000000000               0.000000000               0.000453614               0.001834430               0.000089801              -0.000059198               0.000631203               0.000572005               0.000000000               0.000000000               0.000000000               0.000000000               0.000443026               0.001723830               0.000058115              -0.000049344               0.000591052               0.000541708               0.000000000               0.000000000               0.000000000               0.000000000               0.000418284               0.001658520               0.000042351              -0.000050459               0.000569654               0.000519196               0.000000000               0.000000000               0.000000000               0.000000000               0.000388438               0.001621458               0.000034671              -0.000057018               0.000559487               0.000502469               0.000000000               0.000000000               0.000000000               0.000000000               0.000354357               0.001604577               0.000029306              -0.000067688               0.000557416               0.000489728               0.000000000               0.000000000               0.000000000               0.000000000               0.000314838               0.001602132               0.000024152              -0.000082202               0.000561439               0.000479237               0.000000000               0.000000000               0.000000000               0.000000000               0.000274634               0.001613540               0.000017925              -0.000098704               0.000570743               0.000472038               0.000000000               0.000000000               0.000000000               0.000000000               0.000234619               0.001633609               0.000013907              -0.000116219               0.000583271               0.000467052               0.000000000               0.000000000               0.000000000               0.000000000               0.000193704               0.001654752               0.000016921              -0.000134205               0.000596313               0.000462109               0.000000000               0.000000000               0.000000000               0.000000000               0.000156778               0.001674176               0.000023646              -0.000150480               0.000608213               0.000457733               0.000000000               0.000000000               0.000000000               0.000000000               0.000120053               0.001693800               0.000024795              -0.000166705               0.000620163               0.000453458               0.000000000               0.000000000               0.000000000               0.000000000               0.000079199               0.001715033               0.000017165              -0.000184679               0.000633232               0.000448553               0.000000000               0.000000000               0.000000000               0.000000000               0.000039185               0.001736003               0.000009605              -0.000202305               0.000646097               0.000443792               0.000000000               0.000000000               0.000000000               0.000000000               0.000022553               0.001752147               0.000007704              -0.000210561               0.000654230               0.000443670               0.000000000               0.000000000               0.000000000               0.000000000               0.000402025               0.002598797               0.000615686              -0.000174090               0.000924287               0.000750197               0.000000000               0.000000000               0.000000000               0.000000000               0.000362820               0.002221206               0.000420453              -0.000141593               0.000787592               0.000645999               0.000000000               0.000000000               0.000000000               0.000000000               0.000408141               0.001949917               0.000222324              -0.000090687               0.000680195               0.000589508               0.000000000               0.000000000               0.000000000               0.000000000               0.000405612               0.001801221               0.000134011              -0.000073048               0.000624750               0.000551702               0.000000000               0.000000000               0.000000000               0.000000000               0.000387629               0.001713653               0.000091887              -0.000068846               0.000594161               0.000525315               0.000000000               0.000000000               0.000000000               0.000000000               0.000363150               0.001662424               0.000071384              -0.000071622               0.000578010               0.000506388               0.000000000               0.000000000               0.000000000               0.000000000               0.000336446               0.001632911               0.000059295              -0.000077946               0.000570280               0.000492334               0.000000000               0.000000000               0.000000000               0.000000000               0.000305892               0.001620518               0.000050350              -0.000087855               0.000569452               0.000481597               0.000000000               0.000000000               0.000000000               0.000000000               0.000269968               0.001620210               0.000040253              -0.000101288               0.000573827               0.000472539               0.000000000               0.000000000               0.000000000               0.000000000               0.000235344               0.001632823               0.000029454              -0.000115849               0.000582885               0.000467036               0.000000000               0.000000000               0.000000000               0.000000000               0.000202143               0.001647448               0.000024218              -0.000130127               0.000592520               0.000462393               0.000000000               0.000000000               0.000000000               0.000000000               0.000171628               0.001659692               0.000026825              -0.000143101               0.000600925               0.000457825               0.000000000               0.000000000               0.000000000               0.000000000               0.000142069               0.001670475               0.000031832              -0.000155533               0.000608664               0.000453131               0.000000000               0.000000000               0.000000000               0.000000000               0.000107746               0.001683112               0.000027931              -0.000169984               0.000617693               0.000447709               0.000000000               0.000000000               0.000000000               0.000000000               0.000070559               0.001697094               0.000017966              -0.000185677               0.000627585               0.000441908               0.000000000               0.000000000               0.000000000               0.000000000               0.000035152               0.001707431               0.000010565              -0.000200246               0.000635887               0.000435640               0.000000000               0.000000000               0.000000000               0.000000000               0.000019836               0.001715225               0.000008205              -0.000206964               0.000640724               0.000433760               0.000000000               0.000000000               0.000000000               0.000000000               0.000478532               0.002341860               0.000732860              -0.000113283               0.000818373               0.000705090               0.000000000               0.000000000               0.000000000               0.000000000               0.000386923               0.002046480               0.000505852              -0.000110714               0.000719058               0.000608344               0.000000000               0.000000000               0.000000000               0.000000000               0.000376164               0.001862684               0.000276477              -0.000091774               0.000651480               0.000559706               0.000000000               0.000000000               0.000000000               0.000000000               0.000353251               0.001759846               0.000176739              -0.000087512               0.000615780               0.000528268               0.000000000               0.000000000               0.000000000               0.000000000               0.000327575               0.001697856               0.000128937              -0.000089391               0.000595744               0.000506352               0.000000000               0.000000000               0.000000000               0.000000000               0.000303529               0.001662669               0.000103642              -0.000094010               0.000585554               0.000491544               0.000000000               0.000000000               0.000000000               0.000000000               0.000280341               0.001644356               0.000087475              -0.000100416               0.000581585               0.000481169               0.000000000               0.000000000               0.000000000               0.000000000               0.000254305               0.001639944               0.000073042              -0.000109629               0.000583185               0.000473557               0.000000000               0.000000000               0.000000000               0.000000000               0.000223261               0.001646391               0.000056718              -0.000122076               0.000589483               0.000467408               0.000000000               0.000000000               0.000000000               0.000000000               0.000193735               0.001658055               0.000041793              -0.000134606               0.000597548               0.000462942               0.000000000               0.000000000               0.000000000               0.000000000               0.000170637               0.001666893               0.000034365              -0.000144372               0.000603750               0.000459377               0.000000000               0.000000000               0.000000000               0.000000000               0.000149137               0.001671870               0.000034741              -0.000153057               0.000608304               0.000455246               0.000000000               0.000000000               0.000000000               0.000000000               0.000125499               0.001676026               0.000034633              -0.000162441               0.000612817               0.000450376               0.000000000               0.000000000               0.000000000               0.000000000               0.000095507               0.001684329               0.000024658              -0.000174726               0.000619679               0.000444954               0.000000000               0.000000000               0.000000000               0.000000000               0.000061299               0.001693650               0.000013188              -0.000188719               0.000627450               0.000438732               0.000000000               0.000000000               0.000000000               0.000000000               0.000030720               0.001702609               0.000007389              -0.000201306               0.000634633               0.000433327               0.000000000               0.000000000               0.000000000               0.000000000               0.000019241               0.001711454               0.000006314              -0.000206716               0.000639384               0.000432668               0.000000000               0.000000000               0.000000000               0.000000000               0.000544516               0.002056051               0.000796167              -0.000052814               0.000702948               0.000650134               0.000000000               0.000000000               0.000000000               0.000000000               0.000405583               0.001853929               0.000559128              -0.000079648               0.000644519               0.000564872               0.000000000               0.000000000               0.000000000               0.000000000               0.000342159               0.001765949               0.000320040              -0.000092434               0.000619455               0.000527021               0.000000000               0.000000000               0.000000000               0.000000000               0.000303725               0.001709142               0.000217337              -0.000099746               0.000602957               0.000503211               0.000000000               0.000000000               0.000000000               0.000000000               0.000276139               0.001676225               0.000165871              -0.000105976               0.000594061               0.000488086               0.000000000               0.000000000               0.000000000               0.000000000               0.000252779               0.001658762               0.000135920              -0.000112553               0.000590433               0.000477880               0.000000000               0.000000000               0.000000000               0.000000000               0.000231544               0.001654458               0.000114022              -0.000119978               0.000591473               0.000471495               0.000000000               0.000000000               0.000000000               0.000000000               0.000208029               0.001661860               0.000092775              -0.000129721               0.000597188               0.000467467               0.000000000               0.000000000               0.000000000               0.000000000               0.000179906               0.001674657               0.000070910              -0.000141867               0.000605502               0.000463635               0.000000000               0.000000000               0.000000000               0.000000000               0.000156347               0.001686278               0.000053730              -0.000152154               0.000612805               0.000460651               0.000000000               0.000000000               0.000000000               0.000000000               0.000142479               0.001691809               0.000044927              -0.000158046               0.000616613               0.000458567               0.000000000               0.000000000               0.000000000               0.000000000               0.000128510               0.001694240               0.000042720              -0.000163588               0.000619270               0.000455682               0.000000000               0.000000000               0.000000000               0.000000000               0.000109301               0.001699162               0.000037774              -0.000171407               0.000623517               0.000452111               0.000000000               0.000000000               0.000000000               0.000000000               0.000087030               0.001711770               0.000022740              -0.000181334               0.000631029               0.000449695               0.000000000               0.000000000               0.000000000               0.000000000               0.000060688               0.001727614               0.000010782              -0.000193193               0.000640263               0.000447070               0.000000000               0.000000000               0.000000000               0.000000000               0.000031258               0.001745370               0.000006385              -0.000206449               0.000650601               0.000444152               0.000000000               0.000000000               0.000000000               0.000000000               0.000020430               0.001761786               0.000007033              -0.000212561               0.000658110               0.000445548               0.000000000               0.000000000               0.000000000               0.000000000               0.000591986               0.001758308               0.000809758               0.000002205               0.000585362               0.000587567               0.000000000               0.000000000               0.000000000               0.000000000               0.000417190               0.001657498               0.000583873              -0.000050741               0.000569407               0.000518666               0.000000000               0.000000000               0.000000000               0.000000000               0.000312184               0.001665618               0.000354956              -0.000091133               0.000585578               0.000494445               0.000000000               0.000000000               0.000000000               0.000000000               0.000266816               0.001654074               0.000253716              -0.000106703               0.000586920               0.000480217               0.000000000               0.000000000               0.000000000               0.000000000               0.000240893               0.001648568               0.000199211              -0.000115736               0.000588096               0.000472360               0.000000000               0.000000000               0.000000000               0.000000000               0.000218498               0.001648485               0.000163390              -0.000124124               0.000590864               0.000466741               0.000000000               0.000000000               0.000000000               0.000000000               0.000197616               0.001660312               0.000134437              -0.000133433               0.000597909               0.000464477               0.000000000               0.000000000               0.000000000               0.000000000               0.000174396               0.001680399               0.000107146              -0.000144651               0.000608344               0.000463693               0.000000000               0.000000000               0.000000000               0.000000000               0.000149796               0.001703033               0.000082496              -0.000156705               0.000619907               0.000463202               0.000000000               0.000000000               0.000000000               0.000000000               0.000130454               0.001716385               0.000064699              -0.000165628               0.000627332               0.000461704               0.000000000               0.000000000               0.000000000               0.000000000               0.000119740               0.001723639               0.000054971              -0.000170552               0.000631391               0.000460839               0.000000000               0.000000000               0.000000000               0.000000000               0.000108798               0.001733437               0.000048960              -0.000175880               0.000636433               0.000460553               0.000000000               0.000000000               0.000000000               0.000000000               0.000094197               0.001755129               0.000038877              -0.000184067               0.000646393               0.000462326               0.000000000               0.000000000               0.000000000               0.000000000               0.000076685               0.001786251               0.000021203              -0.000194524               0.000660253               0.000465729               0.000000000               0.000000000               0.000000000               0.000000000               0.000053543               0.001820359               0.000009920              -0.000207466               0.000675935               0.000468470               0.000000000               0.000000000               0.000000000               0.000000000               0.000027338               0.001855244               0.000006757              -0.000221653               0.000692293               0.000470640               0.000000000               0.000000000               0.000000000               0.000000000               0.000019457               0.001881320               0.000008257              -0.000227868               0.000703056               0.000475188               0.000000000               0.000000000               0.000000000               0.000000000               0.000618968               0.001470107               0.000778793               0.000048348               0.000473914               0.000522263               0.000000000               0.000000000               0.000000000               0.000000000               0.000422784               0.001472055               0.000585278              -0.000025464               0.000499168               0.000473704               0.000000000               0.000000000               0.000000000               0.000000000               0.000291817               0.001567678               0.000382604              -0.000086528               0.000551397               0.000464868               0.000000000               0.000000000               0.000000000               0.000000000               0.000245809               0.001596246               0.000284195              -0.000107352               0.000567861               0.000460508               0.000000000               0.000000000               0.000000000               0.000000000               0.000223031               0.001613386               0.000224769              -0.000118036               0.000577135               0.000459099               0.000000000               0.000000000               0.000000000               0.000000000               0.000202788               0.001632960               0.000181671              -0.000128074               0.000587006               0.000458932               0.000000000               0.000000000               0.000000000               0.000000000               0.000180884               0.001663452               0.000146903              -0.000140100               0.000601178               0.000461079               0.000000000               0.000000000               0.000000000               0.000000000               0.000156505               0.001697670               0.000115945              -0.000153519               0.000617057               0.000463538               0.000000000               0.000000000               0.000000000               0.000000000               0.000135724               0.001726531               0.000089855              -0.000164919               0.000630478               0.000465558               0.000000000               0.000000000               0.000000000               0.000000000               0.000120687               0.001745183               0.000071817              -0.000172890               0.000639352               0.000466462               0.000000000               0.000000000               0.000000000               0.000000000               0.000110314               0.001767055               0.000059381              -0.000179514               0.000648850               0.000469337               0.000000000               0.000000000               0.000000000               0.000000000               0.000100872               0.001803525               0.000046192              -0.000187613               0.000663707               0.000476093               0.000000000               0.000000000               0.000000000               0.000000000               0.000088475               0.001857391               0.000030435              -0.000198995               0.000685456               0.000486461               0.000000000               0.000000000               0.000000000               0.000000000               0.000070107               0.001917594               0.000014057              -0.000213408               0.000710328               0.000496919               0.000000000               0.000000000               0.000000000               0.000000000               0.000045876               0.001972818               0.000004973              -0.000229398               0.000734066               0.000504667               0.000000000               0.000000000               0.000000000               0.000000000               0.000022637               0.002025332               0.000003845              -0.000244677               0.000756663               0.000511986               0.000000000               0.000000000               0.000000000               0.000000000               0.000016925               0.002061222               0.000007060              -0.000251305               0.000770835               0.000519530               0.000000000               0.000000000               0.000000000               0.000000000               0.000631210               0.001216391               0.000718191               0.000084653               0.000377242               0.000461895               0.000000000               0.000000000               0.000000000               0.000000000               0.000430365               0.001305633               0.000574484              -0.000001818               0.000435812               0.000433994               0.000000000               0.000000000               0.000000000               0.000000000               0.000286141               0.001476185               0.000410517              -0.000077220               0.000517797               0.000440576               0.000000000               0.000000000               0.000000000               0.000000000               0.000243807               0.001540992               0.000314333              -0.000101196               0.000547391               0.000446195               0.000000000               0.000000000               0.000000000               0.000000000               0.000222846               0.001579809               0.000248575              -0.000113909               0.000564567               0.000450659               0.000000000               0.000000000               0.000000000               0.000000000               0.000205756               0.001621040               0.000198649              -0.000125471               0.000582165               0.000456694               0.000000000               0.000000000               0.000000000               0.000000000               0.000182928               0.001667406               0.000159436              -0.000139827               0.000602406               0.000462578               0.000000000               0.000000000               0.000000000               0.000000000               0.000157754               0.001710042               0.000127550              -0.000154597               0.000621541               0.000466943               0.000000000               0.000000000               0.000000000               0.000000000               0.000140350               0.001743086               0.000099752              -0.000165254               0.000636108               0.000470854               0.000000000               0.000000000               0.000000000               0.000000000               0.000131188               0.001773031               0.000076838              -0.000172433               0.000648482               0.000476049               0.000000000               0.000000000               0.000000000               0.000000000               0.000124936               0.001817527               0.000056502              -0.000180339               0.000665949               0.000485610               0.000000000               0.000000000               0.000000000               0.000000000               0.000115689               0.001884179               0.000034987              -0.000192138               0.000692099               0.000499961               0.000000000               0.000000000               0.000000000               0.000000000               0.000099719               0.001966804               0.000016782              -0.000208455               0.000725080               0.000516625               0.000000000               0.000000000               0.000000000               0.000000000               0.000080109               0.002046851               0.000006078              -0.000225815               0.000757548               0.000531733               0.000000000               0.000000000               0.000000000               0.000000000               0.000059903               0.002115757               0.000000482              -0.000242005               0.000785914               0.000543908               0.000000000               0.000000000               0.000000000               0.000000000               0.000042207               0.002181741              -0.000002067              -0.000256889               0.000812870               0.000555980               0.000000000               0.000000000               0.000000000               0.000000000               0.000034574               0.002221137              -0.000001248              -0.000264676               0.000828597               0.000563921               0.000000000               0.000000000               0.000000000               0.000000000               0.000626106               0.000968207               0.000642485               0.000113762               0.000284811               0.000398574               0.000000000               0.000000000               0.000000000               0.000000000               0.000443588               0.001110301               0.000557295               0.000027557               0.000360911               0.000388467               0.000000000               0.000000000               0.000000000               0.000000000               0.000297183               0.001335139               0.000444324              -0.000055449               0.000463525               0.000408076               0.000000000               0.000000000               0.000000000               0.000000000               0.000254814               0.001439764               0.000353946              -0.000084415               0.000508055               0.000423640               0.000000000               0.000000000               0.000000000               0.000000000               0.000236083               0.001506572               0.000283759              -0.000099790               0.000535449               0.000435659               0.000000000               0.000000000               0.000000000               0.000000000               0.000220551               0.001566913               0.000228645              -0.000113157               0.000560018               0.000446861               0.000000000               0.000000000               0.000000000               0.000000000               0.000199582               0.001621159               0.000185007              -0.000127801               0.000582981               0.000455180               0.000000000               0.000000000               0.000000000               0.000000000               0.000174470               0.001672470               0.000151678              -0.000143632               0.000605362               0.000461730               0.000000000               0.000000000               0.000000000               0.000000000               0.000155882               0.001720913               0.000122968              -0.000156658               0.000625851               0.000469193               0.000000000               0.000000000               0.000000000               0.000000000               0.000145634               0.001768185               0.000095282              -0.000166410               0.000644859               0.000478449               0.000000000               0.000000000               0.000000000               0.000000000               0.000142093               0.001826652               0.000067505              -0.000175046               0.000667227               0.000492180               0.000000000               0.000000000               0.000000000               0.000000000               0.000140909               0.001903767               0.000040879              -0.000185129               0.000696292               0.000511163               0.000000000               0.000000000               0.000000000               0.000000000               0.000135093               0.001993837               0.000022488              -0.000198569               0.000730795               0.000532226               0.000000000               0.000000000               0.000000000               0.000000000               0.000122147               0.002084653               0.000012684              -0.000214776               0.000766469               0.000551693               0.000000000               0.000000000               0.000000000               0.000000000               0.000106691               0.002167915               0.000004235              -0.000230980               0.000799624               0.000568645               0.000000000               0.000000000               0.000000000               0.000000000               0.000094161               0.002250308              -0.000002524              -0.000245978               0.000832088               0.000586110               0.000000000               0.000000000               0.000000000               0.000000000               0.000084074               0.002290575              -0.000006519              -0.000254793               0.000848449               0.000593655               0.000000000               0.000000000               0.000000000               0.000000000               0.000592710               0.000734366               0.000551086               0.000130469               0.000201296               0.000331765               0.000000000               0.000000000               0.000000000               0.000000000               0.000455110               0.000914677               0.000525280               0.000056331               0.000286112               0.000342443               0.000000000               0.000000000               0.000000000               0.000000000               0.000324246               0.001176160               0.000467316              -0.000025428               0.000400525               0.000375097               0.000000000               0.000000000               0.000000000               0.000000000               0.000279024               0.001318220               0.000391168              -0.000060144               0.000459450               0.000399306               0.000000000               0.000000000               0.000000000               0.000000000               0.000260434               0.001416697               0.000321182              -0.000079424               0.000498702               0.000419278               0.000000000               0.000000000               0.000000000               0.000000000               0.000244305               0.001493553               0.000262460              -0.000095080               0.000529539               0.000434460               0.000000000               0.000000000               0.000000000               0.000000000               0.000223914               0.001558625               0.000216002              -0.000110860               0.000556490               0.000445630               0.000000000               0.000000000               0.000000000               0.000000000               0.000201836               0.001624218               0.000181414              -0.000127338               0.000583847               0.000456508               0.000000000               0.000000000               0.000000000               0.000000000               0.000181194               0.001687330               0.000150795              -0.000142968               0.000610094               0.000467126               0.000000000               0.000000000               0.000000000               0.000000000               0.000166376               0.001748682               0.000119878              -0.000156194               0.000634953               0.000478759               0.000000000               0.000000000               0.000000000               0.000000000               0.000162874               0.001814777               0.000090843              -0.000165769               0.000660176               0.000494407               0.000000000               0.000000000               0.000000000               0.000000000               0.000171561               0.001890535               0.000063165              -0.000171981               0.000687499               0.000515518               0.000000000               0.000000000               0.000000000               0.000000000               0.000178489               0.001979799               0.000038871              -0.000180541               0.000720107               0.000539566               0.000000000               0.000000000               0.000000000               0.000000000               0.000174423               0.002076119               0.000022868              -0.000194106               0.000756735               0.000562629               0.000000000               0.000000000               0.000000000               0.000000000               0.000164584               0.002165587               0.000012368              -0.000208979               0.000791515               0.000582536               0.000000000               0.000000000               0.000000000               0.000000000               0.000155322               0.002249985               0.000004144              -0.000223002               0.000824322               0.000601320               0.000000000               0.000000000               0.000000000               0.000000000               0.000142331               0.002284618              -0.000002887              -0.000232202               0.000838932               0.000606730               0.000000000               0.000000000               0.000000000               0.000000000               0.000531226               0.000526642               0.000445878               0.000133378               0.000131086               0.000264464               0.000000000               0.000000000               0.000000000               0.000000000               0.000454838               0.000725260               0.000471315               0.000079905               0.000215116               0.000295021               0.000000000               0.000000000               0.000000000               0.000000000               0.000356388               0.001000592               0.000463277               0.000008571               0.000330670               0.000339241               0.000000000               0.000000000               0.000000000               0.000000000               0.000314739               0.001175091               0.000406690              -0.000028860               0.000401313               0.000372453               0.000000000               0.000000000               0.000000000               0.000000000               0.000293732               0.001300640               0.000343344              -0.000052431               0.000451019               0.000398588               0.000000000               0.000000000               0.000000000               0.000000000               0.000275357               0.001396217               0.000284840              -0.000071268               0.000489157               0.000417889               0.000000000               0.000000000               0.000000000               0.000000000               0.000255606               0.001479093               0.000238279              -0.000089034               0.000522704               0.000433670               0.000000000               0.000000000               0.000000000               0.000000000               0.000234987               0.001557832               0.000203743              -0.000106609               0.000554808               0.000448200               0.000000000               0.000000000               0.000000000               0.000000000               0.000215269               0.001635303               0.000172264              -0.000123687               0.000586325               0.000462638               0.000000000               0.000000000               0.000000000               0.000000000               0.000201390               0.001709337               0.000142755              -0.000138146               0.000615822               0.000477676               0.000000000               0.000000000               0.000000000               0.000000000               0.000196337               0.001780606               0.000117865              -0.000148949               0.000643179               0.000494230               0.000000000               0.000000000               0.000000000               0.000000000               0.000202246               0.001862265               0.000089415              -0.000156940               0.000673062               0.000516122               0.000000000               0.000000000               0.000000000               0.000000000               0.000213789               0.001958996               0.000058213              -0.000164703               0.000707893               0.000543190               0.000000000               0.000000000               0.000000000               0.000000000               0.000220557               0.002060981               0.000038070              -0.000174913               0.000745291               0.000570378               0.000000000               0.000000000               0.000000000               0.000000000               0.000220391               0.002158232               0.000028040              -0.000187132               0.000781781               0.000594649               0.000000000               0.000000000               0.000000000               0.000000000               0.000215085               0.002248800               0.000016331              -0.000200443               0.000816407               0.000615964               0.000000000               0.000000000               0.000000000               0.000000000               0.000200288               0.002285560               0.000005297              -0.000210586               0.000832041               0.000621455               0.000000000               0.000000000               0.000000000               0.000000000               0.000449589               0.000355251               0.000338800               0.000124188               0.000077020               0.000201208               0.000000000               0.000000000               0.000000000               0.000000000               0.000443325               0.000551132               0.000397735               0.000097354               0.000151257               0.000248611               0.000000000               0.000000000               0.000000000               0.000000000               0.000391161               0.000822923               0.000427027               0.000043819               0.000259698               0.000303518               0.000000000               0.000000000               0.000000000               0.000000000               0.000357391               0.001018000               0.000392250               0.000006771               0.000337073               0.000343844               0.000000000               0.000000000               0.000000000               0.000000000               0.000335020               0.001163318               0.000339236              -0.000019783               0.000394363               0.000374581               0.000000000               0.000000000               0.000000000               0.000000000               0.000314444               0.001277721               0.000286424              -0.000041799               0.000439836               0.000398037               0.000000000               0.000000000               0.000000000               0.000000000               0.000296790               0.001379514               0.000243648              -0.000061143               0.000480214               0.000419071               0.000000000               0.000000000               0.000000000               0.000000000               0.000278273               0.001472350               0.000210890              -0.000079691               0.000517342               0.000437651               0.000000000               0.000000000               0.000000000               0.000000000               0.000261679               0.001561094               0.000182762              -0.000097007               0.000552695               0.000455688               0.000000000               0.000000000               0.000000000               0.000000000               0.000249339               0.001646821               0.000157578              -0.000112350               0.000586385               0.000474035               0.000000000               0.000000000               0.000000000               0.000000000               0.000241431               0.001731587               0.000134475              -0.000125912               0.000619160               0.000493249               0.000000000               0.000000000               0.000000000               0.000000000               0.000240552               0.001826657               0.000107738              -0.000138125               0.000654921               0.000516796               0.000000000               0.000000000               0.000000000               0.000000000               0.000251436               0.001931246               0.000079238              -0.000147117               0.000692781               0.000545664               0.000000000               0.000000000               0.000000000               0.000000000               0.000267293               0.002041390               0.000057341              -0.000154939               0.000732103               0.000577164               0.000000000               0.000000000               0.000000000               0.000000000               0.000274677               0.002147425               0.000043313              -0.000165424               0.000770942               0.000605519               0.000000000               0.000000000               0.000000000               0.000000000               0.000271799               0.002243945               0.000025811              -0.000178568               0.000807497               0.000628929               0.000000000               0.000000000               0.000000000               0.000000000               0.000259469               0.002285159               0.000011455              -0.000188343               0.000824493               0.000636150               0.000000000               0.000000000               0.000000000               0.000000000               0.000360780               0.000223029               0.000238274               0.000107413               0.000038538               0.000145951               0.000000000               0.000000000               0.000000000               0.000000000               0.000422378               0.000401290               0.000309175               0.000108229               0.000097685               0.000205915               0.000000000               0.000000000               0.000000000               0.000000000               0.000424020               0.000657519               0.000357582               0.000076817               0.000193565               0.000270382               0.000000000               0.000000000               0.000000000               0.000000000               0.000402986               0.000861645               0.000341148               0.000043414               0.000272741               0.000316155               0.000000000               0.000000000               0.000000000               0.000000000               0.000379229               0.001019176               0.000301663               0.000014813               0.000334784               0.000349598               0.000000000               0.000000000               0.000000000               0.000000000               0.000360081               0.001151202               0.000259549              -0.000008870               0.000386687               0.000377817               0.000000000               0.000000000               0.000000000               0.000000000               0.000342403               0.001268500               0.000224087              -0.000030162               0.000432883               0.000402721               0.000000000               0.000000000               0.000000000               0.000000000               0.000327126               0.001375987               0.000196729              -0.000049326               0.000475100               0.000425774               0.000000000               0.000000000               0.000000000               0.000000000               0.000312424               0.001478304               0.000174276              -0.000067629               0.000515306               0.000447677               0.000000000               0.000000000               0.000000000               0.000000000               0.000299291               0.001576970               0.000153674              -0.000084887               0.000553947               0.000469060               0.000000000               0.000000000               0.000000000               0.000000000               0.000288845               0.001679536               0.000133473              -0.000101625               0.000593715               0.000492090               0.000000000               0.000000000               0.000000000               0.000000000               0.000288676               0.001791622               0.000112840              -0.000115699               0.000635768               0.000520069               0.000000000               0.000000000               0.000000000               0.000000000               0.000297751               0.001904291               0.000092631              -0.000126379               0.000676884               0.000550504               0.000000000               0.000000000               0.000000000               0.000000000               0.000314141               0.002017767               0.000073508              -0.000134418               0.000717388               0.000582970               0.000000000               0.000000000               0.000000000               0.000000000               0.000325956               0.002126702               0.000053475              -0.000143604               0.000756762               0.000613158               0.000000000               0.000000000               0.000000000               0.000000000               0.000326696               0.002230020               0.000029601              -0.000156241               0.000795413               0.000639172               0.000000000               0.000000000               0.000000000               0.000000000               0.000317623               0.002276976               0.000014142              -0.000165513               0.000814155               0.000648642               0.000000000               0.000000000               0.000000000               0.000000000               0.000280890               0.000128991               0.000147475               0.000089209               0.000013260               0.000102469               0.000000000               0.000000000               0.000000000               0.000000000               0.000400073               0.000286665               0.000210035               0.000114193               0.000057489               0.000171683               0.000000000               0.000000000               0.000000000               0.000000000               0.000450217               0.000522427               0.000258063               0.000103527               0.000139632               0.000243158               0.000000000               0.000000000               0.000000000               0.000000000               0.000444248               0.000726685               0.000253386               0.000075757               0.000216974               0.000292730               0.000000000               0.000000000               0.000000000               0.000000000               0.000422250               0.000892911               0.000228771               0.000046729               0.000282058               0.000328787               0.000000000               0.000000000               0.000000000               0.000000000               0.000402512               0.001036198               0.000199770               0.000021417               0.000338257               0.000359674               0.000000000               0.000000000               0.000000000               0.000000000               0.000384764               0.001163507               0.000174789              -0.000001152               0.000388216               0.000387064               0.000000000               0.000000000               0.000000000               0.000000000               0.000371382               0.001286860               0.000155246              -0.000021589               0.000436145               0.000414556               0.000000000               0.000000000               0.000000000               0.000000000               0.000357459               0.001405377               0.000138380              -0.000041625               0.000482329               0.000440704               0.000000000               0.000000000               0.000000000               0.000000000               0.000343362               0.001516858               0.000123976              -0.000060846               0.000525896               0.000465050               0.000000000               0.000000000               0.000000000               0.000000000               0.000337310               0.001631063               0.000111931              -0.000077392               0.000569480               0.000492088               0.000000000               0.000000000               0.000000000               0.000000000               0.000338447               0.001751696               0.000099343              -0.000092044               0.000614574               0.000522530               0.000000000               0.000000000               0.000000000               0.000000000               0.000346282               0.001876028               0.000085920              -0.000104648               0.000660219               0.000555572               0.000000000               0.000000000               0.000000000               0.000000000               0.000356933               0.001994095               0.000070958              -0.000115412               0.000703162               0.000587751               0.000000000               0.000000000               0.000000000               0.000000000               0.000367259               0.002100951               0.000050282              -0.000124896               0.000741942               0.000617046               0.000000000               0.000000000               0.000000000               0.000000000               0.000379484               0.002210676               0.000025373              -0.000134028               0.000781560               0.000647533               0.000000000               0.000000000               0.000000000               0.000000000               0.000381384               0.002265207               0.000011284              -0.000140132               0.000801772               0.000661640               0.000000000               0.000000000               0.000000000               0.000000000               0.000222442               0.000077516               0.000068978               0.000073725               0.000001263               0.000074989               0.000000000               0.000000000               0.000000000               0.000000000               0.000381733               0.000216982               0.000106190               0.000116026               0.000033651               0.000149677               0.000000000               0.000000000               0.000000000               0.000000000               0.000468554               0.000432903               0.000135942               0.000121593               0.000103768               0.000225362               0.000000000               0.000000000               0.000000000               0.000000000               0.000473693               0.000635019               0.000135414               0.000098257               0.000178919               0.000277175               0.000000000               0.000000000               0.000000000               0.000000000               0.000454048               0.000806193               0.000123919               0.000069493               0.000245564               0.000315057               0.000000000               0.000000000               0.000000000               0.000000000               0.000432126               0.000953636               0.000109070               0.000042842               0.000303595               0.000346437               0.000000000               0.000000000               0.000000000               0.000000000               0.000414746               0.001088781               0.000096716               0.000019432               0.000356446               0.000375878               0.000000000               0.000000000               0.000000000               0.000000000               0.000400786               0.001222013               0.000086681              -0.000002457               0.000408152               0.000405696               0.000000000               0.000000000               0.000000000               0.000000000               0.000389491               0.001350881               0.000075593              -0.000022801               0.000457890               0.000435089               0.000000000               0.000000000               0.000000000               0.000000000               0.000380561               0.001475576               0.000069292              -0.000041736               0.000505766               0.000464029               0.000000000               0.000000000               0.000000000               0.000000000               0.000375998               0.001599321               0.000065613              -0.000058916               0.000552740               0.000493824               0.000000000               0.000000000               0.000000000               0.000000000               0.000374304               0.001721829               0.000059664              -0.000074864               0.000598892               0.000524028               0.000000000               0.000000000               0.000000000               0.000000000               0.000377447               0.001845272               0.000052758              -0.000089116               0.000644790               0.000555674               0.000000000               0.000000000               0.000000000               0.000000000               0.000385221               0.001966918               0.000042448              -0.000101406               0.000689435               0.000588028               0.000000000               0.000000000               0.000000000               0.000000000               0.000400896               0.002087467               0.000030137              -0.000110597               0.000732681               0.000622084               0.000000000               0.000000000               0.000000000               0.000000000               0.000428216               0.002208431               0.000016634              -0.000115473               0.000774627               0.000659154               0.000000000               0.000000000               0.000000000               0.000000000               0.000444529               0.002267163               0.000008828              -0.000116697               0.000794612               0.000677916               0.000000000               0.000000000               0.000000000               0.000000000               0.000200296               0.000063207               0.000000000               0.000067209              -0.000001334               0.000065875               0.000000000               0.000000000               0.000000000               0.000000000               0.000374382               0.000194189               0.000000000               0.000116118               0.000026023               0.000142141               0.000000000               0.000000000               0.000000000               0.000000000               0.000475815               0.000400415               0.000000000               0.000128378               0.000090678               0.000219055               0.000000000               0.000000000               0.000000000               0.000000000               0.000484479               0.000602039               0.000000000               0.000106424               0.000165203               0.000271627               0.000000000               0.000000000               0.000000000               0.000000000               0.000465594               0.000775038               0.000000000               0.000077717               0.000232438               0.000310155               0.000000000               0.000000000               0.000000000               0.000000000               0.000443002               0.000923462              -0.000000000               0.000050693               0.000290920               0.000341613               0.000000000               0.000000000               0.000000000               0.000000000               0.000425668               0.001062892               0.000000000               0.000026764               0.000345373               0.000372136               0.000000000               0.000000000               0.000000000               0.000000000               0.000410524               0.001197637               0.000000000               0.000004242               0.000397794               0.000402036               0.000000000               0.000000000               0.000000000               0.000000000               0.000400760               0.001328110               0.000000000              -0.000015729               0.000447942               0.000432213               0.000000000               0.000000000               0.000000000               0.000000000               0.000397701               0.001460739               0.000000000              -0.000033454               0.000498059               0.000464605               0.000000000               0.000000000               0.000000000               0.000000000               0.000390450               0.001589489               0.000000000              -0.000052267               0.000547247               0.000494980               0.000000000               0.000000000               0.000000000               0.000000000               0.000386489               0.001713359               0.000000000              -0.000069236               0.000594193               0.000524956               0.000000000               0.000000000               0.000000000               0.000000000               0.000386666               0.001832077               0.000000000              -0.000084009               0.000638689               0.000554680               0.000000000               0.000000000               0.000000000               0.000000000               0.000394399               0.001951060              -0.000000000              -0.000095983               0.000682341               0.000586358               0.000000000               0.000000000               0.000000000               0.000000000               0.000417254               0.002084980               0.000000000              -0.000104152               0.000729704               0.000625552               0.000000000               0.000000000               0.000000000               0.000000000               0.000451816               0.002217003              -0.000000000              -0.000107694               0.000774892               0.000667198               0.000000000               0.000000000               0.000000000               0.000000000               0.000473506               0.002277027              -0.000000000              -0.000107063               0.000794689               0.000687626               0.000000000               0.000000000               0.000000000               0.000000000               0.000267648               0.002982832              -0.000000000              -0.000272485               0.001085096               0.000812611               0.000000000               0.000000000               0.000000000               0.000000000               0.000313611               0.002492749               0.000000000              -0.000193989               0.000895571               0.000701582               0.000000000               0.000000000               0.000000000               0.000000000               0.000453988               0.002088507               0.000000000              -0.000090818               0.000726435               0.000635617               0.000000000               0.000000000               0.000000000               0.000000000               0.000497462               0.001863188               0.000000000              -0.000046350               0.000636507               0.000590156               0.000000000               0.000000000               0.000000000               0.000000000               0.000497051               0.001731228               0.000000000              -0.000030009               0.000587073               0.000557064               0.000000000               0.000000000               0.000000000               0.000000000               0.000474039               0.001653384              -0.000000000              -0.000028908               0.000560759               0.000531850               0.000000000               0.000000000               0.000000000               0.000000000               0.000440160               0.001609806              -0.000000000              -0.000036166               0.000548652               0.000512486               0.000000000               0.000000000               0.000000000               0.000000000               0.000401633               0.001590497              -0.000000000              -0.000048199               0.000546227               0.000498027               0.000000000               0.000000000               0.000000000               0.000000000               0.000358015               0.001586853              -0.000000000              -0.000064101               0.000550312               0.000486212               0.000000000               0.000000000               0.000000000               0.000000000               0.000312185               0.001598640               0.000000000              -0.000082760               0.000560461               0.000477701               0.000000000               0.000000000               0.000000000               0.000000000               0.000265499               0.001621771              -0.000000000              -0.000103159               0.000574971               0.000471812               0.000000000               0.000000000               0.000000000               0.000000000               0.000217013               0.001650445              -0.000000000              -0.000124926               0.000591785               0.000466859               0.000000000               0.000000000               0.000000000               0.000000000               0.000173036               0.001681661              -0.000000000              -0.000145319               0.000608988               0.000463669               0.000000000               0.000000000               0.000000000               0.000000000               0.000133662               0.001711257              -0.000000000              -0.000163783               0.000625008               0.000461224               0.000000000               0.000000000               0.000000000               0.000000000               0.000089428               0.001741876               0.000000000              -0.000184199               0.000642019               0.000457820               0.000000000               0.000000000               0.000000000               0.000000000               0.000041681               0.001777442               0.000000000              -0.000206549               0.000661325               0.000454775               0.000000000               0.000000000               0.000000000               0.000000000               0.000022466               0.001807275               0.000000000              -0.000217484               0.000674913               0.000457430               0.000000000               0.000000000               0.000000000               0.000000000               0.000285751               0.002938165              -0.000233049              -0.000260113               0.001066083               0.000805969               0.000000000               0.000000000               0.000000000               0.000000000               0.000320821               0.002459492              -0.000159361              -0.000187128               0.000882198               0.000695070               0.000000000               0.000000000               0.000000000               0.000000000               0.000449325               0.002072434              -0.000081918              -0.000090557               0.000720990               0.000630433               0.000000000               0.000000000               0.000000000               0.000000000               0.000486025               0.001856189              -0.000044807              -0.000049764               0.000635312               0.000585547               0.000000000               0.000000000               0.000000000               0.000000000               0.000482491               0.001729715              -0.000027396              -0.000035280               0.000588326               0.000553046               0.000000000               0.000000000               0.000000000               0.000000000               0.000458685               0.001654399              -0.000019213              -0.000034793               0.000563059               0.000528266               0.000000000               0.000000000               0.000000000               0.000000000               0.000426559               0.001613307              -0.000015241              -0.000041704               0.000551665               0.000509961               0.000000000               0.000000000               0.000000000               0.000000000               0.000388452               0.001593117              -0.000013003              -0.000053470               0.000548857               0.000495387               0.000000000               0.000000000               0.000000000               0.000000000               0.000346742               0.001591023              -0.000010871              -0.000068849               0.000553286               0.000484436               0.000000000               0.000000000               0.000000000               0.000000000               0.000302656               0.001601833              -0.000007797              -0.000086733               0.000562850               0.000476117               0.000000000               0.000000000               0.000000000               0.000000000               0.000256803               0.001624840              -0.000006333              -0.000106804               0.000577209               0.000470405               0.000000000               0.000000000               0.000000000               0.000000000               0.000210227               0.001652438              -0.000007676              -0.000127719               0.000593380               0.000465661               0.000000000               0.000000000               0.000000000               0.000000000               0.000167517               0.001680186              -0.000012064              -0.000147204               0.000609124               0.000461920               0.000000000               0.000000000               0.000000000               0.000000000               0.000127558               0.001706103              -0.000014235              -0.000165428               0.000623838               0.000458410               0.000000000               0.000000000               0.000000000               0.000000000               0.000086380               0.001734128              -0.000010399              -0.000184373               0.000639495               0.000455122               0.000000000               0.000000000               0.000000000               0.000000000               0.000043483               0.001766127              -0.000005367              -0.000204459               0.000656856               0.000452397               0.000000000               0.000000000               0.000000000               0.000000000               0.000025268               0.001791778              -0.000003820              -0.000214496               0.000668752               0.000454256               0.000000000               0.000000000               0.000000000               0.000000000               0.000333223               0.002805794              -0.000444868              -0.000225765               0.001010510               0.000784745               0.000000000               0.000000000               0.000000000               0.000000000               0.000338700               0.002364314              -0.000303322              -0.000168526               0.000844272               0.000675746               0.000000000               0.000000000               0.000000000               0.000000000               0.000434050               0.002023764              -0.000157347              -0.000090202               0.000704648               0.000614447               0.000000000               0.000000000               0.000000000               0.000000000               0.000453614               0.001834430              -0.000089801              -0.000059198               0.000631203               0.000572005               0.000000000               0.000000000               0.000000000               0.000000000               0.000443026               0.001723830              -0.000058115              -0.000049344               0.000591052               0.000541708               0.000000000               0.000000000               0.000000000               0.000000000               0.000418284               0.001658520              -0.000042351              -0.000050459               0.000569654               0.000519196               0.000000000               0.000000000               0.000000000               0.000000000               0.000388438               0.001621458              -0.000034671              -0.000057018               0.000559487               0.000502469               0.000000000               0.000000000               0.000000000               0.000000000               0.000354357               0.001604577              -0.000029306              -0.000067688               0.000557416               0.000489728               0.000000000               0.000000000               0.000000000               0.000000000               0.000314838               0.001602132              -0.000024152              -0.000082202               0.000561439               0.000479237               0.000000000               0.000000000               0.000000000               0.000000000               0.000274634               0.001613540              -0.000017925              -0.000098704               0.000570743               0.000472038               0.000000000               0.000000000               0.000000000               0.000000000               0.000234619               0.001633609              -0.000013907              -0.000116219               0.000583271               0.000467052               0.000000000               0.000000000               0.000000000               0.000000000               0.000193704               0.001654752              -0.000016921              -0.000134205               0.000596313               0.000462109               0.000000000               0.000000000               0.000000000               0.000000000               0.000156778               0.001674176              -0.000023646              -0.000150480               0.000608213               0.000457733               0.000000000               0.000000000               0.000000000               0.000000000               0.000120053               0.001693800              -0.000024795              -0.000166705               0.000620163               0.000453458               0.000000000               0.000000000               0.000000000               0.000000000               0.000079199               0.001715033              -0.000017165              -0.000184679               0.000633232               0.000448553               0.000000000               0.000000000               0.000000000               0.000000000               0.000039185               0.001736003              -0.000009605              -0.000202305               0.000646097               0.000443792               0.000000000               0.000000000               0.000000000               0.000000000               0.000022553               0.001752147              -0.000007704              -0.000210561               0.000654230               0.000443670               0.000000000               0.000000000               0.000000000               0.000000000               0.000402025               0.002598797              -0.000615686              -0.000174090               0.000924287               0.000750197               0.000000000               0.000000000               0.000000000               0.000000000               0.000362820               0.002221206              -0.000420453              -0.000141593               0.000787592               0.000645999               0.000000000               0.000000000               0.000000000               0.000000000               0.000408141               0.001949917              -0.000222324              -0.000090687               0.000680195               0.000589508               0.000000000               0.000000000               0.000000000               0.000000000               0.000405612               0.001801221              -0.000134011              -0.000073048               0.000624750               0.000551702               0.000000000               0.000000000               0.000000000               0.000000000               0.000387629               0.001713653              -0.000091887              -0.000068846               0.000594161               0.000525315               0.000000000               0.000000000               0.000000000               0.000000000               0.000363150               0.001662424              -0.000071384              -0.000071622               0.000578010               0.000506388               0.000000000               0.000000000               0.000000000               0.000000000               0.000336446               0.001632911              -0.000059295              -0.000077946               0.000570280               0.000492334               0.000000000               0.000000000               0.000000000               0.000000000               0.000305892               0.001620518              -0.000050350              -0.000087855               0.000569452               0.000481597               0.000000000               0.000000000               0.000000000               0.000000000               0.000269968               0.001620210              -0.000040253              -0.000101288               0.000573827               0.000472539               0.000000000               0.000000000               0.000000000               0.000000000               0.000235344               0.001632823              -0.000029454              -0.000115849               0.000582885               0.000467036               0.000000000               0.000000000               0.000000000               0.000000000               0.000202143               0.001647448              -0.000024218              -0.000130127               0.000592520               0.000462393               0.000000000               0.000000000               0.000000000               0.000000000               0.000171628               0.001659692              -0.000026825              -0.000143101               0.000600925               0.000457825               0.000000000               0.000000000               0.000000000               0.000000000               0.000142069               0.001670475              -0.000031832              -0.000155533               0.000608664               0.000453131               0.000000000               0.000000000               0.000000000               0.000000000               0.000107746               0.001683112              -0.000027931              -0.000169984               0.000617693               0.000447709               0.000000000               0.000000000               0.000000000               0.000000000               0.000070559               0.001697094              -0.000017966              -0.000185677               0.000627585               0.000441908               0.000000000               0.000000000               0.000000000               0.000000000               0.000035152               0.001707431              -0.000010565              -0.000200246               0.000635887               0.000435640               0.000000000               0.000000000               0.000000000               0.000000000               0.000019836               0.001715225              -0.000008205              -0.000206964               0.000640724               0.000433760               0.000000000               0.000000000               0.000000000               0.000000000               0.000478532               0.002341860              -0.000732860              -0.000113283               0.000818373               0.000705090               0.000000000               0.000000000               0.000000000               0.000000000               0.000386923               0.002046480              -0.000505852              -0.000110714               0.000719058               0.000608344               0.000000000               0.000000000               0.000000000               0.000000000               0.000376164               0.001862684              -0.000276477              -0.000091774               0.000651480               0.000559706               0.000000000               0.000000000               0.000000000               0.000000000               0.000353251               0.001759846              -0.000176739              -0.000087512               0.000615780               0.000528268               0.000000000               0.000000000               0.000000000               0.000000000               0.000327575               0.001697856              -0.000128937              -0.000089391               0.000595744               0.000506352               0.000000000               0.000000000               0.000000000               0.000000000               0.000303529               0.001662669              -0.000103642              -0.000094010               0.000585554               0.000491544               0.000000000               0.000000000               0.000000000               0.000000000               0.000280341               0.001644356              -0.000087475              -0.000100416               0.000581585               0.000481169               0.000000000               0.000000000               0.000000000               0.000000000               0.000254305               0.001639944              -0.000073042              -0.000109629               0.000583185               0.000473557               0.000000000               0.000000000               0.000000000               0.000000000               0.000223261               0.001646391              -0.000056718              -0.000122076               0.000589483               0.000467408               0.000000000               0.000000000               0.000000000               0.000000000               0.000193735               0.001658055              -0.000041793              -0.000134606               0.000597548               0.000462942               0.000000000               0.000000000               0.000000000               0.000000000               0.000170637               0.001666893              -0.000034365              -0.000144372               0.000603750               0.000459377               0.000000000               0.000000000               0.000000000               0.000000000               0.000149137               0.001671870              -0.000034741              -0.000153057               0.000608304               0.000455246               0.000000000               0.000000000               0.000000000               0.000000000               0.000125499               0.001676026              -0.000034633              -0.000162441               0.000612817               0.000450376               0.000000000               0.000000000               0.000000000               0.000000000               0.000095507               0.001684329              -0.000024658              -0.000174726               0.000619679               0.000444954               0.000000000               0.000000000               0.000000000               0.000000000               0.000061299               0.001693650              -0.000013188              -0.000188719               0.000627450               0.000438732               0.000000000               0.000000000               0.000000000               0.000000000               0.000030720               0.001702609              -0.000007389              -0.000201306               0.000634633               0.000433327               0.000000000               0.000000000               0.000000000               0.000000000               0.000019241               0.001711454              -0.000006314              -0.000206716               0.000639384               0.000432668               0.000000000               0.000000000               0.000000000               0.000000000               0.000544516               0.002056051              -0.000796167              -0.000052814               0.000702948               0.000650134               0.000000000               0.000000000               0.000000000               0.000000000               0.000405583               0.001853929              -0.000559128              -0.000079648               0.000644519               0.000564872               0.000000000               0.000000000               0.000000000               0.000000000               0.000342159               0.001765949              -0.000320040              -0.000092434               0.000619455               0.000527021               0.000000000               0.000000000               0.000000000               0.000000000               0.000303725               0.001709142              -0.000217337              -0.000099746               0.000602957               0.000503211               0.000000000               0.000000000               0.000000000               0.000000000               0.000276139               0.001676225              -0.000165871              -0.000105976               0.000594061               0.000488086               0.000000000               0.000000000               0.000000000               0.000000000               0.000252779               0.001658762              -0.000135920              -0.000112553               0.000590433               0.000477880               0.000000000               0.000000000               0.000000000               0.000000000               0.000231544               0.001654458              -0.000114022              -0.000119978               0.000591473               0.000471495               0.000000000               0.000000000               0.000000000               0.000000000               0.000208029               0.001661860              -0.000092775              -0.000129721               0.000597188               0.000467467               0.000000000               0.000000000               0.000000000               0.000000000               0.000179906               0.001674657              -0.000070910              -0.000141867               0.000605502               0.000463635               0.000000000               0.000000000               0.000000000               0.000000000               0.000156347               0.001686278              -0.000053730              -0.000152154               0.000612805               0.000460651               0.000000000               0.000000000               0.000000000               0.000000000               0.000142479               0.001691809              -0.000044927              -0.000158046               0.000616613               0.000458567               0.000000000               0.000000000               0.000000000               0.000000000               0.000128510               0.001694240              -0.000042720              -0.000163588               0.000619270               0.000455682               0.000000000               0.000000000               0.000000000               0.000000000               0.000109301               0.001699162              -0.000037774              -0.000171407               0.000623517               0.000452111               0.000000000               0.000000000               0.000000000               0.000000000               0.000087030               0.001711770              -0.000022740              -0.000181334               0.000631029               0.000449695               0.000000000               0.000000000               0.000000000               0.000000000               0.000060688               0.001727614              -0.000010782              -0.000193193               0.000640263               0.000447070               0.000000000               0.000000000               0.000000000               0.000000000               0.000031258               0.001745370              -0.000006385              -0.000206449               0.000650601               0.000444152               0.000000000               0.000000000               0.000000000               0.000000000               0.000020430               0.001761786              -0.000007033              -0.000212561               0.000658110               0.000445548               0.000000000               0.000000000               0.000000000               0.000000000               0.000591986               0.001758308              -0.000809758               0.000002205               0.000585362               0.000587567               0.000000000               0.000000000               0.000000000               0.000000000               0.000417190               0.001657498              -0.000583873              -0.000050741               0.000569407               0.000518666               0.000000000               0.000000000               0.000000000               0.000000000               0.000312184               0.001665618              -0.000354956              -0.000091133               0.000585578               0.000494445               0.000000000               0.000000000               0.000000000               0.000000000               0.000266816               0.001654074              -0.000253716              -0.000106703               0.000586920               0.000480217               0.000000000               0.000000000               0.000000000               0.000000000               0.000240893               0.001648568              -0.000199211              -0.000115736               0.000588096               0.000472360               0.000000000               0.000000000               0.000000000               0.000000000               0.000218498               0.001648485              -0.000163390              -0.000124124               0.000590864               0.000466741               0.000000000               0.000000000               0.000000000               0.000000000               0.000197616               0.001660312              -0.000134437              -0.000133433               0.000597909               0.000464477               0.000000000               0.000000000               0.000000000               0.000000000               0.000174396               0.001680399              -0.000107146              -0.000144651               0.000608344               0.000463693               0.000000000               0.000000000               0.000000000               0.000000000               0.000149796               0.001703033              -0.000082496              -0.000156705               0.000619907               0.000463202               0.000000000               0.000000000               0.000000000               0.000000000               0.000130454               0.001716385              -0.000064699              -0.000165628               0.000627332               0.000461704               0.000000000               0.000000000               0.000000000               0.000000000               0.000119740               0.001723639              -0.000054971              -0.000170552               0.000631391               0.000460839               0.000000000               0.000000000               0.000000000               0.000000000               0.000108798               0.001733437              -0.000048960              -0.000175880               0.000636433               0.000460553               0.000000000               0.000000000               0.000000000               0.000000000               0.000094197               0.001755129              -0.000038877              -0.000184067               0.000646393               0.000462326               0.000000000               0.000000000               0.000000000               0.000000000               0.000076685               0.001786251              -0.000021203              -0.000194524               0.000660253               0.000465729               0.000000000               0.000000000               0.000000000               0.000000000               0.000053543               0.001820359              -0.000009920              -0.000207466               0.000675935               0.000468470               0.000000000               0.000000000               0.000000000               0.000000000               0.000027338               0.001855244              -0.000006757              -0.000221653               0.000692293               0.000470640               0.000000000               0.000000000               0.000000000               0.000000000               0.000019457               0.001881320              -0.000008257              -0.000227868               0.000703056               0.000475188               0.000000000               0.000000000               0.000000000               0.000000000               0.000618968               0.001470107              -0.000778793               0.000048348               0.000473914               0.000522263               0.000000000               0.000000000               0.000000000               0.000000000               0.000422784               0.001472055              -0.000585278              -0.000025464               0.000499168               0.000473704               0.000000000               0.000000000               0.000000000               0.000000000               0.000291817               0.001567678              -0.000382604              -0.000086528               0.000551397               0.000464868               0.000000000               0.000000000               0.000000000               0.000000000               0.000245809               0.001596246              -0.000284195              -0.000107352               0.000567861               0.000460508               0.000000000               0.000000000               0.000000000               0.000000000               0.000223031               0.001613386              -0.000224769              -0.000118036               0.000577135               0.000459099               0.000000000               0.000000000               0.000000000               0.000000000               0.000202788               0.001632960              -0.000181671              -0.000128074               0.000587006               0.000458932               0.000000000               0.000000000               0.000000000               0.000000000               0.000180884               0.001663452              -0.000146903              -0.000140100               0.000601178               0.000461079               0.000000000               0.000000000               0.000000000               0.000000000               0.000156505               0.001697670              -0.000115945              -0.000153519               0.000617057               0.000463538               0.000000000               0.000000000               0.000000000               0.000000000               0.000135724               0.001726531              -0.000089855              -0.000164919               0.000630478               0.000465558               0.000000000               0.000000000               0.000000000               0.000000000               0.000120687               0.001745183              -0.000071817              -0.000172890               0.000639352               0.000466462               0.000000000               0.000000000               0.000000000               0.000000000               0.000110314               0.001767055              -0.000059381              -0.000179514               0.000648850               0.000469337               0.000000000               0.000000000               0.000000000               0.000000000               0.000100872               0.001803525              -0.000046192              -0.000187613               0.000663707               0.000476093               0.000000000               0.000000000               0.000000000               0.000000000               0.000088475               0.001857391              -0.000030435              -0.000198995               0.000685456               0.000486461               0.000000000               0.000000000               0.000000000               0.000000000               0.000070107               0.001917594              -0.000014057              -0.000213408               0.000710328               0.000496919               0.000000000               0.000000000               0.000000000               0.000000000               0.000045876               0.001972818              -0.000004973              -0.000229398               0.000734066               0.000504667               0.000000000               0.000000000               0.000000000               0.000000000               0.000022637               0.002025332              -0.000003845              -0.000244677               0.000756663               0.000511986               0.000000000               0.000000000               0.000000000               0.000000000               0.000016925               0.002061222              -0.000007060              -0.000251305               0.000770835               0.000519530               0.000000000               0.000000000               0.000000000               0.000000000               0.000631210               0.001216391              -0.000718191               0.000084653               0.000377242               0.000461895               0.000000000               0.000000000               0.000000000               0.000000000               0.000430365               0.001305633              -0.000574484              -0.000001818               0.000435812               0.000433994               0.000000000               0.000000000               0.000000000               0.000000000               0.000286141               0.001476185              -0.000410517              -0.000077220               0.000517797               0.000440576               0.000000000               0.000000000               0.000000000               0.000000000               0.000243807               0.001540992              -0.000314333              -0.000101196               0.000547391               0.000446195               0.000000000               0.000000000               0.000000000               0.000000000               0.000222846               0.001579809              -0.000248575              -0.000113909               0.000564567               0.000450659               0.000000000               0.000000000               0.000000000               0.000000000               0.000205756               0.001621040              -0.000198649              -0.000125471               0.000582165               0.000456694               0.000000000               0.000000000               0.000000000               0.000000000               0.000182928               0.001667406              -0.000159436              -0.000139827               0.000602406               0.000462578               0.000000000               0.000000000               0.000000000               0.000000000               0.000157754               0.001710042              -0.000127550              -0.000154597               0.000621541               0.000466943               0.000000000               0.000000000               0.000000000               0.000000000               0.000140350               0.001743086              -0.000099752              -0.000165254               0.000636108               0.000470854               0.000000000               0.000000000               0.000000000               0.000000000               0.000131188               0.001773031              -0.000076838              -0.000172433               0.000648482               0.000476049               0.000000000               0.000000000               0.000000000               0.000000000               0.000124936               0.001817527              -0.000056502              -0.000180339               0.000665949               0.000485610               0.000000000               0.000000000               0.000000000               0.000000000               0.000115689               0.001884179              -0.000034987              -0.000192138               0.000692099               0.000499961               0.000000000               0.000000000               0.000000000               0.000000000               0.000099719               0.001966804              -0.000016782              -0.000208455               0.000725080               0.000516625               0.000000000               0.000000000               0.000000000               0.000000000               0.000080109               0.002046851              -0.000006078              -0.000225815               0.000757548               0.000531733               0.000000000               0.000000000               0.000000000               0.000000000               0.000059903               0.002115757              -0.000000482              -0.000242005               0.000785914               0.000543908               0.000000000               0.000000000               0.000000000               0.000000000               0.000042207               0.002181741               0.000002067              -0.000256889               0.000812870               0.000555980               0.000000000               0.000000000               0.000000000               0.000000000               0.000034574               0.002221137               0.000001248              -0.000264676               0.000828597               0.000563921               0.000000000               0.000000000               0.000000000               0.000000000               0.000626106               0.000968207              -0.000642485               0.000113762               0.000284811               0.000398574               0.000000000               0.000000000               0.000000000               0.000000000               0.000443588               0.001110301              -0.000557295               0.000027557               0.000360911               0.000388467               0.000000000               0.000000000               0.000000000               0.000000000               0.000297183               0.001335139              -0.000444324              -0.000055449               0.000463525               0.000408076               0.000000000               0.000000000               0.000000000               0.000000000               0.000254814               0.001439764              -0.000353946              -0.000084415               0.000508055               0.000423640               0.000000000               0.000000000               0.000000000               0.000000000               0.000236083               0.001506572              -0.000283759              -0.000099790               0.000535449               0.000435659               0.000000000               0.000000000               0.000000000               0.000000000               0.000220551               0.001566913              -0.000228645              -0.000113157               0.000560018               0.000446861               0.000000000               0.000000000               0.000000000               0.000000000               0.000199582               0.001621159              -0.000185007              -0.000127801               0.000582981               0.000455180               0.000000000               0.000000000               0.000000000               0.000000000               0.000174470               0.001672470              -0.000151678              -0.000143632               0.000605362               0.000461730               0.000000000               0.000000000               0.000000000               0.000000000               0.000155882               0.001720913              -0.000122968              -0.000156658               0.000625851               0.000469193               0.000000000               0.000000000               0.000000000               0.000000000               0.000145634               0.001768185              -0.000095282              -0.000166410               0.000644859               0.000478449               0.000000000               0.000000000               0.000000000               0.000000000               0.000142093               0.001826652              -0.000067505              -0.000175046               0.000667227               0.000492180               0.000000000               0.000000000               0.000000000               0.000000000               0.000140909               0.001903767              -0.000040879              -0.000185129               0.000696292               0.000511163               0.000000000               0.000000000               0.000000000               0.000000000               0.000135093               0.001993837              -0.000022488              -0.000198569               0.000730795               0.000532226               0.000000000               0.000000000               0.000000000               0.000000000               0.000122147               0.002084653              -0.000012684              -0.000214776               0.000766469               0.000551693               0.000000000               0.000000000               0.000000000               0.000000000               0.000106691               0.002167915              -0.000004235              -0.000230980               0.000799624               0.000568645               0.000000000               0.000000000               0.000000000               0.000000000               0.000094161               0.002250308               0.000002524              -0.000245978               0.000832088               0.000586110               0.000000000               0.000000000               0.000000000               0.000000000               0.000084074               0.002290575               0.000006519              -0.000254793               0.000848449               0.000593655               0.000000000               0.000000000               0.000000000               0.000000000               0.000592710               0.000734366              -0.000551086               0.000130469               0.000201296               0.000331765               0.000000000               0.000000000               0.000000000               0.000000000               0.000455110               0.000914677              -0.000525280               0.000056331               0.000286112               0.000342443               0.000000000               0.000000000               0.000000000               0.000000000               0.000324246               0.001176160              -0.000467316              -0.000025428               0.000400525               0.000375097               0.000000000               0.000000000               0.000000000               0.000000000               0.000279024               0.001318220              -0.000391168              -0.000060144               0.000459450               0.000399306               0.000000000               0.000000000               0.000000000               0.000000000               0.000260434               0.001416697              -0.000321182              -0.000079424               0.000498702               0.000419278               0.000000000               0.000000000               0.000000000               0.000000000               0.000244305               0.001493553              -0.000262460              -0.000095080               0.000529539               0.000434460               0.000000000               0.000000000               0.000000000               0.000000000               0.000223914               0.001558625              -0.000216002              -0.000110860               0.000556490               0.000445630               0.000000000               0.000000000               0.000000000               0.000000000               0.000201836               0.001624218              -0.000181414              -0.000127338               0.000583847               0.000456508               0.000000000               0.000000000               0.000000000               0.000000000               0.000181194               0.001687330              -0.000150795              -0.000142968               0.000610094               0.000467126               0.000000000               0.000000000               0.000000000               0.000000000               0.000166376               0.001748682              -0.000119878              -0.000156194               0.000634953               0.000478759               0.000000000               0.000000000               0.000000000               0.000000000               0.000162874               0.001814777              -0.000090843              -0.000165769               0.000660176               0.000494407               0.000000000               0.000000000               0.000000000               0.000000000               0.000171561               0.001890535              -0.000063165              -0.000171981               0.000687499               0.000515518               0.000000000               0.000000000               0.000000000               0.000000000               0.000178489               0.001979799              -0.000038871              -0.000180541               0.000720107               0.000539566               0.000000000               0.000000000               0.000000000               0.000000000               0.000174423               0.002076119              -0.000022868              -0.000194106               0.000756735               0.000562629               0.000000000               0.000000000               0.000000000               0.000000000               0.000164584               0.002165587              -0.000012368              -0.000208979               0.000791515               0.000582536               0.000000000               0.000000000               0.000000000               0.000000000               0.000155322               0.002249985              -0.000004144              -0.000223002               0.000824322               0.000601320               0.000000000               0.000000000               0.000000000               0.000000000               0.000142331               0.002284618               0.000002887              -0.000232202               0.000838932               0.000606730               0.000000000               0.000000000               0.000000000               0.000000000               0.000531226               0.000526642              -0.000445878               0.000133378               0.000131086               0.000264464               0.000000000               0.000000000               0.000000000               0.000000000               0.000454838               0.000725260              -0.000471315               0.000079905               0.000215116               0.000295021               0.000000000               0.000000000               0.000000000               0.000000000               0.000356388               0.001000592              -0.000463277               0.000008571               0.000330670               0.000339241               0.000000000               0.000000000               0.000000000               0.000000000               0.000314739               0.001175091              -0.000406690              -0.000028860               0.000401313               0.000372453               0.000000000               0.000000000               0.000000000               0.000000000               0.000293732               0.001300640              -0.000343344              -0.000052431               0.000451019               0.000398588               0.000000000               0.000000000               0.000000000               0.000000000               0.000275357               0.001396217              -0.000284840              -0.000071268               0.000489157               0.000417889               0.000000000               0.000000000               0.000000000               0.000000000               0.000255606               0.001479093              -0.000238279              -0.000089034               0.000522704               0.000433670               0.000000000               0.000000000               0.000000000               0.000000000               0.000234987               0.001557832              -0.000203743              -0.000106609               0.000554808               0.000448200               0.000000000               0.000000000               0.000000000               0.000000000               0.000215269               0.001635303              -0.000172264              -0.000123687               0.000586325               0.000462638               0.000000000               0.000000000               0.000000000               0.000000000               0.000201390               0.001709337              -0.000142755              -0.000138146               0.000615822               0.000477676               0.000000000               0.000000000               0.000000000               0.000000000               0.000196337               0.001780606              -0.000117865              -0.000148949               0.000643179               0.000494230               0.000000000               0.000000000               0.000000000               0.000000000               0.000202246               0.001862265              -0.000089415              -0.000156940               0.000673062               0.000516122               0.000000000               0.000000000               0.000000000               0.000000000               0.000213789               0.001958996              -0.000058213              -0.000164703               0.000707893               0.000543190               0.000000000               0.000000000               0.000000000               0.000000000               0.000220557               0.002060981              -0.000038070              -0.000174913               0.000745291               0.000570378               0.000000000               0.000000000               0.000000000               0.000000000               0.000220391               0.002158232              -0.000028040              -0.000187132               0.000781781               0.000594649               0.000000000               0.000000000               0.000000000               0.000000000               0.000215085               0.002248800              -0.000016331              -0.000200443               0.000816407               0.000615964               0.000000000               0.000000000               0.000000000               0.000000000               0.000200288               0.002285560              -0.000005297              -0.000210586               0.000832041               0.000621455               0.000000000               0.000000000               0.000000000               0.000000000               0.000449589               0.000355251              -0.000338800               0.000124188               0.000077020               0.000201208               0.000000000               0.000000000               0.000000000               0.000000000               0.000443325               0.000551132              -0.000397735               0.000097354               0.000151257               0.000248611               0.000000000               0.000000000               0.000000000               0.000000000               0.000391161               0.000822923              -0.000427027               0.000043819               0.000259698               0.000303518               0.000000000               0.000000000               0.000000000               0.000000000               0.000357391               0.001018000              -0.000392250               0.000006771               0.000337073               0.000343844               0.000000000               0.000000000               0.000000000               0.000000000               0.000335020               0.001163318              -0.000339236              -0.000019783               0.000394363               0.000374581               0.000000000               0.000000000               0.000000000               0.000000000               0.000314444               0.001277721              -0.000286424              -0.000041799               0.000439836               0.000398037               0.000000000               0.000000000               0.000000000               0.000000000               0.000296790               0.001379514              -0.000243648              -0.000061143               0.000480214               0.000419071               0.000000000               0.000000000               0.000000000               0.000000000               0.000278273               0.001472350              -0.000210890              -0.000079691               0.000517342               0.000437651               0.000000000               0.000000000               0.000000000               0.000000000               0.000261679               0.001561094              -0.000182762              -0.000097007               0.000552695               0.000455688               0.000000000               0.000000000               0.000000000               0.000000000               0.000249339               0.001646821              -0.000157578              -0.000112350               0.000586385               0.000474035               0.000000000               0.000000000               0.000000000               0.000000000               0.000241431               0.001731587              -0.000134475              -0.000125912               0.000619160               0.000493249               0.000000000               0.000000000               0.000000000               0.000000000               0.000240552               0.001826657              -0.000107738              -0.000138125               0.000654921               0.000516796               0.000000000               0.000000000               0.000000000               0.000000000               0.000251436               0.001931246              -0.000079238              -0.000147117               0.000692781               0.000545664               0.000000000               0.000000000               0.000000000               0.000000000               0.000267293               0.002041390              -0.000057341              -0.000154939               0.000732103               0.000577164               0.000000000               0.000000000               0.000000000               0.000000000               0.000274677               0.002147425              -0.000043313              -0.000165424               0.000770942               0.000605519               0.000000000               0.000000000               0.000000000               0.000000000               0.000271799               0.002243945              -0.000025811              -0.000178568               0.000807497               0.000628929               0.000000000               0.000000000               0.000000000               0.000000000               0.000259469               0.002285159              -0.000011455              -0.000188343               0.000824493               0.000636150               0.000000000               0.000000000               0.000000000               0.000000000               0.000360780               0.000223029              -0.000238274               0.000107413               0.000038538               0.000145951               0.000000000               0.000000000               0.000000000               0.000000000               0.000422378               0.000401290              -0.000309175               0.000108229               0.000097685               0.000205915               0.000000000               0.000000000               0.000000000               0.000000000               0.000424020               0.000657519              -0.000357582               0.000076817               0.000193565               0.000270382               0.000000000               0.000000000               0.000000000               0.000000000               0.000402986               0.000861645              -0.000341148               0.000043414               0.000272741               0.000316155               0.000000000               0.000000000               0.000000000               0.000000000               0.000379229               0.001019176              -0.000301663               0.000014813               0.000334784               0.000349598               0.000000000               0.000000000               0.000000000               0.000000000               0.000360081               0.001151202              -0.000259549              -0.000008870               0.000386687               0.000377817               0.000000000               0.000000000               0.000000000               0.000000000               0.000342403               0.001268500              -0.000224087              -0.000030162               0.000432883               0.000402721               0.000000000               0.000000000               0.000000000               0.000000000               0.000327126               0.001375987              -0.000196729              -0.000049326               0.000475100               0.000425774               0.000000000               0.000000000               0.000000000               0.000000000               0.000312424               0.001478304              -0.000174276              -0.000067629               0.000515306               0.000447677               0.000000000               0.000000000               0.000000000               0.000000000               0.000299291               0.001576970              -0.000153674              -0.000084887               0.000553947               0.000469060               0.000000000               0.000000000               0.000000000               0.000000000               0.000288845               0.001679536              -0.000133473              -0.000101625               0.000593715               0.000492090               0.000000000               0.000000000               0.000000000               0.000000000               0.000288676               0.001791622              -0.000112840              -0.000115699               0.000635768               0.000520069               0.000000000               0.000000000               0.000000000               0.000000000               0.000297751               0.001904291              -0.000092631              -0.000126379               0.000676884               0.000550504               0.000000000               0.000000000               0.000000000               0.000000000               0.000314141               0.002017767              -0.000073508              -0.000134418               0.000717388               0.000582970               0.000000000               0.000000000               0.000000000               0.000000000               0.000325956               0.002126702              -0.000053475              -0.000143604               0.000756762               0.000613158               0.000000000               0.000000000               0.000000000               0.000000000               0.000326696               0.002230020              -0.000029601              -0.000156241               0.000795413               0.000639172               0.000000000               0.000000000               0.000000000               0.000000000               0.000317623               0.002276976              -0.000014142              -0.000165513               0.000814155               0.000648642               0.000000000               0.000000000               0.000000000               0.000000000               0.000280890               0.000128991              -0.000147475               0.000089209               0.000013260               0.000102469               0.000000000               0.000000000               0.000000000               0.000000000               0.000400073               0.000286665              -0.000210035               0.000114193               0.000057489               0.000171683               0.000000000               0.000000000               0.000000000               0.000000000               0.000450217               0.000522427              -0.000258063               0.000103527               0.000139632               0.000243158               0.000000000               0.000000000               0.000000000               0.000000000               0.000444248               0.000726685              -0.000253386               0.000075757               0.000216974               0.000292730               0.000000000               0.000000000               0.000000000               0.000000000               0.000422250               0.000892911              -0.000228771               0.000046729               0.000282058               0.000328787               0.000000000               0.000000000               0.000000000               0.000000000               0.000402512               0.001036198              -0.000199770               0.000021417               0.000338257               0.000359674               0.000000000               0.000000000               0.000000000               0.000000000               0.000384764               0.001163507              -0.000174789              -0.000001152               0.000388216               0.000387064               0.000000000               0.000000000               0.000000000               0.000000000               0.000371382               0.001286860              -0.000155246              -0.000021589               0.000436145               0.000414556               0.000000000               0.000000000               0.000000000               0.000000000               0.000357459               0.001405377              -0.000138380              -0.000041625               0.000482329               0.000440704               0.000000000               0.000000000               0.000000000               0.000000000               0.000343362               0.001516858              -0.000123976              -0.000060846               0.000525896               0.000465050               0.000000000               0.000000000               0.000000000               0.000000000               0.000337310               0.001631063              -0.000111931              -0.000077392               0.000569480               0.000492088               0.000000000               0.000000000               0.000000000               0.000000000               0.000338447               0.001751696              -0.000099343              -0.000092044               0.000614574               0.000522530               0.000000000               0.000000000               0.000000000               0.000000000               0.000346282               0.001876028              -0.000085920              -0.000104648               0.000660219               0.000555572               0.000000000               0.000000000               0.000000000               0.000000000               0.000356933               0.001994095              -0.000070958              -0.000115412               0.000703162               0.000587751               0.000000000               0.000000000               0.000000000               0.000000000               0.000367259               0.002100951              -0.000050282              -0.000124896               0.000741942               0.000617046               0.000000000               0.000000000               0.000000000               0.000000000               0.000379484               0.002210676              -0.000025373              -0.000134028               0.000781560               0.000647533               0.000000000               0.000000000               0.000000000               0.000000000               0.000381384               0.002265207              -0.000011284              -0.000140132               0.000801772               0.000661640               0.000000000               0.000000000               0.000000000               0.000000000               0.000222442               0.000077516              -0.000068978               0.000073725               0.000001263               0.000074989               0.000000000               0.000000000               0.000000000               0.000000000               0.000381733               0.000216982              -0.000106190               0.000116026               0.000033651               0.000149677               0.000000000               0.000000000               0.000000000               0.000000000               0.000468554               0.000432903              -0.000135942               0.000121593               0.000103768               0.000225362               0.000000000               0.000000000               0.000000000               0.000000000               0.000473693               0.000635019              -0.000135414               0.000098257               0.000178919               0.000277175               0.000000000               0.000000000               0.000000000               0.000000000               0.000454048               0.000806193              -0.000123919               0.000069493               0.000245564               0.000315057               0.000000000               0.000000000               0.000000000               0.000000000               0.000432126               0.000953636              -0.000109070               0.000042842               0.000303595               0.000346437               0.000000000               0.000000000               0.000000000               0.000000000               0.000414746               0.001088781              -0.000096716               0.000019432               0.000356446               0.000375878               0.000000000               0.000000000               0.000000000               0.000000000               0.000400786               0.001222013              -0.000086681              -0.000002457               0.000408152               0.000405696               0.000000000               0.000000000               0.000000000               0.000000000               0.000389491               0.001350881              -0.000075593              -0.000022801               0.000457890               0.000435089               0.000000000               0.000000000               0.000000000               0.000000000               0.000380561               0.001475576              -0.000069292              -0.000041736               0.000505766               0.000464029               0.000000000               0.000000000               0.000000000               0.000000000               0.000375998               0.001599321              -0.000065613              -0.000058916               0.000552740               0.000493824               0.000000000               0.000000000               0.000000000               0.000000000               0.000374304               0.001721829              -0.000059664              -0.000074864               0.000598892               0.000524028               0.000000000               0.000000000               0.000000000               0.000000000               0.000377447               0.001845272              -0.000052758              -0.000089116               0.000644790               0.000555674               0.000000000               0.000000000               0.000000000               0.000000000               0.000385221               0.001966918              -0.000042448              -0.000101406               0.000689435               0.000588028               0.000000000               0.000000000               0.000000000               0.000000000               0.000400896               0.002087467              -0.000030137              -0.000110597               0.000732681               0.000622084               0.000000000               0.000000000               0.000000000               0.000000000               0.000428216               0.002208431              -0.000016634              -0.000115473               0.000774627               0.000659154               0.000000000               0.000000000               0.000000000               0.000000000               0.000444529               0.002267163              -0.000008828              -0.000116697               0.000794612               0.000677916               0.000000000               0.000000000               0.000000000               0.000000000               0.000000000               0.000000000               0.000000000               0.000000000               0.000000000               0.000000000               0.000000000               0.000000000               0.000000000               0.000000000               0.000000000               0.000000000               0.000000000               0.000000000               0.000000000               0.000000000               0.000000000               0.000000000               0.000000000               0.000000000               0.000000000               0.000000000               0.000000000               0.000000000               0.000000000               0.000000000               0.000000000               0.000000000               0.000000000               0.000000000               0.000000000               0.000000000               0.000000000               0.000000000               0.000000000               0.000000000               0.000000000               0.000000000               0.000000000               0.000000000               0.000000000               0.000000000               0.000000000               0.000000000               0.000000000               0.000000000               0.000000000               0.000000000               0.000000000               0.000000000               0.000000000               0.000000000               0.000000000               0.000000000               0.000000000               0.000000000               0.000000000               0.000000000               0.000000000               0.000000000               0.000000000               0.000000000               0.000000000               0.000000000               0.000000000               0.000000000               0.000000000               0.000000000               0.000000000               0.000000000               0.000000000               0.000000000               0.000000000               0.000000000               0.000000000               0.000000000               0.000000000               0.000000000               0.000000000               0.000000000               0.000000000               0.000000000               0.000000000               0.000000000               0.000000000               0.000000000               0.000000000               0.000000000               0.000000000               0.000000000               0.000000000               0.000000000               0.000000000               0.000000000               0.000000000               0.000000000               0.000000000               0.000000000               0.000000000               0.000000000               0.000000000               0.000000000               0.000000000               0.000000000               0.000000000               0.000000000               0.000000000               0.000000000               0.000000000               0.000000000               0.000000000               0.000000000               0.000000000               0.000000000               0.000000000               0.000000000               0.000000000               0.000000000               0.000000000               0.000000000               0.000000000               0.000000000               0.000000000               0.000000000               0.000000000               0.000000000               0.000000000               0.000000000               0.000000000               0.000000000               0.000000000               0.000000000               0.000000000               0.000000000               0.000000000               0.000000000               0.000000000               0.000000000               0.000000000               0.000000000               0.000000000               0.000000000               0.000000000               0.000000000               0.000000000               0.000000000               0.000000000               0.000000000               0.000000000               0.000000000               0.000000000               0.000000000               0.000000000               0.000000000               0.000000000               0.000000000               0.000000000               0.000000000               0.000000000               0.000000000               0.000000000               0.000000000               0.000000000               0.000000000               0.000000000               0.000000000               0.000000000               0.000000000               0.000000000               0.000000000               0.000000000               0.000000000               0.000000000               0.000000000               0.000000000               0.000000000               0.000000000               0.000000000               0.000000000               0.000000000               0.000000000               0.000000000               0.000000000               0.000000000               0.000000000               0.000000000               0.000000000               0.000000000               0.000000000               0.000000000               0.000000000               0.000000000               0.000000000               0.000000000               0.000000000               0.000000000               0.000000000               0.000000000               0.000000000               0.000000000               0.000000000               0.000000000               0.000000000               0.000000000               0.000000000               0.000000000               0.000000000               0.000000000               0.000000000               0.000000000               0.000000000               0.000000000               0.000000000               0.000000000               0.000000000               0.000000000               0.000000000               0.000000000               0.000000000               0.000000000               0.000000000               0.000000000               0.000000000               0.000000000               0.000000000               0.000000000               0.000000000               0.000000000               0.000000000               0.000000000               0.000000000               0.000000000               0.000000000               0.000000000               0.000000000               0.000000000               0.000000000               0.000000000               0.000000000               0.000000000               0.000000000               0.000000000               0.000000000               0.000000000               0.000000000               0.000000000               0.000000000               0.000000000               0.000000000               0.000000000               0.000000000               0.000000000               0.000000000               0.000000000               0.000000000               0.000000000               0.000000000               0.000000000               0.000000000               0.000000000               0.000000000               0.000000000               0.000000000               0.000000000               0.000000000               0.000000000               0.000000000               0.000000000               0.000000000               0.000000000               0.000000000               0.000000000               0.000000000               0.000000000               0.000000000               0.000000000               0.000000000               0.000000000               0.000000000               0.000000000               0.000000000               0.000000000               0.000000000               0.000000000               0.000000000               0.000000000               0.000000000               0.000000000               0.000000000               0.000000000               0.000000000               0.000000000               0.000000000               0.000000000               0.000000000               0.000000000               0.000000000               0.000000000               0.000000000               0.000000000               0.000000000               0.000000000               0.000000000               0.000000000               0.000000000               0.000000000               0.000000000               0.000000000               0.000000000               0.000000000               0.000000000               0.000000000               0.000000000               0.000000000               0.000000000               0.000000000               0.000000000               0.000000000               0.000000000               0.000000000               0.000000000               0.000000000               0.000000000               0.000000000               0.000000000               0.000000000               0.000000000               0.000000000               0.000000000               0.000000000               0.000000000               0.000000000               0.000000000               0.000000000               0.000000000               0.000000000               0.000000000               0.000000000               0.000000000               0.000000000               0.000285751               0.002938165               0.000233049              -0.000260113               0.001066083               0.000805969               0.000000000               0.000000000               0.000000000               0.000000000               0.000320821               0.002459492               0.000159361              -0.000187128               0.000882198               0.000695070               0.000000000               0.000000000               0.000000000               0.000000000               0.000449325               0.002072434               0.000081918              -0.000090557               0.000720990               0.000630433               0.000000000               0.000000000               0.000000000               0.000000000               0.000486025               0.001856189               0.000044807              -0.000049764               0.000635312               0.000585547               0.000000000               0.000000000               0.000000000               0.000000000               0.000482491               0.001729715               0.000027396              -0.000035280               0.000588326               0.000553046               0.000000000               0.000000000               0.000000000               0.000000000               0.000458685               0.001654399               0.000019213              -0.000034793               0.000563059               0.000528266               0.000000000               0.000000000               0.000000000               0.000000000               0.000426559               0.001613307               0.000015241              -0.000041704               0.000551665               0.000509961               0.000000000               0.000000000               0.000000000               0.000000000               0.000388452               0.001593117               0.000013003              -0.000053470               0.000548857               0.000495387               0.000000000               0.000000000               0.000000000               0.000000000               0.000346742               0.001591023               0.000010871              -0.000068849               0.000553286               0.000484436               0.000000000               0.000000000               0.000000000               0.000000000               0.000302656               0.001601833               0.000007797              -0.000086733               0.000562850               0.000476117               0.000000000               0.000000000               0.000000000               0.000000000               0.000256803               0.001624840               0.000006333              -0.000106804               0.000577209               0.000470405               0.000000000               0.000000000               0.000000000               0.000000000               0.000210227               0.001652438               0.000007676              -0.000127719               0.000593380               0.000465661               0.000000000               0.000000000               0.000000000               0.000000000               0.000167517               0.001680186               0.000012064              -0.000147204               0.000609124               0.000461920               0.000000000               0.000000000               0.000000000               0.000000000               0.000127558               0.001706103               0.000014235              -0.000165428               0.000623838               0.000458410               0.000000000               0.000000000               0.000000000               0.000000000               0.000086380               0.001734128               0.000010399              -0.000184373               0.000639495               0.000455122               0.000000000               0.000000000               0.000000000               0.000000000               0.000043483               0.001766127               0.000005367              -0.000204459               0.000656856               0.000452397               0.000000000               0.000000000               0.000000000               0.000000000               0.000025268               0.001791778               0.000003820              -0.000214496               0.000668752               0.000454256               0.000000000               0.000000000               0.000000000               0.000000000               0.000333223               0.002805794               0.000444868              -0.000225765               0.001010510               0.000784745               0.000000000               0.000000000               0.000000000               0.000000000               0.000338700               0.002364314               0.000303322              -0.000168526               0.000844272               0.000675746               0.000000000               0.000000000               0.000000000               0.000000000               0.000434050               0.002023764               0.000157347              -0.000090202               0.000704648               0.000614447               0.000000000               0.000000000               0.000000000               0.000000000               0.000453614               0.001834430               0.000089801              -0.000059198               0.000631203               0.000572005               0.000000000               0.000000000               0.000000000               0.000000000               0.000443026               0.001723830               0.000058115              -0.000049344               0.000591052               0.000541708               0.000000000               0.000000000               0.000000000               0.000000000               0.000418284               0.001658520               0.000042351              -0.000050459               0.000569654               0.000519196               0.000000000               0.000000000               0.000000000               0.000000000               0.000388438               0.001621458               0.000034671              -0.000057018               0.000559487               0.000502469               0.000000000               0.000000000               0.000000000               0.000000000               0.000354357               0.001604577               0.000029306              -0.000067688               0.000557416               0.000489728               0.000000000               0.000000000               0.000000000               0.000000000               0.000314838               0.001602132               0.000024152              -0.000082202               0.000561439               0.000479237               0.000000000               0.000000000               0.000000000               0.000000000               0.000274634               0.001613540               0.000017925              -0.000098704               0.000570743               0.000472038               0.000000000               0.000000000               0.000000000               0.000000000               0.000234619               0.001633609               0.000013907              -0.000116219               0.000583271               0.000467052               0.000000000               0.000000000               0.000000000               0.000000000               0.000193704               0.001654752               0.000016921              -0.000134205               0.000596313               0.000462109               0.000000000               0.000000000               0.000000000               0.000000000               0.000156778               0.001674176               0.000023646              -0.000150480               0.000608213               0.000457733               0.000000000               0.000000000               0.000000000               0.000000000               0.000120053               0.001693800               0.000024795              -0.000166705               0.000620163               0.000453458               0.000000000               0.000000000               0.000000000               0.000000000               0.000079199               0.001715033               0.000017165              -0.000184679               0.000633232               0.000448553               0.000000000               0.000000000               0.000000000               0.000000000               0.000039185               0.001736003               0.000009605              -0.000202305               0.000646097               0.000443792               0.000000000               0.000000000               0.000000000               0.000000000               0.000022553               0.001752147               0.000007704              -0.000210561               0.000654230               0.000443670               0.000000000               0.000000000               0.000000000               0.000000000               0.000402025               0.002598797               0.000615686              -0.000174090               0.000924287               0.000750197               0.000000000               0.000000000               0.000000000               0.000000000               0.000362820               0.002221206               0.000420453              -0.000141593               0.000787592               0.000645999               0.000000000               0.000000000               0.000000000               0.000000000               0.000408141               0.001949917               0.000222324              -0.000090687               0.000680195               0.000589508               0.000000000               0.000000000               0.000000000               0.000000000               0.000405612               0.001801221               0.000134011              -0.000073048               0.000624750               0.000551702               0.000000000               0.000000000               0.000000000               0.000000000               0.000387629               0.001713653               0.000091887              -0.000068846               0.000594161               0.000525315               0.000000000               0.000000000               0.000000000               0.000000000               0.000363150               0.001662424               0.000071384              -0.000071622               0.000578010               0.000506388               0.000000000               0.000000000               0.000000000               0.000000000               0.000336446               0.001632911               0.000059295              -0.000077946               0.000570280               0.000492334               0.000000000               0.000000000               0.000000000               0.000000000               0.000305892               0.001620518               0.000050350              -0.000087855               0.000569452               0.000481597               0.000000000               0.000000000               0.000000000               0.000000000               0.000269968               0.001620210               0.000040253              -0.000101288               0.000573827               0.000472539               0.000000000               0.000000000               0.000000000               0.000000000               0.000235344               0.001632823               0.000029454              -0.000115849               0.000582885               0.000467036               0.000000000               0.000000000               0.000000000               0.000000000               0.000202143               0.001647448               0.000024218              -0.000130127               0.000592520               0.000462393               0.000000000               0.000000000               0.000000000               0.000000000               0.000171628               0.001659692               0.000026825              -0.000143101               0.000600925               0.000457825               0.000000000               0.000000000               0.000000000               0.000000000               0.000142069               0.001670475               0.000031832              -0.000155533               0.000608664               0.000453131               0.000000000               0.000000000               0.000000000               0.000000000               0.000107746               0.001683112               0.000027931              -0.000169984               0.000617693               0.000447709               0.000000000               0.000000000               0.000000000               0.000000000               0.000070559               0.001697094               0.000017966              -0.000185677               0.000627585               0.000441908               0.000000000               0.000000000               0.000000000               0.000000000               0.000035152               0.001707431               0.000010565              -0.000200246               0.000635887               0.000435640               0.000000000               0.000000000               0.000000000               0.000000000               0.000019836               0.001715225               0.000008205              -0.000206964               0.000640724               0.000433760               0.000000000               0.000000000               0.000000000               0.000000000               0.000478532               0.002341860               0.000732860              -0.000113283               0.000818373               0.000705090               0.000000000               0.000000000               0.000000000               0.000000000               0.000386923               0.002046480               0.000505852              -0.000110714               0.000719058               0.000608344               0.000000000               0.000000000               0.000000000               0.000000000               0.000376164               0.001862684               0.000276477              -0.000091774               0.000651480               0.000559706               0.000000000               0.000000000               0.000000000               0.000000000               0.000353251               0.001759846               0.000176739              -0.000087512               0.000615780               0.000528268               0.000000000               0.000000000               0.000000000               0.000000000               0.000327575               0.001697856               0.000128937              -0.000089391               0.000595744               0.000506352               0.000000000               0.000000000               0.000000000               0.000000000               0.000303529               0.001662669               0.000103642              -0.000094010               0.000585554               0.000491544               0.000000000               0.000000000               0.000000000               0.000000000               0.000280341               0.001644356               0.000087475              -0.000100416               0.000581585               0.000481169               0.000000000               0.000000000               0.000000000               0.000000000               0.000254305               0.001639944               0.000073042              -0.000109629               0.000583185               0.000473557               0.000000000               0.000000000               0.000000000               0.000000000               0.000223261               0.001646391               0.000056718              -0.000122076               0.000589483               0.000467408               0.000000000               0.000000000               0.000000000               0.000000000               0.000193735               0.001658055               0.000041793              -0.000134606               0.000597548               0.000462942               0.000000000               0.000000000               0.000000000               0.000000000               0.000170637               0.001666893               0.000034365              -0.000144372               0.000603750               0.000459377               0.000000000               0.000000000               0.000000000               0.000000000               0.000149137               0.001671870               0.000034741              -0.000153057               0.000608304               0.000455246               0.000000000               0.000000000               0.000000000               0.000000000               0.000125499               0.001676026               0.000034633              -0.000162441               0.000612817               0.000450376               0.000000000               0.000000000               0.000000000               0.000000000               0.000095507               0.001684329               0.000024658              -0.000174726               0.000619679               0.000444954               0.000000000               0.000000000               0.000000000               0.000000000               0.000061299               0.001693650               0.000013188              -0.000188719               0.000627450               0.000438732               0.000000000               0.000000000               0.000000000               0.000000000               0.000030720               0.001702609               0.000007389              -0.000201306               0.000634633               0.000433327               0.000000000               0.000000000               0.000000000               0.000000000               0.000019241               0.001711454               0.000006314              -0.000206716               0.000639384               0.000432668               0.000000000               0.000000000               0.000000000               0.000000000               0.000544516               0.002056051               0.000796167              -0.000052814               0.000702948               0.000650134               0.000000000               0.000000000               0.000000000               0.000000000               0.000405583               0.001853929               0.000559128              -0.000079648               0.000644519               0.000564872               0.000000000               0.000000000               0.000000000               0.000000000               0.000342159               0.001765949               0.000320040              -0.000092434               0.000619455               0.000527021               0.000000000               0.000000000               0.000000000               0.000000000               0.000303725               0.001709142               0.000217337              -0.000099746               0.000602957               0.000503211               0.000000000               0.000000000               0.000000000               0.000000000               0.000276139               0.001676225               0.000165871              -0.000105976               0.000594061               0.000488086               0.000000000               0.000000000               0.000000000               0.000000000               0.000252779               0.001658762               0.000135920              -0.000112553               0.000590433               0.000477880               0.000000000               0.000000000               0.000000000               0.000000000               0.000231544               0.001654458               0.000114022              -0.000119978               0.000591473               0.000471495               0.000000000               0.000000000               0.000000000               0.000000000               0.000208029               0.001661860               0.000092775              -0.000129721               0.000597188               0.000467467               0.000000000               0.000000000               0.000000000               0.000000000               0.000179906               0.001674657               0.000070910              -0.000141867               0.000605502               0.000463635               0.000000000               0.000000000               0.000000000               0.000000000               0.000156347               0.001686278               0.000053730              -0.000152154               0.000612805               0.000460651               0.000000000               0.000000000               0.000000000               0.000000000               0.000142479               0.001691809               0.000044927              -0.000158046               0.000616613               0.000458567               0.000000000               0.000000000               0.000000000               0.000000000               0.000128510               0.001694240               0.000042720              -0.000163588               0.000619270               0.000455682               0.000000000               0.000000000               0.000000000               0.000000000               0.000109301               0.001699162               0.000037774              -0.000171407               0.000623517               0.000452111               0.000000000               0.000000000               0.000000000               0.000000000               0.000087030               0.001711770               0.000022740              -0.000181334               0.000631029               0.000449695               0.000000000               0.000000000               0.000000000               0.000000000               0.000060688               0.001727614               0.000010782              -0.000193193               0.000640263               0.000447070               0.000000000               0.000000000               0.000000000               0.000000000               0.000031258               0.001745370               0.000006385              -0.000206449               0.000650601               0.000444152               0.000000000               0.000000000               0.000000000               0.000000000               0.000020430               0.001761786               0.000007033              -0.000212561               0.000658110               0.000445548               0.000000000               0.000000000               0.000000000               0.000000000               0.000591986               0.001758308               0.000809758               0.000002205               0.000585362               0.000587567               0.000000000               0.000000000               0.000000000               0.000000000               0.000417190               0.001657498               0.000583873              -0.000050741               0.000569407               0.000518666               0.000000000               0.000000000               0.000000000               0.000000000               0.000312184               0.001665618               0.000354956              -0.000091133               0.000585578               0.000494445               0.000000000               0.000000000               0.000000000               0.000000000               0.000266816               0.001654074               0.000253716              -0.000106703               0.000586920               0.000480217               0.000000000               0.000000000               0.000000000               0.000000000               0.000240893               0.001648568               0.000199211              -0.000115736               0.000588096               0.000472360               0.000000000               0.000000000               0.000000000               0.000000000               0.000218498               0.001648485               0.000163390              -0.000124124               0.000590864               0.000466741               0.000000000               0.000000000               0.000000000               0.000000000               0.000197616               0.001660312               0.000134437              -0.000133433               0.000597909               0.000464477               0.000000000               0.000000000               0.000000000               0.000000000               0.000174396               0.001680399               0.000107146              -0.000144651               0.000608344               0.000463693               0.000000000               0.000000000               0.000000000               0.000000000               0.000149796               0.001703033               0.000082496              -0.000156705               0.000619907               0.000463202               0.000000000               0.000000000               0.000000000               0.000000000               0.000130454               0.001716385               0.000064699              -0.000165628               0.000627332               0.000461704               0.000000000               0.000000000               0.000000000               0.000000000               0.000119740               0.001723639               0.000054971              -0.000170552               0.000631391               0.000460839               0.000000000               0.000000000               0.000000000               0.000000000               0.000108798               0.001733437               0.000048960              -0.000175880               0.000636433               0.000460553               0.000000000               0.000000000               0.000000000               0.000000000               0.000094197               0.001755129               0.000038877              -0.000184067               0.000646393               0.000462326               0.000000000               0.000000000               0.000000000               0.000000000               0.000076685               0.001786251               0.000021203              -0.000194524               0.000660253               0.000465729               0.000000000               0.000000000               0.000000000               0.000000000               0.000053543               0.001820359               0.000009920              -0.000207466               0.000675935               0.000468470               0.000000000               0.000000000               0.000000000               0.000000000               0.000027338               0.001855244               0.000006757              -0.000221653               0.000692293               0.000470640               0.000000000               0.000000000               0.000000000               0.000000000               0.000019457               0.001881320               0.000008257              -0.000227868               0.000703056               0.000475188               0.000000000               0.000000000               0.000000000               0.000000000               0.000618968               0.001470107               0.000778793               0.000048348               0.000473914               0.000522263               0.000000000               0.000000000               0.000000000               0.000000000               0.000422784               0.001472055               0.000585278              -0.000025464               0.000499168               0.000473704               0.000000000               0.000000000               0.000000000               0.000000000               0.000291817               0.001567678               0.000382604              -0.000086528               0.000551397               0.000464868               0.000000000               0.000000000               0.000000000               0.000000000               0.000245809               0.001596246               0.000284195              -0.000107352               0.000567861               0.000460508               0.000000000               0.000000000               0.000000000               0.000000000               0.000223031               0.001613386               0.000224769              -0.000118036               0.000577135               0.000459099               0.000000000               0.000000000               0.000000000               0.000000000               0.000202788               0.001632960               0.000181671              -0.000128074               0.000587006               0.000458932               0.000000000               0.000000000               0.000000000               0.000000000               0.000180884               0.001663452               0.000146903              -0.000140100               0.000601178               0.000461079               0.000000000               0.000000000               0.000000000               0.000000000               0.000156505               0.001697670               0.000115945              -0.000153519               0.000617057               0.000463538               0.000000000               0.000000000               0.000000000               0.000000000               0.000135724               0.001726531               0.000089855              -0.000164919               0.000630478               0.000465558               0.000000000               0.000000000               0.000000000               0.000000000               0.000120687               0.001745183               0.000071817              -0.000172890               0.000639352               0.000466462               0.000000000               0.000000000               0.000000000               0.000000000               0.000110314               0.001767055               0.000059381              -0.000179514               0.000648850               0.000469337               0.000000000               0.000000000               0.000000000               0.000000000               0.000100872               0.001803525               0.000046192              -0.000187613               0.000663707               0.000476093               0.000000000               0.000000000               0.000000000               0.000000000               0.000088475               0.001857391               0.000030435              -0.000198995               0.000685456               0.000486461               0.000000000               0.000000000               0.000000000               0.000000000               0.000070107               0.001917594               0.000014057              -0.000213408               0.000710328               0.000496919               0.000000000               0.000000000               0.000000000               0.000000000               0.000045876               0.001972818               0.000004973              -0.000229398               0.000734066               0.000504667               0.000000000               0.000000000               0.000000000               0.000000000               0.000022637               0.002025332               0.000003845              -0.000244677               0.000756663               0.000511986               0.000000000               0.000000000               0.000000000               0.000000000               0.000016925               0.002061222               0.000007060              -0.000251305               0.000770835               0.000519530               0.000000000               0.000000000               0.000000000               0.000000000               0.000631210               0.001216391               0.000718191               0.000084653               0.000377242               0.000461895               0.000000000               0.000000000               0.000000000               0.000000000               0.000430365               0.001305633               0.000574484              -0.000001818               0.000435812               0.000433994               0.000000000               0.000000000               0.000000000               0.000000000               0.000286141               0.001476185               0.000410517              -0.000077220               0.000517797               0.000440576               0.000000000               0.000000000               0.000000000               0.000000000               0.000243807               0.001540992               0.000314333              -0.000101196               0.000547391               0.000446195               0.000000000               0.000000000               0.000000000               0.000000000               0.000222846               0.001579809               0.000248575              -0.000113909               0.000564567               0.000450659               0.000000000               0.000000000               0.000000000               0.000000000               0.000205756               0.001621040               0.000198649              -0.000125471               0.000582165               0.000456694               0.000000000               0.000000000               0.000000000               0.000000000               0.000182928               0.001667406               0.000159436              -0.000139827               0.000602406               0.000462578               0.000000000               0.000000000               0.000000000               0.000000000               0.000157754               0.001710042               0.000127550              -0.000154597               0.000621541               0.000466943               0.000000000               0.000000000               0.000000000               0.000000000               0.000140350               0.001743086               0.000099752              -0.000165254               0.000636108               0.000470854               0.000000000               0.000000000               0.000000000               0.000000000               0.000131188               0.001773031               0.000076838              -0.000172433               0.000648482               0.000476049               0.000000000               0.000000000               0.000000000               0.000000000               0.000124936               0.001817527               0.000056502              -0.000180339               0.000665949               0.000485610               0.000000000               0.000000000               0.000000000               0.000000000               0.000115689               0.001884179               0.000034987              -0.000192138               0.000692099               0.000499961               0.000000000               0.000000000               0.000000000               0.000000000               0.000099719               0.001966804               0.000016782              -0.000208455               0.000725080               0.000516625               0.000000000               0.000000000               0.000000000               0.000000000               0.000080109               0.002046851               0.000006078              -0.000225815               0.000757548               0.000531733               0.000000000               0.000000000               0.000000000               0.000000000               0.000059903               0.002115757               0.000000482              -0.000242005               0.000785914               0.000543908               0.000000000               0.000000000               0.000000000               0.000000000               0.000042207               0.002181741              -0.000002067              -0.000256889               0.000812870               0.000555980               0.000000000               0.000000000               0.000000000               0.000000000               0.000034574               0.002221137              -0.000001248              -0.000264676               0.000828597               0.000563921               0.000000000               0.000000000               0.000000000               0.000000000               0.000626106               0.000968207               0.000642485               0.000113762               0.000284811               0.000398574               0.000000000               0.000000000               0.000000000               0.000000000               0.000443588               0.001110301               0.000557295               0.000027557               0.000360911               0.000388467               0.000000000               0.000000000               0.000000000               0.000000000               0.000297183               0.001335139               0.000444324              -0.000055449               0.000463525               0.000408076               0.000000000               0.000000000               0.000000000               0.000000000               0.000254814               0.001439764               0.000353946              -0.000084415               0.000508055               0.000423640               0.000000000               0.000000000               0.000000000               0.000000000               0.000236083               0.001506572               0.000283759              -0.000099790               0.000535449               0.000435659               0.000000000               0.000000000               0.000000000               0.000000000               0.000220551               0.001566913               0.000228645              -0.000113157               0.000560018               0.000446861               0.000000000               0.000000000               0.000000000               0.000000000               0.000199582               0.001621159               0.000185007              -0.000127801               0.000582981               0.000455180               0.000000000               0.000000000               0.000000000               0.000000000               0.000174470               0.001672470               0.000151678              -0.000143632               0.000605362               0.000461730               0.000000000               0.000000000               0.000000000               0.000000000               0.000155882               0.001720913               0.000122968              -0.000156658               0.000625851               0.000469193               0.000000000               0.000000000               0.000000000               0.000000000               0.000145634               0.001768185               0.000095282              -0.000166410               0.000644859               0.000478449               0.000000000               0.000000000               0.000000000               0.000000000               0.000142093               0.001826652               0.000067505              -0.000175046               0.000667227               0.000492180               0.000000000               0.000000000               0.000000000               0.000000000               0.000140909               0.001903767               0.000040879              -0.000185129               0.000696292               0.000511163               0.000000000               0.000000000               0.000000000               0.000000000               0.000135093               0.001993837               0.000022488              -0.000198569               0.000730795               0.000532226               0.000000000               0.000000000               0.000000000               0.000000000               0.000122147               0.002084653               0.000012684              -0.000214776               0.000766469               0.000551693               0.000000000               0.000000000               0.000000000               0.000000000               0.000106691               0.002167915               0.000004235              -0.000230980               0.000799624               0.000568645               0.000000000               0.000000000               0.000000000               0.000000000               0.000094161               0.002250308              -0.000002524              -0.000245978               0.000832088               0.000586110               0.000000000               0.000000000               0.000000000               0.000000000               0.000084074               0.002290575              -0.000006519              -0.000254793               0.000848449               0.000593655               0.000000000               0.000000000               0.000000000               0.000000000               0.000592710               0.000734366               0.000551086               0.000130469               0.000201296               0.000331765               0.000000000               0.000000000               0.000000000               0.000000000               0.000455110               0.000914677               0.000525280               0.000056331               0.000286112               0.000342443               0.000000000               0.000000000               0.000000000               0.000000000               0.000324246               0.001176160               0.000467316              -0.000025428               0.000400525               0.000375097               0.000000000               0.000000000               0.000000000               0.000000000               0.000279024               0.001318220               0.000391168              -0.000060144               0.000459450               0.000399306               0.000000000               0.000000000               0.000000000               0.000000000               0.000260434               0.001416697               0.000321182              -0.000079424               0.000498702               0.000419278               0.000000000               0.000000000               0.000000000               0.000000000               0.000244305               0.001493553               0.000262460              -0.000095080               0.000529539               0.000434460               0.000000000               0.000000000               0.000000000               0.000000000               0.000223914               0.001558625               0.000216002              -0.000110860               0.000556490               0.000445630               0.000000000               0.000000000               0.000000000               0.000000000               0.000201836               0.001624218               0.000181414              -0.000127338               0.000583847               0.000456508               0.000000000               0.000000000               0.000000000               0.000000000               0.000181194               0.001687330               0.000150795              -0.000142968               0.000610094               0.000467126               0.000000000               0.000000000               0.000000000               0.000000000               0.000166376               0.001748682               0.000119878              -0.000156194               0.000634953               0.000478759               0.000000000               0.000000000               0.000000000               0.000000000               0.000162874               0.001814777               0.000090843              -0.000165769               0.000660176               0.000494407               0.000000000               0.000000000               0.000000000               0.000000000               0.000171561               0.001890535               0.000063165              -0.000171981               0.000687499               0.000515518               0.000000000               0.000000000               0.000000000               0.000000000               0.000178489               0.001979799               0.000038871              -0.000180541               0.000720107               0.000539566               0.000000000               0.000000000               0.000000000               0.000000000               0.000174423               0.002076119               0.000022868              -0.000194106               0.000756735               0.000562629               0.000000000               0.000000000               0.000000000               0.000000000               0.000164584               0.002165587               0.000012368              -0.000208979               0.000791515               0.000582536               0.000000000               0.000000000               0.000000000               0.000000000               0.000155322               0.002249985               0.000004144              -0.000223002               0.000824322               0.000601320               0.000000000               0.000000000               0.000000000               0.000000000               0.000142331               0.002284618              -0.000002887              -0.000232202               0.000838932               0.000606730               0.000000000               0.000000000               0.000000000               0.000000000               0.000531226               0.000526642               0.000445878               0.000133378               0.000131086               0.000264464               0.000000000               0.000000000               0.000000000               0.000000000               0.000454838               0.000725260               0.000471315               0.000079905               0.000215116               0.000295021               0.000000000               0.000000000               0.000000000               0.000000000               0.000356388               0.001000592               0.000463277               0.000008571               0.000330670               0.000339241               0.000000000               0.000000000               0.000000000               0.000000000               0.000314739               0.001175091               0.000406690              -0.000028860               0.000401313               0.000372453               0.000000000               0.000000000               0.000000000               0.000000000               0.000293732               0.001300640               0.000343344              -0.000052431               0.000451019               0.000398588               0.000000000               0.000000000               0.000000000               0.000000000               0.000275357               0.001396217               0.000284840              -0.000071268               0.000489157               0.000417889               0.000000000               0.000000000               0.000000000               0.000000000               0.000255606               0.001479093               0.000238279              -0.000089034               0.000522704               0.000433670               0.000000000               0.000000000               0.000000000               0.000000000               0.000234987               0.001557832               0.000203743              -0.000106609               0.000554808               0.000448200               0.000000000               0.000000000               0.000000000               0.000000000               0.000215269               0.001635303               0.000172264              -0.000123687               0.000586325               0.000462638               0.000000000               0.000000000               0.000000000               0.000000000               0.000201390               0.001709337               0.000142755              -0.000138146               0.000615822               0.000477676               0.000000000               0.000000000               0.000000000               0.000000000               0.000196337               0.001780606               0.000117865              -0.000148949               0.000643179               0.000494230               0.000000000               0.000000000               0.000000000               0.000000000               0.000202246               0.001862265               0.000089415              -0.000156940               0.000673062               0.000516122               0.000000000               0.000000000               0.000000000               0.000000000               0.000213789               0.001958996               0.000058213              -0.000164703               0.000707893               0.000543190               0.000000000               0.000000000               0.000000000               0.000000000               0.000220557               0.002060981               0.000038070              -0.000174913               0.000745291               0.000570378               0.000000000               0.000000000               0.000000000               0.000000000               0.000220391               0.002158232               0.000028040              -0.000187132               0.000781781               0.000594649               0.000000000               0.000000000               0.000000000               0.000000000               0.000215085               0.002248800               0.000016331              -0.000200443               0.000816407               0.000615964               0.000000000               0.000000000               0.000000000               0.000000000               0.000200288               0.002285560               0.000005297              -0.000210586               0.000832041               0.000621455               0.000000000               0.000000000               0.000000000               0.000000000               0.000449589               0.000355251               0.000338800               0.000124188               0.000077020               0.000201208               0.000000000               0.000000000               0.000000000               0.000000000               0.000443325               0.000551132               0.000397735               0.000097354               0.000151257               0.000248611               0.000000000               0.000000000               0.000000000               0.000000000               0.000391161               0.000822923               0.000427027               0.000043819               0.000259698               0.000303518               0.000000000               0.000000000               0.000000000               0.000000000               0.000357391               0.001018000               0.000392250               0.000006771               0.000337073               0.000343844               0.000000000               0.000000000               0.000000000               0.000000000               0.000335020               0.001163318               0.000339236              -0.000019783               0.000394363               0.000374581               0.000000000               0.000000000               0.000000000               0.000000000               0.000314444               0.001277721               0.000286424              -0.000041799               0.000439836               0.000398037               0.000000000               0.000000000               0.000000000               0.000000000               0.000296790               0.001379514               0.000243648              -0.000061143               0.000480214               0.000419071               0.000000000               0.000000000               0.000000000               0.000000000               0.000278273               0.001472350               0.000210890              -0.000079691               0.000517342               0.000437651               0.000000000               0.000000000               0.000000000               0.000000000               0.000261679               0.001561094               0.000182762              -0.000097007               0.000552695               0.000455688               0.000000000               0.000000000               0.000000000               0.000000000               0.000249339               0.001646821               0.000157578              -0.000112350               0.000586385               0.000474035               0.000000000               0.000000000               0.000000000               0.000000000               0.000241431               0.001731587               0.000134475              -0.000125912               0.000619160               0.000493249               0.000000000               0.000000000               0.000000000               0.000000000               0.000240552               0.001826657               0.000107738              -0.000138125               0.000654921               0.000516796               0.000000000               0.000000000               0.000000000               0.000000000               0.000251436               0.001931246               0.000079238              -0.000147117               0.000692781               0.000545664               0.000000000               0.000000000               0.000000000               0.000000000               0.000267293               0.002041390               0.000057341              -0.000154939               0.000732103               0.000577164               0.000000000               0.000000000               0.000000000               0.000000000               0.000274677               0.002147425               0.000043313              -0.000165424               0.000770942               0.000605519               0.000000000               0.000000000               0.000000000               0.000000000               0.000271799               0.002243945               0.000025811              -0.000178568               0.000807497               0.000628929               0.000000000               0.000000000               0.000000000               0.000000000               0.000259469               0.002285159               0.000011455              -0.000188343               0.000824493               0.000636150               0.000000000               0.000000000               0.000000000               0.000000000               0.000360780               0.000223029               0.000238274               0.000107413               0.000038538               0.000145951               0.000000000               0.000000000               0.000000000               0.000000000               0.000422378               0.000401290               0.000309175               0.000108229               0.000097685               0.000205915               0.000000000               0.000000000               0.000000000               0.000000000               0.000424020               0.000657519               0.000357582               0.000076817               0.000193565               0.000270382               0.000000000               0.000000000               0.000000000               0.000000000               0.000402986               0.000861645               0.000341148               0.000043414               0.000272741               0.000316155               0.000000000               0.000000000               0.000000000               0.000000000               0.000379229               0.001019176               0.000301663               0.000014813               0.000334784               0.000349598               0.000000000               0.000000000               0.000000000               0.000000000               0.000360081               0.001151202               0.000259549              -0.000008870               0.000386687               0.000377817               0.000000000               0.000000000               0.000000000               0.000000000               0.000342403               0.001268500               0.000224087              -0.000030162               0.000432883               0.000402721               0.000000000               0.000000000               0.000000000               0.000000000               0.000327126               0.001375987               0.000196729              -0.000049326               0.000475100               0.000425774               0.000000000               0.000000000               0.000000000               0.000000000               0.000312424               0.001478304               0.000174276              -0.000067629               0.000515306               0.000447677               0.000000000               0.000000000               0.000000000               0.000000000               0.000299291               0.001576970               0.000153674              -0.000084887               0.000553947               0.000469060               0.000000000               0.000000000               0.000000000               0.000000000               0.000288845               0.001679536               0.000133473              -0.000101625               0.000593715               0.000492090               0.000000000               0.000000000               0.000000000               0.000000000               0.000288676               0.001791622               0.000112840              -0.000115699               0.000635768               0.000520069               0.000000000               0.000000000               0.000000000               0.000000000               0.000297751               0.001904291               0.000092631              -0.000126379               0.000676884               0.000550504               0.000000000               0.000000000               0.000000000               0.000000000               0.000314141               0.002017767               0.000073508              -0.000134418               0.000717388               0.000582970               0.000000000               0.000000000               0.000000000               0.000000000               0.000325956               0.002126702               0.000053475              -0.000143604               0.000756762               0.000613158               0.000000000               0.000000000               0.000000000               0.000000000               0.000326696               0.002230020               0.000029601              -0.000156241               0.000795413               0.000639172               0.000000000               0.000000000               0.000000000               0.000000000               0.000317623               0.002276976               0.000014142              -0.000165513               0.000814155               0.000648642               0.000000000               0.000000000               0.000000000               0.000000000               0.000280890               0.000128991               0.000147475               0.000089209               0.000013260               0.000102469               0.000000000               0.000000000               0.000000000               0.000000000               0.000400073               0.000286665               0.000210035               0.000114193               0.000057489               0.000171683               0.000000000               0.000000000               0.000000000               0.000000000               0.000450217               0.000522427               0.000258063               0.000103527               0.000139632               0.000243158               0.000000000               0.000000000               0.000000000               0.000000000               0.000444248               0.000726685               0.000253386               0.000075757               0.000216974               0.000292730               0.000000000               0.000000000               0.000000000               0.000000000               0.000422250               0.000892911               0.000228771               0.000046729               0.000282058               0.000328787               0.000000000               0.000000000               0.000000000               0.000000000               0.000402512               0.001036198               0.000199770               0.000021417               0.000338257               0.000359674               0.000000000               0.000000000               0.000000000               0.000000000               0.000384764               0.001163507               0.000174789              -0.000001152               0.000388216               0.000387064               0.000000000               0.000000000               0.000000000               0.000000000               0.000371382               0.001286860               0.000155246              -0.000021589               0.000436145               0.000414556               0.000000000               0.000000000               0.000000000               0.000000000               0.000357459               0.001405377               0.000138380              -0.000041625               0.000482329               0.000440704               0.000000000               0.000000000               0.000000000               0.000000000               0.000343362               0.001516858               0.000123976              -0.000060846               0.000525896               0.000465050               0.000000000               0.000000000               0.000000000               0.000000000               0.000337310               0.001631063               0.000111931              -0.000077392               0.000569480               0.000492088               0.000000000               0.000000000               0.000000000               0.000000000               0.000338447               0.001751696               0.000099343              -0.000092044               0.000614574               0.000522530               0.000000000               0.000000000               0.000000000               0.000000000               0.000346282               0.001876028               0.000085920              -0.000104648               0.000660219               0.000555572               0.000000000               0.000000000               0.000000000               0.000000000               0.000356933               0.001994095               0.000070958              -0.000115412               0.000703162               0.000587751               0.000000000               0.000000000               0.000000000               0.000000000               0.000367259               0.002100951               0.000050282              -0.000124896               0.000741942               0.000617046               0.000000000               0.000000000               0.000000000               0.000000000               0.000379484               0.002210676               0.000025373              -0.000134028               0.000781560               0.000647533               0.000000000               0.000000000               0.000000000               0.000000000               0.000381384               0.002265207               0.000011284              -0.000140132               0.000801772               0.000661640               0.000000000               0.000000000               0.000000000               0.000000000               0.000222442               0.000077516               0.000068978               0.000073725               0.000001263               0.000074989               0.000000000               0.000000000               0.000000000               0.000000000               0.000381733               0.000216982               0.000106190               0.000116026               0.000033651               0.000149677               0.000000000               0.000000000               0.000000000               0.000000000               0.000468554               0.000432903               0.000135942               0.000121593               0.000103768               0.000225362               0.000000000               0.000000000               0.000000000               0.000000000               0.000473693               0.000635019               0.000135414               0.000098257               0.000178919               0.000277175               0.000000000               0.000000000               0.000000000               0.000000000               0.000454048               0.000806193               0.000123919               0.000069493               0.000245564               0.000315057               0.000000000               0.000000000               0.000000000               0.000000000               0.000432126               0.000953636               0.000109070               0.000042842               0.000303595               0.000346437               0.000000000               0.000000000               0.000000000               0.000000000               0.000414746               0.001088781               0.000096716               0.000019432               0.000356446               0.000375878               0.000000000               0.000000000               0.000000000               0.000000000               0.000400786               0.001222013               0.000086681              -0.000002457               0.000408152               0.000405696               0.000000000               0.000000000               0.000000000               0.000000000               0.000389491               0.001350881               0.000075593              -0.000022801               0.000457890               0.000435089               0.000000000               0.000000000               0.000000000               0.000000000               0.000380561               0.001475576               0.000069292              -0.000041736               0.000505766               0.000464029               0.000000000               0.000000000               0.000000000               0.000000000               0.000375998               0.001599321               0.000065613              -0.000058916               0.000552740               0.000493824               0.000000000               0.000000000               0.000000000               0.000000000               0.000374304               0.001721829               0.000059664              -0.000074864               0.000598892               0.000524028               0.000000000               0.000000000               0.000000000               0.000000000               0.000377447               0.001845272               0.000052758              -0.000089116               0.000644790               0.000555674               0.000000000               0.000000000               0.000000000               0.000000000               0.000385221               0.001966918               0.000042448              -0.000101406               0.000689435               0.000588028               0.000000000               0.000000000               0.000000000               0.000000000               0.000400896               0.002087467               0.000030137              -0.000110597               0.000732681               0.000622084               0.000000000               0.000000000               0.000000000               0.000000000               0.000428216               0.002208431               0.000016634              -0.000115473               0.000774627               0.000659154               0.000000000               0.000000000               0.000000000               0.000000000               0.000444529               0.002267163               0.000008828              -0.000116697               0.000794612               0.000677916               0.000000000               0.000000000               0.000000000               0.000000000               0.000000000               0.000000000               0.000000000               0.000000000               0.000000000               0.000000000               0.000000000               0.000000000               0.000000000               0.000000000               0.000000000               0.000000000               0.000000000               0.000000000               0.000000000               0.000000000               0.000000000               0.000000000               0.000000000               0.000000000               0.000000000               0.000000000               0.000000000               0.000000000               0.000000000               0.000000000               0.000000000               0.000000000               0.000000000               0.000000000               0.000000000               0.000000000               0.000000000               0.000000000               0.000000000               0.000000000               0.000000000               0.000000000               0.000000000               0.000000000               0.000000000               0.000000000               0.000000000               0.000000000               0.000000000               0.000000000               0.000000000               0.000000000               0.000000000               0.000000000               0.000000000               0.000000000               0.000000000               0.000000000               0.000000000               0.000000000               0.000000000               0.000000000               0.000000000               0.000000000               0.000000000               0.000000000               0.000000000               0.000000000               0.000000000               0.000000000               0.000000000               0.000000000               0.000000000               0.000000000               0.000000000               0.000000000               0.000000000               0.000000000               0.000000000               0.000000000               0.000000000               0.000000000               0.000000000               0.000000000               0.000000000               0.000000000               0.000000000               0.000000000               0.000000000               0.000000000               0.000000000               0.000000000               0.000000000               0.000000000               0.000000000               0.000000000               0.000000000               0.000000000               0.000000000               0.000000000               0.000000000               0.000000000               0.000000000               0.000000000               0.000000000               0.000000000               0.000000000               0.000000000               0.000000000               0.000000000               0.000000000               0.000000000               0.000000000               0.000000000               0.000000000               0.000000000               0.000000000               0.000000000               0.000000000               0.000000000               0.000000000               0.000000000               0.000000000               0.000000000               0.000000000               0.000000000               0.000000000               0.000000000               0.000000000               0.000000000               0.000000000               0.000000000               0.000000000               0.000000000               0.000000000               0.000000000               0.000000000               0.000000000               0.000000000               0.000000000               0.000000000               0.000000000               0.000000000               0.000000000               0.000000000               0.000000000               0.000000000               0.000000000               0.000000000               0.000000000               0.000000000               0.000000000               0.000000000               0.000000000               0.000000000               0.000000000               0.000000000               0.000000000               0.000000000               0.000000000               0.000000000               0.000000000               0.000000000               0.000000000               0.000000000               0.000000000               0.000000000               0.000000000               0.000000000               0.000000000               0.000000000               0.000000000               0.000000000               0.000000000 </DataArray>
</PointData>
</Piece>
</UnstructuredGrid> </VTKFile>
