<?xml version="1.0"?>
<VTKFile type="UnstructuredGrid" version="0.1">
<UnstructuredGrid>
<Piece NumberOfPoints="      1156" NumberOfCells="      1024">
<Points>
<DataArray type="Float64"                                    Name="coordinates"                                                      NumberOfComponents=" 3" format="ascii">
              0.133000000               0.000000000               0.000000000               0.155937500               0.000000000               0.000000000               0.178875000               0.000000000               0.000000000               0.201812500               0.000000000               0.000000000               0.224750000               0.000000000               0.000000000               0.247687500               0.000000000               0.000000000               0.270625000               0.000000000               0.000000000               0.293562500               0.000000000               0.000000000               0.316500000               0.000000000               0.000000000               0.339437500               0.000000000               0.000000000               0.362375000               0.000000000               0.000000000               0.385312500               0.000000000               0.000000000               0.408250000               0.000000000               0.000000000               0.431187500               0.000000000               0.000000000               0.454125000               0.000000000               0.000000000               0.477062500               0.000000000               0.000000000               0.500000000               0.000000000               0.000000000               0.132359569               0.013036280               0.000000000               0.155337096               0.016127762               0.000000000               0.178314623               0.019219245               0.000000000               0.201292150               0.022310727               0.000000000               0.224269676               0.025402210               0.000000000               0.247247203               0.028493692               0.000000000               0.270224730               0.031585175               0.000000000               0.293202257               0.034676657               0.000000000               0.316179784               0.037768140               0.000000000               0.339157311               0.040859622               0.000000000               0.362134838               0.043951105               0.000000000               0.385112365               0.047042587               0.000000000               0.408089892               0.050134070               0.000000000               0.431067419               0.053225552               0.000000000               0.454044946               0.056317035               0.000000000               0.477022473               0.059408517               0.000000000               0.500000000               0.062500000               0.000000000               0.130444442               0.025947013               0.000000000               0.153541665               0.032137825               0.000000000               0.176638887               0.038328636               0.000000000               0.199736109               0.044519448               0.000000000               0.222833332               0.050710260               0.000000000               0.245930554               0.056901071               0.000000000               0.269027776               0.063091883               0.000000000               0.292124999               0.069282695               0.000000000               0.315222221               0.075473506               0.000000000               0.338319444               0.081664318               0.000000000               0.361416666               0.087855130               0.000000000               0.384513888               0.094045942               0.000000000               0.407611111               0.100236753               0.000000000               0.430708333               0.106427565               0.000000000               0.453805555               0.112618377               0.000000000               0.476902778               0.118809188               0.000000000               0.500000000               0.125000000               0.000000000               0.127273065               0.038607862               0.000000000               0.150568498               0.047913621               0.000000000               0.173863932               0.057219379               0.000000000               0.197159365               0.066525138               0.000000000               0.220454798               0.075830897               0.000000000               0.243750232               0.085136655               0.000000000               0.267045665               0.094442414               0.000000000               0.290341099               0.103748172               0.000000000               0.313636532               0.113053931               0.000000000               0.336931966               0.122359690               0.000000000               0.360227399               0.131665448               0.000000000               0.383522833               0.140971207               0.000000000               0.406818266               0.150276966               0.000000000               0.430113700               0.159582724               0.000000000               0.453409133               0.168888483               0.000000000               0.476704567               0.178194241               0.000000000               0.500000000               0.187500000               0.000000000               0.122875978               0.050896897               0.000000000               0.146446229               0.063340840               0.000000000               0.170016481               0.075784784               0.000000000               0.193586732               0.088228728               0.000000000               0.217156983               0.100672672               0.000000000               0.240727235               0.113116616               0.000000000               0.264297486               0.125560560               0.000000000               0.287867738               0.138004504               0.000000000               0.311437989               0.150448448               0.000000000               0.335008240               0.162892392               0.000000000               0.358578492               0.175336336               0.000000000               0.382148743               0.187780280               0.000000000               0.405718994               0.200224224               0.000000000               0.429289246               0.212668168               0.000000000               0.452859497               0.225112112               0.000000000               0.476429749               0.237556056               0.000000000               0.500000000               0.250000000               0.000000000               0.117295528               0.062695766               0.000000000               0.141214558               0.078308531               0.000000000               0.165133587               0.093921295               0.000000000               0.189052617               0.109534060               0.000000000               0.212971646               0.125146824               0.000000000               0.236890676               0.140759589               0.000000000               0.260809705               0.156372354               0.000000000               0.284728735               0.171985118               0.000000000               0.308647764               0.187597883               0.000000000               0.332566794               0.203210648               0.000000000               0.356485823               0.218823412               0.000000000               0.380404853               0.234436177               0.000000000               0.404323882               0.250048941               0.000000000               0.428242912               0.265661706               0.000000000               0.452161941               0.281274471               0.000000000               0.476080971               0.296887235               0.000000000               0.500000000               0.312500000               0.000000000               0.110585458               0.073890841               0.000000000               0.134923867               0.092710163               0.000000000               0.159262276               0.111529486               0.000000000               0.183600685               0.130348808               0.000000000               0.207939094               0.149168131               0.000000000               0.232277503               0.167987453               0.000000000               0.256615912               0.186806776               0.000000000               0.280954320               0.205626098               0.000000000               0.305292729               0.224445420               0.000000000               0.329631138               0.243264743               0.000000000               0.353969547               0.262084065               0.000000000               0.378307956               0.280903388               0.000000000               0.402646365               0.299722710               0.000000000               0.426984773               0.318542033               0.000000000               0.451323182               0.337361355               0.000000000               0.475661591               0.356180678               0.000000000               0.500000000               0.375000000               0.000000000               0.102810390               0.084374307               0.000000000               0.127634741               0.106444663               0.000000000               0.152459092               0.128515018               0.000000000               0.177283442               0.150585374               0.000000000               0.202107793               0.172655730               0.000000000               0.226932143               0.194726086               0.000000000               0.251756494               0.216796442               0.000000000               0.276580845               0.238866798               0.000000000               0.301405195               0.260937153               0.000000000               0.326229546               0.283007509               0.000000000               0.351053896               0.305077865               0.000000000               0.375878247               0.327148221               0.000000000               0.400702598               0.349218577               0.000000000               0.425526948               0.371288933               0.000000000               0.450351299               0.393359288               0.000000000               0.475175649               0.415429644               0.000000000               0.500000000               0.437500000               0.000000000               0.094045202               0.094045202               0.000000000               0.119417377               0.119417377               0.000000000               0.144789552               0.144789552               0.000000000               0.170161727               0.170161727               0.000000000               0.195533901               0.195533901               0.000000000               0.220906076               0.220906076               0.000000000               0.246278251               0.246278251               0.000000000               0.271650426               0.271650426               0.000000000               0.297022601               0.297022601               0.000000000               0.322394776               0.322394776               0.000000000               0.347766951               0.347766951               0.000000000               0.373139126               0.373139126               0.000000000               0.398511300               0.398511300               0.000000000               0.423883475               0.423883475               0.000000000               0.449255650               0.449255650               0.000000000               0.474627825               0.474627825               0.000000000               0.500000000               0.500000000               0.000000000               0.084374307               0.102810390               0.000000000               0.106444663               0.127634741               0.000000000               0.128515018               0.152459092               0.000000000               0.150585374               0.177283442               0.000000000               0.172655730               0.202107793               0.000000000               0.194726086               0.226932143               0.000000000               0.216796442               0.251756494               0.000000000               0.238866798               0.276580845               0.000000000               0.260937153               0.301405195               0.000000000               0.283007509               0.326229546               0.000000000               0.305077865               0.351053896               0.000000000               0.327148221               0.375878247               0.000000000               0.349218577               0.400702598               0.000000000               0.371288933               0.425526948               0.000000000               0.393359288               0.450351299               0.000000000               0.415429644               0.475175649               0.000000000               0.437500000               0.500000000               0.000000000               0.073890841               0.110585458               0.000000000               0.092710163               0.134923867               0.000000000               0.111529486               0.159262276               0.000000000               0.130348808               0.183600685               0.000000000               0.149168131               0.207939094               0.000000000               0.167987453               0.232277503               0.000000000               0.186806776               0.256615912               0.000000000               0.205626098               0.280954320               0.000000000               0.224445420               0.305292729               0.000000000               0.243264743               0.329631138               0.000000000               0.262084065               0.353969547               0.000000000               0.280903388               0.378307956               0.000000000               0.299722710               0.402646365               0.000000000               0.318542033               0.426984773               0.000000000               0.337361355               0.451323182               0.000000000               0.356180678               0.475661591               0.000000000               0.375000000               0.500000000               0.000000000               0.062695766               0.117295528               0.000000000               0.078308531               0.141214558               0.000000000               0.093921295               0.165133587               0.000000000               0.109534060               0.189052617               0.000000000               0.125146824               0.212971646               0.000000000               0.140759589               0.236890676               0.000000000               0.156372354               0.260809705               0.000000000               0.171985118               0.284728735               0.000000000               0.187597883               0.308647764               0.000000000               0.203210648               0.332566794               0.000000000               0.218823412               0.356485823               0.000000000               0.234436177               0.380404853               0.000000000               0.250048941               0.404323882               0.000000000               0.265661706               0.428242912               0.000000000               0.281274471               0.452161941               0.000000000               0.296887235               0.476080971               0.000000000               0.312500000               0.500000000               0.000000000               0.050896897               0.122875978               0.000000000               0.063340840               0.146446229               0.000000000               0.075784784               0.170016481               0.000000000               0.088228728               0.193586732               0.000000000               0.100672672               0.217156983               0.000000000               0.113116616               0.240727235               0.000000000               0.125560560               0.264297486               0.000000000               0.138004504               0.287867738               0.000000000               0.150448448               0.311437989               0.000000000               0.162892392               0.335008240               0.000000000               0.175336336               0.358578492               0.000000000               0.187780280               0.382148743               0.000000000               0.200224224               0.405718994               0.000000000               0.212668168               0.429289246               0.000000000               0.225112112               0.452859497               0.000000000               0.237556056               0.476429749               0.000000000               0.250000000               0.500000000               0.000000000               0.038607862               0.127273065               0.000000000               0.047913621               0.150568498               0.000000000               0.057219379               0.173863932               0.000000000               0.066525138               0.197159365               0.000000000               0.075830897               0.220454798               0.000000000               0.085136655               0.243750232               0.000000000               0.094442414               0.267045665               0.000000000               0.103748172               0.290341099               0.000000000               0.113053931               0.313636532               0.000000000               0.122359690               0.336931966               0.000000000               0.131665448               0.360227399               0.000000000               0.140971207               0.383522833               0.000000000               0.150276966               0.406818266               0.000000000               0.159582724               0.430113700               0.000000000               0.168888483               0.453409133               0.000000000               0.178194241               0.476704567               0.000000000               0.187500000               0.500000000               0.000000000               0.025947013               0.130444442               0.000000000               0.032137825               0.153541665               0.000000000               0.038328636               0.176638887               0.000000000               0.044519448               0.199736109               0.000000000               0.050710260               0.222833332               0.000000000               0.056901071               0.245930554               0.000000000               0.063091883               0.269027776               0.000000000               0.069282695               0.292124999               0.000000000               0.075473506               0.315222221               0.000000000               0.081664318               0.338319444               0.000000000               0.087855130               0.361416666               0.000000000               0.094045942               0.384513888               0.000000000               0.100236753               0.407611111               0.000000000               0.106427565               0.430708333               0.000000000               0.112618377               0.453805555               0.000000000               0.118809188               0.476902778               0.000000000               0.125000000               0.500000000               0.000000000               0.013036280               0.132359569               0.000000000               0.016127762               0.155337096               0.000000000               0.019219245               0.178314623               0.000000000               0.022310727               0.201292150               0.000000000               0.025402210               0.224269676               0.000000000               0.028493692               0.247247203               0.000000000               0.031585175               0.270224730               0.000000000               0.034676657               0.293202257               0.000000000               0.037768140               0.316179784               0.000000000               0.040859622               0.339157311               0.000000000               0.043951105               0.362134838               0.000000000               0.047042587               0.385112365               0.000000000               0.050134070               0.408089892               0.000000000               0.053225552               0.431067419               0.000000000               0.056317035               0.454044946               0.000000000               0.059408517               0.477022473               0.000000000               0.062500000               0.500000000               0.000000000               0.000000000               0.133000000               0.000000000               0.000000000               0.155937500               0.000000000               0.000000000               0.178875000               0.000000000               0.000000000               0.201812500               0.000000000               0.000000000               0.224750000               0.000000000               0.000000000               0.247687500               0.000000000               0.000000000               0.270625000               0.000000000               0.000000000               0.293562500               0.000000000               0.000000000               0.316500000               0.000000000               0.000000000               0.339437500               0.000000000               0.000000000               0.362375000               0.000000000               0.000000000               0.385312500               0.000000000               0.000000000               0.408250000               0.000000000               0.000000000               0.431187500               0.000000000               0.000000000               0.454125000               0.000000000               0.000000000               0.477062500               0.000000000               0.000000000               0.500000000               0.000000000               0.133000000               0.000000000               0.000000000               0.155937500               0.000000000               0.000000000               0.178875000               0.000000000               0.000000000               0.201812500               0.000000000               0.000000000               0.224750000               0.000000000               0.000000000               0.247687500               0.000000000               0.000000000               0.270625000               0.000000000               0.000000000               0.293562500               0.000000000               0.000000000               0.316500000               0.000000000               0.000000000               0.339437500               0.000000000               0.000000000               0.362375000               0.000000000               0.000000000               0.385312500               0.000000000               0.000000000               0.408250000               0.000000000               0.000000000               0.431187500               0.000000000               0.000000000               0.454125000               0.000000000               0.000000000               0.477062500               0.000000000               0.000000000               0.500000000               0.000000000               0.000000000               0.132359569              -0.013036280               0.000000000               0.155337096              -0.016127762               0.000000000               0.178314623              -0.019219245               0.000000000               0.201292150              -0.022310727               0.000000000               0.224269676              -0.025402210               0.000000000               0.247247203              -0.028493692               0.000000000               0.270224730              -0.031585175               0.000000000               0.293202257              -0.034676657               0.000000000               0.316179784              -0.037768140               0.000000000               0.339157311              -0.040859622               0.000000000               0.362134838              -0.043951105               0.000000000               0.385112365              -0.047042587               0.000000000               0.408089892              -0.050134070               0.000000000               0.431067419              -0.053225552               0.000000000               0.454044946              -0.056317035               0.000000000               0.477022473              -0.059408517               0.000000000               0.500000000              -0.062500000               0.000000000               0.130444442              -0.025947013               0.000000000               0.153541665              -0.032137825               0.000000000               0.176638887              -0.038328636               0.000000000               0.199736109              -0.044519448               0.000000000               0.222833332              -0.050710260               0.000000000               0.245930554              -0.056901071               0.000000000               0.269027776              -0.063091883               0.000000000               0.292124999              -0.069282695               0.000000000               0.315222221              -0.075473506               0.000000000               0.338319444              -0.081664318               0.000000000               0.361416666              -0.087855130               0.000000000               0.384513888              -0.094045942               0.000000000               0.407611111              -0.100236753               0.000000000               0.430708333              -0.106427565               0.000000000               0.453805555              -0.112618377               0.000000000               0.476902778              -0.118809188               0.000000000               0.500000000              -0.125000000               0.000000000               0.127273065              -0.038607862               0.000000000               0.150568498              -0.047913621               0.000000000               0.173863932              -0.057219379               0.000000000               0.197159365              -0.066525138               0.000000000               0.220454798              -0.075830897               0.000000000               0.243750232              -0.085136655               0.000000000               0.267045665              -0.094442414               0.000000000               0.290341099              -0.103748172               0.000000000               0.313636532              -0.113053931               0.000000000               0.336931966              -0.122359690               0.000000000               0.360227399              -0.131665448               0.000000000               0.383522833              -0.140971207               0.000000000               0.406818266              -0.150276966               0.000000000               0.430113700              -0.159582724               0.000000000               0.453409133              -0.168888483               0.000000000               0.476704567              -0.178194241               0.000000000               0.500000000              -0.187500000               0.000000000               0.122875978              -0.050896897               0.000000000               0.146446229              -0.063340840               0.000000000               0.170016481              -0.075784784               0.000000000               0.193586732              -0.088228728               0.000000000               0.217156983              -0.100672672               0.000000000               0.240727235              -0.113116616               0.000000000               0.264297486              -0.125560560               0.000000000               0.287867738              -0.138004504               0.000000000               0.311437989              -0.150448448               0.000000000               0.335008240              -0.162892392               0.000000000               0.358578492              -0.175336336               0.000000000               0.382148743              -0.187780280               0.000000000               0.405718994              -0.200224224               0.000000000               0.429289246              -0.212668168               0.000000000               0.452859497              -0.225112112               0.000000000               0.476429749              -0.237556056               0.000000000               0.500000000              -0.250000000               0.000000000               0.117295528              -0.062695766               0.000000000               0.141214558              -0.078308531               0.000000000               0.165133587              -0.093921295               0.000000000               0.189052617              -0.109534060               0.000000000               0.212971646              -0.125146824               0.000000000               0.236890676              -0.140759589               0.000000000               0.260809705              -0.156372354               0.000000000               0.284728735              -0.171985118               0.000000000               0.308647764              -0.187597883               0.000000000               0.332566794              -0.203210648               0.000000000               0.356485823              -0.218823412               0.000000000               0.380404853              -0.234436177               0.000000000               0.404323882              -0.250048941               0.000000000               0.428242912              -0.265661706               0.000000000               0.452161941              -0.281274471               0.000000000               0.476080971              -0.296887235               0.000000000               0.500000000              -0.312500000               0.000000000               0.110585458              -0.073890841               0.000000000               0.134923867              -0.092710163               0.000000000               0.159262276              -0.111529486               0.000000000               0.183600685              -0.130348808               0.000000000               0.207939094              -0.149168131               0.000000000               0.232277503              -0.167987453               0.000000000               0.256615912              -0.186806776               0.000000000               0.280954320              -0.205626098               0.000000000               0.305292729              -0.224445420               0.000000000               0.329631138              -0.243264743               0.000000000               0.353969547              -0.262084065               0.000000000               0.378307956              -0.280903388               0.000000000               0.402646365              -0.299722710               0.000000000               0.426984773              -0.318542033               0.000000000               0.451323182              -0.337361355               0.000000000               0.475661591              -0.356180678               0.000000000               0.500000000              -0.375000000               0.000000000               0.102810390              -0.084374307               0.000000000               0.127634741              -0.106444663               0.000000000               0.152459092              -0.128515018               0.000000000               0.177283442              -0.150585374               0.000000000               0.202107793              -0.172655730               0.000000000               0.226932143              -0.194726086               0.000000000               0.251756494              -0.216796442               0.000000000               0.276580845              -0.238866798               0.000000000               0.301405195              -0.260937153               0.000000000               0.326229546              -0.283007509               0.000000000               0.351053896              -0.305077865               0.000000000               0.375878247              -0.327148221               0.000000000               0.400702598              -0.349218577               0.000000000               0.425526948              -0.371288933               0.000000000               0.450351299              -0.393359288               0.000000000               0.475175649              -0.415429644               0.000000000               0.500000000              -0.437500000               0.000000000               0.094045202              -0.094045202               0.000000000               0.119417377              -0.119417377               0.000000000               0.144789552              -0.144789552               0.000000000               0.170161727              -0.170161727               0.000000000               0.195533901              -0.195533901               0.000000000               0.220906076              -0.220906076               0.000000000               0.246278251              -0.246278251               0.000000000               0.271650426              -0.271650426               0.000000000               0.297022601              -0.297022601               0.000000000               0.322394776              -0.322394776               0.000000000               0.347766951              -0.347766951               0.000000000               0.373139126              -0.373139126               0.000000000               0.398511300              -0.398511300               0.000000000               0.423883475              -0.423883475               0.000000000               0.449255650              -0.449255650               0.000000000               0.474627825              -0.474627825               0.000000000               0.500000000              -0.500000000               0.000000000               0.084374307              -0.102810390               0.000000000               0.106444663              -0.127634741               0.000000000               0.128515018              -0.152459092               0.000000000               0.150585374              -0.177283442               0.000000000               0.172655730              -0.202107793               0.000000000               0.194726086              -0.226932143               0.000000000               0.216796442              -0.251756494               0.000000000               0.238866798              -0.276580845               0.000000000               0.260937153              -0.301405195               0.000000000               0.283007509              -0.326229546               0.000000000               0.305077865              -0.351053896               0.000000000               0.327148221              -0.375878247               0.000000000               0.349218577              -0.400702598               0.000000000               0.371288933              -0.425526948               0.000000000               0.393359288              -0.450351299               0.000000000               0.415429644              -0.475175649               0.000000000               0.437500000              -0.500000000               0.000000000               0.073890841              -0.110585458               0.000000000               0.092710163              -0.134923867               0.000000000               0.111529486              -0.159262276               0.000000000               0.130348808              -0.183600685               0.000000000               0.149168131              -0.207939094               0.000000000               0.167987453              -0.232277503               0.000000000               0.186806776              -0.256615912               0.000000000               0.205626098              -0.280954320               0.000000000               0.224445420              -0.305292729               0.000000000               0.243264743              -0.329631138               0.000000000               0.262084065              -0.353969547               0.000000000               0.280903388              -0.378307956               0.000000000               0.299722710              -0.402646365               0.000000000               0.318542033              -0.426984773               0.000000000               0.337361355              -0.451323182               0.000000000               0.356180678              -0.475661591               0.000000000               0.375000000              -0.500000000               0.000000000               0.062695766              -0.117295528               0.000000000               0.078308531              -0.141214558               0.000000000               0.093921295              -0.165133587               0.000000000               0.109534060              -0.189052617               0.000000000               0.125146824              -0.212971646               0.000000000               0.140759589              -0.236890676               0.000000000               0.156372354              -0.260809705               0.000000000               0.171985118              -0.284728735               0.000000000               0.187597883              -0.308647764               0.000000000               0.203210648              -0.332566794               0.000000000               0.218823412              -0.356485823               0.000000000               0.234436177              -0.380404853               0.000000000               0.250048941              -0.404323882               0.000000000               0.265661706              -0.428242912               0.000000000               0.281274471              -0.452161941               0.000000000               0.296887235              -0.476080971               0.000000000               0.312500000              -0.500000000               0.000000000               0.050896897              -0.122875978               0.000000000               0.063340840              -0.146446229               0.000000000               0.075784784              -0.170016481               0.000000000               0.088228728              -0.193586732               0.000000000               0.100672672              -0.217156983               0.000000000               0.113116616              -0.240727235               0.000000000               0.125560560              -0.264297486               0.000000000               0.138004504              -0.287867738               0.000000000               0.150448448              -0.311437989               0.000000000               0.162892392              -0.335008240               0.000000000               0.175336336              -0.358578492               0.000000000               0.187780280              -0.382148743               0.000000000               0.200224224              -0.405718994               0.000000000               0.212668168              -0.429289246               0.000000000               0.225112112              -0.452859497               0.000000000               0.237556056              -0.476429749               0.000000000               0.250000000              -0.500000000               0.000000000               0.038607862              -0.127273065               0.000000000               0.047913621              -0.150568498               0.000000000               0.057219379              -0.173863932               0.000000000               0.066525138              -0.197159365               0.000000000               0.075830897              -0.220454798               0.000000000               0.085136655              -0.243750232               0.000000000               0.094442414              -0.267045665               0.000000000               0.103748172              -0.290341099               0.000000000               0.113053931              -0.313636532               0.000000000               0.122359690              -0.336931966               0.000000000               0.131665448              -0.360227399               0.000000000               0.140971207              -0.383522833               0.000000000               0.150276966              -0.406818266               0.000000000               0.159582724              -0.430113700               0.000000000               0.168888483              -0.453409133               0.000000000               0.178194241              -0.476704567               0.000000000               0.187500000              -0.500000000               0.000000000               0.025947013              -0.130444442               0.000000000               0.032137825              -0.153541665               0.000000000               0.038328636              -0.176638887               0.000000000               0.044519448              -0.199736109               0.000000000               0.050710260              -0.222833332               0.000000000               0.056901071              -0.245930554               0.000000000               0.063091883              -0.269027776               0.000000000               0.069282695              -0.292124999               0.000000000               0.075473506              -0.315222221               0.000000000               0.081664318              -0.338319444               0.000000000               0.087855130              -0.361416666               0.000000000               0.094045942              -0.384513888               0.000000000               0.100236753              -0.407611111               0.000000000               0.106427565              -0.430708333               0.000000000               0.112618377              -0.453805555               0.000000000               0.118809188              -0.476902778               0.000000000               0.125000000              -0.500000000               0.000000000               0.013036280              -0.132359569               0.000000000               0.016127762              -0.155337096               0.000000000               0.019219245              -0.178314623               0.000000000               0.022310727              -0.201292150               0.000000000               0.025402210              -0.224269676               0.000000000               0.028493692              -0.247247203               0.000000000               0.031585175              -0.270224730               0.000000000               0.034676657              -0.293202257               0.000000000               0.037768140              -0.316179784               0.000000000               0.040859622              -0.339157311               0.000000000               0.043951105              -0.362134838               0.000000000               0.047042587              -0.385112365               0.000000000               0.050134070              -0.408089892               0.000000000               0.053225552              -0.431067419               0.000000000               0.056317035              -0.454044946               0.000000000               0.059408517              -0.477022473               0.000000000               0.062500000              -0.500000000               0.000000000               0.000000000              -0.133000000               0.000000000               0.000000000              -0.155937500               0.000000000               0.000000000              -0.178875000               0.000000000               0.000000000              -0.201812500               0.000000000               0.000000000              -0.224750000               0.000000000               0.000000000              -0.247687500               0.000000000               0.000000000              -0.270625000               0.000000000               0.000000000              -0.293562500               0.000000000               0.000000000              -0.316500000               0.000000000               0.000000000              -0.339437500               0.000000000               0.000000000              -0.362375000               0.000000000               0.000000000              -0.385312500               0.000000000               0.000000000              -0.408250000               0.000000000               0.000000000              -0.431187500               0.000000000               0.000000000              -0.454125000               0.000000000               0.000000000              -0.477062500               0.000000000               0.000000000              -0.500000000               0.000000000              -0.133000000               0.000000000               0.000000000              -0.155937500               0.000000000               0.000000000              -0.178875000               0.000000000               0.000000000              -0.201812500               0.000000000               0.000000000              -0.224750000               0.000000000               0.000000000              -0.247687500               0.000000000               0.000000000              -0.270625000               0.000000000               0.000000000              -0.293562500               0.000000000               0.000000000              -0.316500000               0.000000000               0.000000000              -0.339437500               0.000000000               0.000000000              -0.362375000               0.000000000               0.000000000              -0.385312500               0.000000000               0.000000000              -0.408250000               0.000000000               0.000000000              -0.431187500               0.000000000               0.000000000              -0.454125000               0.000000000               0.000000000              -0.477062500               0.000000000               0.000000000              -0.500000000               0.000000000               0.000000000              -0.132359569              -0.013036280               0.000000000              -0.155337096              -0.016127762               0.000000000              -0.178314623              -0.019219245               0.000000000              -0.201292150              -0.022310727               0.000000000              -0.224269676              -0.025402210               0.000000000              -0.247247203              -0.028493692               0.000000000              -0.270224730              -0.031585175               0.000000000              -0.293202257              -0.034676657               0.000000000              -0.316179784              -0.037768140               0.000000000              -0.339157311              -0.040859622               0.000000000              -0.362134838              -0.043951105               0.000000000              -0.385112365              -0.047042587               0.000000000              -0.408089892              -0.050134070               0.000000000              -0.431067419              -0.053225552               0.000000000              -0.454044946              -0.056317035               0.000000000              -0.477022473              -0.059408517               0.000000000              -0.500000000              -0.062500000               0.000000000              -0.130444442              -0.025947013               0.000000000              -0.153541665              -0.032137825               0.000000000              -0.176638887              -0.038328636               0.000000000              -0.199736109              -0.044519448               0.000000000              -0.222833332              -0.050710260               0.000000000              -0.245930554              -0.056901071               0.000000000              -0.269027776              -0.063091883               0.000000000              -0.292124999              -0.069282695               0.000000000              -0.315222221              -0.075473506               0.000000000              -0.338319444              -0.081664318               0.000000000              -0.361416666              -0.087855130               0.000000000              -0.384513888              -0.094045942               0.000000000              -0.407611111              -0.100236753               0.000000000              -0.430708333              -0.106427565               0.000000000              -0.453805555              -0.112618377               0.000000000              -0.476902778              -0.118809188               0.000000000              -0.500000000              -0.125000000               0.000000000              -0.127273065              -0.038607862               0.000000000              -0.150568498              -0.047913621               0.000000000              -0.173863932              -0.057219379               0.000000000              -0.197159365              -0.066525138               0.000000000              -0.220454798              -0.075830897               0.000000000              -0.243750232              -0.085136655               0.000000000              -0.267045665              -0.094442414               0.000000000              -0.290341099              -0.103748172               0.000000000              -0.313636532              -0.113053931               0.000000000              -0.336931966              -0.122359690               0.000000000              -0.360227399              -0.131665448               0.000000000              -0.383522833              -0.140971207               0.000000000              -0.406818266              -0.150276966               0.000000000              -0.430113700              -0.159582724               0.000000000              -0.453409133              -0.168888483               0.000000000              -0.476704567              -0.178194241               0.000000000              -0.500000000              -0.187500000               0.000000000              -0.122875978              -0.050896897               0.000000000              -0.146446229              -0.063340840               0.000000000              -0.170016481              -0.075784784               0.000000000              -0.193586732              -0.088228728               0.000000000              -0.217156983              -0.100672672               0.000000000              -0.240727235              -0.113116616               0.000000000              -0.264297486              -0.125560560               0.000000000              -0.287867738              -0.138004504               0.000000000              -0.311437989              -0.150448448               0.000000000              -0.335008240              -0.162892392               0.000000000              -0.358578492              -0.175336336               0.000000000              -0.382148743              -0.187780280               0.000000000              -0.405718994              -0.200224224               0.000000000              -0.429289246              -0.212668168               0.000000000              -0.452859497              -0.225112112               0.000000000              -0.476429749              -0.237556056               0.000000000              -0.500000000              -0.250000000               0.000000000              -0.117295528              -0.062695766               0.000000000              -0.141214558              -0.078308531               0.000000000              -0.165133587              -0.093921295               0.000000000              -0.189052617              -0.109534060               0.000000000              -0.212971646              -0.125146824               0.000000000              -0.236890676              -0.140759589               0.000000000              -0.260809705              -0.156372354               0.000000000              -0.284728735              -0.171985118               0.000000000              -0.308647764              -0.187597883               0.000000000              -0.332566794              -0.203210648               0.000000000              -0.356485823              -0.218823412               0.000000000              -0.380404853              -0.234436177               0.000000000              -0.404323882              -0.250048941               0.000000000              -0.428242912              -0.265661706               0.000000000              -0.452161941              -0.281274471               0.000000000              -0.476080971              -0.296887235               0.000000000              -0.500000000              -0.312500000               0.000000000              -0.110585458              -0.073890841               0.000000000              -0.134923867              -0.092710163               0.000000000              -0.159262276              -0.111529486               0.000000000              -0.183600685              -0.130348808               0.000000000              -0.207939094              -0.149168131               0.000000000              -0.232277503              -0.167987453               0.000000000              -0.256615912              -0.186806776               0.000000000              -0.280954320              -0.205626098               0.000000000              -0.305292729              -0.224445420               0.000000000              -0.329631138              -0.243264743               0.000000000              -0.353969547              -0.262084065               0.000000000              -0.378307956              -0.280903388               0.000000000              -0.402646365              -0.299722710               0.000000000              -0.426984773              -0.318542033               0.000000000              -0.451323182              -0.337361355               0.000000000              -0.475661591              -0.356180678               0.000000000              -0.500000000              -0.375000000               0.000000000              -0.102810390              -0.084374307               0.000000000              -0.127634741              -0.106444663               0.000000000              -0.152459092              -0.128515018               0.000000000              -0.177283442              -0.150585374               0.000000000              -0.202107793              -0.172655730               0.000000000              -0.226932143              -0.194726086               0.000000000              -0.251756494              -0.216796442               0.000000000              -0.276580845              -0.238866798               0.000000000              -0.301405195              -0.260937153               0.000000000              -0.326229546              -0.283007509               0.000000000              -0.351053896              -0.305077865               0.000000000              -0.375878247              -0.327148221               0.000000000              -0.400702598              -0.349218577               0.000000000              -0.425526948              -0.371288933               0.000000000              -0.450351299              -0.393359288               0.000000000              -0.475175649              -0.415429644               0.000000000              -0.500000000              -0.437500000               0.000000000              -0.094045202              -0.094045202               0.000000000              -0.119417377              -0.119417377               0.000000000              -0.144789552              -0.144789552               0.000000000              -0.170161727              -0.170161727               0.000000000              -0.195533901              -0.195533901               0.000000000              -0.220906076              -0.220906076               0.000000000              -0.246278251              -0.246278251               0.000000000              -0.271650426              -0.271650426               0.000000000              -0.297022601              -0.297022601               0.000000000              -0.322394776              -0.322394776               0.000000000              -0.347766951              -0.347766951               0.000000000              -0.373139126              -0.373139126               0.000000000              -0.398511300              -0.398511300               0.000000000              -0.423883475              -0.423883475               0.000000000              -0.449255650              -0.449255650               0.000000000              -0.474627825              -0.474627825               0.000000000              -0.500000000              -0.500000000               0.000000000              -0.084374307              -0.102810390               0.000000000              -0.106444663              -0.127634741               0.000000000              -0.128515018              -0.152459092               0.000000000              -0.150585374              -0.177283442               0.000000000              -0.172655730              -0.202107793               0.000000000              -0.194726086              -0.226932143               0.000000000              -0.216796442              -0.251756494               0.000000000              -0.238866798              -0.276580845               0.000000000              -0.260937153              -0.301405195               0.000000000              -0.283007509              -0.326229546               0.000000000              -0.305077865              -0.351053896               0.000000000              -0.327148221              -0.375878247               0.000000000              -0.349218577              -0.400702598               0.000000000              -0.371288933              -0.425526948               0.000000000              -0.393359288              -0.450351299               0.000000000              -0.415429644              -0.475175649               0.000000000              -0.437500000              -0.500000000               0.000000000              -0.073890841              -0.110585458               0.000000000              -0.092710163              -0.134923867               0.000000000              -0.111529486              -0.159262276               0.000000000              -0.130348808              -0.183600685               0.000000000              -0.149168131              -0.207939094               0.000000000              -0.167987453              -0.232277503               0.000000000              -0.186806776              -0.256615912               0.000000000              -0.205626098              -0.280954320               0.000000000              -0.224445420              -0.305292729               0.000000000              -0.243264743              -0.329631138               0.000000000              -0.262084065              -0.353969547               0.000000000              -0.280903388              -0.378307956               0.000000000              -0.299722710              -0.402646365               0.000000000              -0.318542033              -0.426984773               0.000000000              -0.337361355              -0.451323182               0.000000000              -0.356180678              -0.475661591               0.000000000              -0.375000000              -0.500000000               0.000000000              -0.062695766              -0.117295528               0.000000000              -0.078308531              -0.141214558               0.000000000              -0.093921295              -0.165133587               0.000000000              -0.109534060              -0.189052617               0.000000000              -0.125146824              -0.212971646               0.000000000              -0.140759589              -0.236890676               0.000000000              -0.156372354              -0.260809705               0.000000000              -0.171985118              -0.284728735               0.000000000              -0.187597883              -0.308647764               0.000000000              -0.203210648              -0.332566794               0.000000000              -0.218823412              -0.356485823               0.000000000              -0.234436177              -0.380404853               0.000000000              -0.250048941              -0.404323882               0.000000000              -0.265661706              -0.428242912               0.000000000              -0.281274471              -0.452161941               0.000000000              -0.296887235              -0.476080971               0.000000000              -0.312500000              -0.500000000               0.000000000              -0.050896897              -0.122875978               0.000000000              -0.063340840              -0.146446229               0.000000000              -0.075784784              -0.170016481               0.000000000              -0.088228728              -0.193586732               0.000000000              -0.100672672              -0.217156983               0.000000000              -0.113116616              -0.240727235               0.000000000              -0.125560560              -0.264297486               0.000000000              -0.138004504              -0.287867738               0.000000000              -0.150448448              -0.311437989               0.000000000              -0.162892392              -0.335008240               0.000000000              -0.175336336              -0.358578492               0.000000000              -0.187780280              -0.382148743               0.000000000              -0.200224224              -0.405718994               0.000000000              -0.212668168              -0.429289246               0.000000000              -0.225112112              -0.452859497               0.000000000              -0.237556056              -0.476429749               0.000000000              -0.250000000              -0.500000000               0.000000000              -0.038607862              -0.127273065               0.000000000              -0.047913621              -0.150568498               0.000000000              -0.057219379              -0.173863932               0.000000000              -0.066525138              -0.197159365               0.000000000              -0.075830897              -0.220454798               0.000000000              -0.085136655              -0.243750232               0.000000000              -0.094442414              -0.267045665               0.000000000              -0.103748172              -0.290341099               0.000000000              -0.113053931              -0.313636532               0.000000000              -0.122359690              -0.336931966               0.000000000              -0.131665448              -0.360227399               0.000000000              -0.140971207              -0.383522833               0.000000000              -0.150276966              -0.406818266               0.000000000              -0.159582724              -0.430113700               0.000000000              -0.168888483              -0.453409133               0.000000000              -0.178194241              -0.476704567               0.000000000              -0.187500000              -0.500000000               0.000000000              -0.025947013              -0.130444442               0.000000000              -0.032137825              -0.153541665               0.000000000              -0.038328636              -0.176638887               0.000000000              -0.044519448              -0.199736109               0.000000000              -0.050710260              -0.222833332               0.000000000              -0.056901071              -0.245930554               0.000000000              -0.063091883              -0.269027776               0.000000000              -0.069282695              -0.292124999               0.000000000              -0.075473506              -0.315222221               0.000000000              -0.081664318              -0.338319444               0.000000000              -0.087855130              -0.361416666               0.000000000              -0.094045942              -0.384513888               0.000000000              -0.100236753              -0.407611111               0.000000000              -0.106427565              -0.430708333               0.000000000              -0.112618377              -0.453805555               0.000000000              -0.118809188              -0.476902778               0.000000000              -0.125000000              -0.500000000               0.000000000              -0.013036280              -0.132359569               0.000000000              -0.016127762              -0.155337096               0.000000000              -0.019219245              -0.178314623               0.000000000              -0.022310727              -0.201292150               0.000000000              -0.025402210              -0.224269676               0.000000000              -0.028493692              -0.247247203               0.000000000              -0.031585175              -0.270224730               0.000000000              -0.034676657              -0.293202257               0.000000000              -0.037768140              -0.316179784               0.000000000              -0.040859622              -0.339157311               0.000000000              -0.043951105              -0.362134838               0.000000000              -0.047042587              -0.385112365               0.000000000              -0.050134070              -0.408089892               0.000000000              -0.053225552              -0.431067419               0.000000000              -0.056317035              -0.454044946               0.000000000              -0.059408517              -0.477022473               0.000000000              -0.062500000              -0.500000000               0.000000000               0.000000000              -0.133000000               0.000000000               0.000000000              -0.155937500               0.000000000               0.000000000              -0.178875000               0.000000000               0.000000000              -0.201812500               0.000000000               0.000000000              -0.224750000               0.000000000               0.000000000              -0.247687500               0.000000000               0.000000000              -0.270625000               0.000000000               0.000000000              -0.293562500               0.000000000               0.000000000              -0.316500000               0.000000000               0.000000000              -0.339437500               0.000000000               0.000000000              -0.362375000               0.000000000               0.000000000              -0.385312500               0.000000000               0.000000000              -0.408250000               0.000000000               0.000000000              -0.431187500               0.000000000               0.000000000              -0.454125000               0.000000000               0.000000000              -0.477062500               0.000000000               0.000000000              -0.500000000               0.000000000              -0.133000000               0.000000000               0.000000000              -0.155937500               0.000000000               0.000000000              -0.178875000               0.000000000               0.000000000              -0.201812500               0.000000000               0.000000000              -0.224750000               0.000000000               0.000000000              -0.247687500               0.000000000               0.000000000              -0.270625000               0.000000000               0.000000000              -0.293562500               0.000000000               0.000000000              -0.316500000               0.000000000               0.000000000              -0.339437500               0.000000000               0.000000000              -0.362375000               0.000000000               0.000000000              -0.385312500               0.000000000               0.000000000              -0.408250000               0.000000000               0.000000000              -0.431187500               0.000000000               0.000000000              -0.454125000               0.000000000               0.000000000              -0.477062500               0.000000000               0.000000000              -0.500000000               0.000000000               0.000000000              -0.132359569               0.013036280               0.000000000              -0.155337096               0.016127762               0.000000000              -0.178314623               0.019219245               0.000000000              -0.201292150               0.022310727               0.000000000              -0.224269676               0.025402210               0.000000000              -0.247247203               0.028493692               0.000000000              -0.270224730               0.031585175               0.000000000              -0.293202257               0.034676657               0.000000000              -0.316179784               0.037768140               0.000000000              -0.339157311               0.040859622               0.000000000              -0.362134838               0.043951105               0.000000000              -0.385112365               0.047042587               0.000000000              -0.408089892               0.050134070               0.000000000              -0.431067419               0.053225552               0.000000000              -0.454044946               0.056317035               0.000000000              -0.477022473               0.059408517               0.000000000              -0.500000000               0.062500000               0.000000000              -0.130444442               0.025947013               0.000000000              -0.153541665               0.032137825               0.000000000              -0.176638887               0.038328636               0.000000000              -0.199736109               0.044519448               0.000000000              -0.222833332               0.050710260               0.000000000              -0.245930554               0.056901071               0.000000000              -0.269027776               0.063091883               0.000000000              -0.292124999               0.069282695               0.000000000              -0.315222221               0.075473506               0.000000000              -0.338319444               0.081664318               0.000000000              -0.361416666               0.087855130               0.000000000              -0.384513888               0.094045942               0.000000000              -0.407611111               0.100236753               0.000000000              -0.430708333               0.106427565               0.000000000              -0.453805555               0.112618377               0.000000000              -0.476902778               0.118809188               0.000000000              -0.500000000               0.125000000               0.000000000              -0.127273065               0.038607862               0.000000000              -0.150568498               0.047913621               0.000000000              -0.173863932               0.057219379               0.000000000              -0.197159365               0.066525138               0.000000000              -0.220454798               0.075830897               0.000000000              -0.243750232               0.085136655               0.000000000              -0.267045665               0.094442414               0.000000000              -0.290341099               0.103748172               0.000000000              -0.313636532               0.113053931               0.000000000              -0.336931966               0.122359690               0.000000000              -0.360227399               0.131665448               0.000000000              -0.383522833               0.140971207               0.000000000              -0.406818266               0.150276966               0.000000000              -0.430113700               0.159582724               0.000000000              -0.453409133               0.168888483               0.000000000              -0.476704567               0.178194241               0.000000000              -0.500000000               0.187500000               0.000000000              -0.122875978               0.050896897               0.000000000              -0.146446229               0.063340840               0.000000000              -0.170016481               0.075784784               0.000000000              -0.193586732               0.088228728               0.000000000              -0.217156983               0.100672672               0.000000000              -0.240727235               0.113116616               0.000000000              -0.264297486               0.125560560               0.000000000              -0.287867738               0.138004504               0.000000000              -0.311437989               0.150448448               0.000000000              -0.335008240               0.162892392               0.000000000              -0.358578492               0.175336336               0.000000000              -0.382148743               0.187780280               0.000000000              -0.405718994               0.200224224               0.000000000              -0.429289246               0.212668168               0.000000000              -0.452859497               0.225112112               0.000000000              -0.476429749               0.237556056               0.000000000              -0.500000000               0.250000000               0.000000000              -0.117295528               0.062695766               0.000000000              -0.141214558               0.078308531               0.000000000              -0.165133587               0.093921295               0.000000000              -0.189052617               0.109534060               0.000000000              -0.212971646               0.125146824               0.000000000              -0.236890676               0.140759589               0.000000000              -0.260809705               0.156372354               0.000000000              -0.284728735               0.171985118               0.000000000              -0.308647764               0.187597883               0.000000000              -0.332566794               0.203210648               0.000000000              -0.356485823               0.218823412               0.000000000              -0.380404853               0.234436177               0.000000000              -0.404323882               0.250048941               0.000000000              -0.428242912               0.265661706               0.000000000              -0.452161941               0.281274471               0.000000000              -0.476080971               0.296887235               0.000000000              -0.500000000               0.312500000               0.000000000              -0.110585458               0.073890841               0.000000000              -0.134923867               0.092710163               0.000000000              -0.159262276               0.111529486               0.000000000              -0.183600685               0.130348808               0.000000000              -0.207939094               0.149168131               0.000000000              -0.232277503               0.167987453               0.000000000              -0.256615912               0.186806776               0.000000000              -0.280954320               0.205626098               0.000000000              -0.305292729               0.224445420               0.000000000              -0.329631138               0.243264743               0.000000000              -0.353969547               0.262084065               0.000000000              -0.378307956               0.280903388               0.000000000              -0.402646365               0.299722710               0.000000000              -0.426984773               0.318542033               0.000000000              -0.451323182               0.337361355               0.000000000              -0.475661591               0.356180678               0.000000000              -0.500000000               0.375000000               0.000000000              -0.102810390               0.084374307               0.000000000              -0.127634741               0.106444663               0.000000000              -0.152459092               0.128515018               0.000000000              -0.177283442               0.150585374               0.000000000              -0.202107793               0.172655730               0.000000000              -0.226932143               0.194726086               0.000000000              -0.251756494               0.216796442               0.000000000              -0.276580845               0.238866798               0.000000000              -0.301405195               0.260937153               0.000000000              -0.326229546               0.283007509               0.000000000              -0.351053896               0.305077865               0.000000000              -0.375878247               0.327148221               0.000000000              -0.400702598               0.349218577               0.000000000              -0.425526948               0.371288933               0.000000000              -0.450351299               0.393359288               0.000000000              -0.475175649               0.415429644               0.000000000              -0.500000000               0.437500000               0.000000000              -0.094045202               0.094045202               0.000000000              -0.119417377               0.119417377               0.000000000              -0.144789552               0.144789552               0.000000000              -0.170161727               0.170161727               0.000000000              -0.195533901               0.195533901               0.000000000              -0.220906076               0.220906076               0.000000000              -0.246278251               0.246278251               0.000000000              -0.271650426               0.271650426               0.000000000              -0.297022601               0.297022601               0.000000000              -0.322394776               0.322394776               0.000000000              -0.347766951               0.347766951               0.000000000              -0.373139126               0.373139126               0.000000000              -0.398511300               0.398511300               0.000000000              -0.423883475               0.423883475               0.000000000              -0.449255650               0.449255650               0.000000000              -0.474627825               0.474627825               0.000000000              -0.500000000               0.500000000               0.000000000              -0.084374307               0.102810390               0.000000000              -0.106444663               0.127634741               0.000000000              -0.128515018               0.152459092               0.000000000              -0.150585374               0.177283442               0.000000000              -0.172655730               0.202107793               0.000000000              -0.194726086               0.226932143               0.000000000              -0.216796442               0.251756494               0.000000000              -0.238866798               0.276580845               0.000000000              -0.260937153               0.301405195               0.000000000              -0.283007509               0.326229546               0.000000000              -0.305077865               0.351053896               0.000000000              -0.327148221               0.375878247               0.000000000              -0.349218577               0.400702598               0.000000000              -0.371288933               0.425526948               0.000000000              -0.393359288               0.450351299               0.000000000              -0.415429644               0.475175649               0.000000000              -0.437500000               0.500000000               0.000000000              -0.073890841               0.110585458               0.000000000              -0.092710163               0.134923867               0.000000000              -0.111529486               0.159262276               0.000000000              -0.130348808               0.183600685               0.000000000              -0.149168131               0.207939094               0.000000000              -0.167987453               0.232277503               0.000000000              -0.186806776               0.256615912               0.000000000              -0.205626098               0.280954320               0.000000000              -0.224445420               0.305292729               0.000000000              -0.243264743               0.329631138               0.000000000              -0.262084065               0.353969547               0.000000000              -0.280903388               0.378307956               0.000000000              -0.299722710               0.402646365               0.000000000              -0.318542033               0.426984773               0.000000000              -0.337361355               0.451323182               0.000000000              -0.356180678               0.475661591               0.000000000              -0.375000000               0.500000000               0.000000000              -0.062695766               0.117295528               0.000000000              -0.078308531               0.141214558               0.000000000              -0.093921295               0.165133587               0.000000000              -0.109534060               0.189052617               0.000000000              -0.125146824               0.212971646               0.000000000              -0.140759589               0.236890676               0.000000000              -0.156372354               0.260809705               0.000000000              -0.171985118               0.284728735               0.000000000              -0.187597883               0.308647764               0.000000000              -0.203210648               0.332566794               0.000000000              -0.218823412               0.356485823               0.000000000              -0.234436177               0.380404853               0.000000000              -0.250048941               0.404323882               0.000000000              -0.265661706               0.428242912               0.000000000              -0.281274471               0.452161941               0.000000000              -0.296887235               0.476080971               0.000000000              -0.312500000               0.500000000               0.000000000              -0.050896897               0.122875978               0.000000000              -0.063340840               0.146446229               0.000000000              -0.075784784               0.170016481               0.000000000              -0.088228728               0.193586732               0.000000000              -0.100672672               0.217156983               0.000000000              -0.113116616               0.240727235               0.000000000              -0.125560560               0.264297486               0.000000000              -0.138004504               0.287867738               0.000000000              -0.150448448               0.311437989               0.000000000              -0.162892392               0.335008240               0.000000000              -0.175336336               0.358578492               0.000000000              -0.187780280               0.382148743               0.000000000              -0.200224224               0.405718994               0.000000000              -0.212668168               0.429289246               0.000000000              -0.225112112               0.452859497               0.000000000              -0.237556056               0.476429749               0.000000000              -0.250000000               0.500000000               0.000000000              -0.038607862               0.127273065               0.000000000              -0.047913621               0.150568498               0.000000000              -0.057219379               0.173863932               0.000000000              -0.066525138               0.197159365               0.000000000              -0.075830897               0.220454798               0.000000000              -0.085136655               0.243750232               0.000000000              -0.094442414               0.267045665               0.000000000              -0.103748172               0.290341099               0.000000000              -0.113053931               0.313636532               0.000000000              -0.122359690               0.336931966               0.000000000              -0.131665448               0.360227399               0.000000000              -0.140971207               0.383522833               0.000000000              -0.150276966               0.406818266               0.000000000              -0.159582724               0.430113700               0.000000000              -0.168888483               0.453409133               0.000000000              -0.178194241               0.476704567               0.000000000              -0.187500000               0.500000000               0.000000000              -0.025947013               0.130444442               0.000000000              -0.032137825               0.153541665               0.000000000              -0.038328636               0.176638887               0.000000000              -0.044519448               0.199736109               0.000000000              -0.050710260               0.222833332               0.000000000              -0.056901071               0.245930554               0.000000000              -0.063091883               0.269027776               0.000000000              -0.069282695               0.292124999               0.000000000              -0.075473506               0.315222221               0.000000000              -0.081664318               0.338319444               0.000000000              -0.087855130               0.361416666               0.000000000              -0.094045942               0.384513888               0.000000000              -0.100236753               0.407611111               0.000000000              -0.106427565               0.430708333               0.000000000              -0.112618377               0.453805555               0.000000000              -0.118809188               0.476902778               0.000000000              -0.125000000               0.500000000               0.000000000              -0.013036280               0.132359569               0.000000000              -0.016127762               0.155337096               0.000000000              -0.019219245               0.178314623               0.000000000              -0.022310727               0.201292150               0.000000000              -0.025402210               0.224269676               0.000000000              -0.028493692               0.247247203               0.000000000              -0.031585175               0.270224730               0.000000000              -0.034676657               0.293202257               0.000000000              -0.037768140               0.316179784               0.000000000              -0.040859622               0.339157311               0.000000000              -0.043951105               0.362134838               0.000000000              -0.047042587               0.385112365               0.000000000              -0.050134070               0.408089892               0.000000000              -0.053225552               0.431067419               0.000000000              -0.056317035               0.454044946               0.000000000              -0.059408517               0.477022473               0.000000000              -0.062500000               0.500000000               0.000000000               0.000000000               0.133000000               0.000000000               0.000000000               0.155937500               0.000000000               0.000000000               0.178875000               0.000000000               0.000000000               0.201812500               0.000000000               0.000000000               0.224750000               0.000000000               0.000000000               0.247687500               0.000000000               0.000000000               0.270625000               0.000000000               0.000000000               0.293562500               0.000000000               0.000000000               0.316500000               0.000000000               0.000000000               0.339437500               0.000000000               0.000000000               0.362375000               0.000000000               0.000000000               0.385312500               0.000000000               0.000000000               0.408250000               0.000000000               0.000000000               0.431187500               0.000000000               0.000000000               0.454125000               0.000000000               0.000000000               0.477062500               0.000000000               0.000000000               0.500000000               0.000000000 </DataArray>
</Points>
<Cells>
<DataArray type="Int32"                                    Name="connectivity"                                                      NumberOfComponents=" 1" format="ascii">
         0          1         18         17          1          2         19         18          2          3         20         19          3          4         21         20          4          5         22         21          5          6         23         22          6          7         24         23          7          8         25         24          8          9         26         25          9         10         27         26         10         11         28         27         11         12         29         28         12         13         30         29         13         14         31         30         14         15         32         31         15         16         33         32         17         18         35         34         18         19         36         35         19         20         37         36         20         21         38         37         21         22         39         38         22         23         40         39         23         24         41         40         24         25         42         41         25         26         43         42         26         27         44         43         27         28         45         44         28         29         46         45         29         30         47         46         30         31         48         47         31         32         49         48         32         33         50         49         34         35         52         51         35         36         53         52         36         37         54         53         37         38         55         54         38         39         56         55         39         40         57         56         40         41         58         57         41         42         59         58         42         43         60         59         43         44         61         60         44         45         62         61         45         46         63         62         46         47         64         63         47         48         65         64         48         49         66         65         49         50         67         66         51         52         69         68         52         53         70         69         53         54         71         70         54         55         72         71         55         56         73         72         56         57         74         73         57         58         75         74         58         59         76         75         59         60         77         76         60         61         78         77         61         62         79         78         62         63         80         79         63         64         81         80         64         65         82         81         65         66         83         82         66         67         84         83         68         69         86         85         69         70         87         86         70         71         88         87         71         72         89         88         72         73         90         89         73         74         91         90         74         75         92         91         75         76         93         92         76         77         94         93         77         78         95         94         78         79         96         95         79         80         97         96         80         81         98         97         81         82         99         98         82         83        100         99         83         84        101        100         85         86        103        102         86         87        104        103         87         88        105        104         88         89        106        105         89         90        107        106         90         91        108        107         91         92        109        108         92         93        110        109         93         94        111        110         94         95        112        111         95         96        113        112         96         97        114        113         97         98        115        114         98         99        116        115         99        100        117        116        100        101        118        117        102        103        120        119        103        104        121        120        104        105        122        121        105        106        123        122        106        107        124        123        107        108        125        124        108        109        126        125        109        110        127        126        110        111        128        127        111        112        129        128        112        113        130        129        113        114        131        130        114        115        132        131        115        116        133        132        116        117        134        133        117        118        135        134        119        120        137        136        120        121        138        137        121        122        139        138        122        123        140        139        123        124        141        140        124        125        142        141        125        126        143        142        126        127        144        143        127        128        145        144        128        129        146        145        129        130        147        146        130        131        148        147        131        132        149        148        132        133        150        149        133        134        151        150        134        135        152        151        136        137        154        153        137        138        155        154        138        139        156        155        139        140        157        156        140        141        158        157        141        142        159        158        142        143        160        159        143        144        161        160        144        145        162        161        145        146        163        162        146        147        164        163        147        148        165        164        148        149        166        165        149        150        167        166        150        151        168        167        151        152        169        168        153        154        171        170        154        155        172        171        155        156        173        172        156        157        174        173        157        158        175        174        158        159        176        175        159        160        177        176        160        161        178        177        161        162        179        178        162        163        180        179        163        164        181        180        164        165        182        181        165        166        183        182        166        167        184        183        167        168        185        184        168        169        186        185        170        171        188        187        171        172        189        188        172        173        190        189        173        174        191        190        174        175        192        191        175        176        193        192        176        177        194        193        177        178        195        194        178        179        196        195        179        180        197        196        180        181        198        197        181        182        199        198        182        183        200        199        183        184        201        200        184        185        202        201        185        186        203        202        187        188        205        204        188        189        206        205        189        190        207        206        190        191        208        207        191        192        209        208        192        193        210        209        193        194        211        210        194        195        212        211        195        196        213        212        196        197        214        213        197        198        215        214        198        199        216        215        199        200        217        216        200        201        218        217        201        202        219        218        202        203        220        219        204        205        222        221        205        206        223        222        206        207        224        223        207        208        225        224        208        209        226        225        209        210        227        226        210        211        228        227        211        212        229        228        212        213        230        229        213        214        231        230        214        215        232        231        215        216        233        232        216        217        234        233        217        218        235        234        218        219        236        235        219        220        237        236        221        222        239        238        222        223        240        239        223        224        241        240        224        225        242        241        225        226        243        242        226        227        244        243        227        228        245        244        228        229        246        245        229        230        247        246        230        231        248        247        231        232        249        248        232        233        250        249        233        234        251        250        234        235        252        251        235        236        253        252        236        237        254        253        238        239        256        255        239        240        257        256        240        241        258        257        241        242        259        258        242        243        260        259        243        244        261        260        244        245        262        261        245        246        263        262        246        247        264        263        247        248        265        264        248        249        266        265        249        250        267        266        250        251        268        267        251        252        269        268        252        253        270        269        253        254        271        270        255        256        273        272        256        257        274        273        257        258        275        274        258        259        276        275        259        260        277        276        260        261        278        277        261        262        279        278        262        263        280        279        263        264        281        280        264        265        282        281        265        266        283        282        266        267        284        283        267        268        285        284        268        269        286        285        269        270        287        286        270        271        288        287        306        307          1          0        307        308          2          1        308        309          3          2        309        310          4          3        310        311          5          4        311        312          6          5        312        313          7          6        313        314          8          7        314        315          9          8        315        316         10          9        316        317         11         10        317        318         12         11        318        319         13         12        319        320         14         13        320        321         15         14        321        322         16         15        323        324        307        306        324        325        308        307        325        326        309        308        326        327        310        309        327        328        311        310        328        329        312        311        329        330        313        312        330        331        314        313        331        332        315        314        332        333        316        315        333        334        317        316        334        335        318        317        335        336        319        318        336        337        320        319        337        338        321        320        338        339        322        321        340        341        324        323        341        342        325        324        342        343        326        325        343        344        327        326        344        345        328        327        345        346        329        328        346        347        330        329        347        348        331        330        348        349        332        331        349        350        333        332        350        351        334        333        351        352        335        334        352        353        336        335        353        354        337        336        354        355        338        337        355        356        339        338        357        358        341        340        358        359        342        341        359        360        343        342        360        361        344        343        361        362        345        344        362        363        346        345        363        364        347        346        364        365        348        347        365        366        349        348        366        367        350        349        367        368        351        350        368        369        352        351        369        370        353        352        370        371        354        353        371        372        355        354        372        373        356        355        374        375        358        357        375        376        359        358        376        377        360        359        377        378        361        360        378        379        362        361        379        380        363        362        380        381        364        363        381        382        365        364        382        383        366        365        383        384        367        366        384        385        368        367        385        386        369        368        386        387        370        369        387        388        371        370        388        389        372        371        389        390        373        372        391        392        375        374        392        393        376        375        393        394        377        376        394        395        378        377        395        396        379        378        396        397        380        379        397        398        381        380        398        399        382        381        399        400        383        382        400        401        384        383        401        402        385        384        402        403        386        385        403        404        387        386        404        405        388        387        405        406        389        388        406        407        390        389        408        409        392        391        409        410        393        392        410        411        394        393        411        412        395        394        412        413        396        395        413        414        397        396        414        415        398        397        415        416        399        398        416        417        400        399        417        418        401        400        418        419        402        401        419        420        403        402        420        421        404        403        421        422        405        404        422        423        406        405        423        424        407        406        425        426        409        408        426        427        410        409        427        428        411        410        428        429        412        411        429        430        413        412        430        431        414        413        431        432        415        414        432        433        416        415        433        434        417        416        434        435        418        417        435        436        419        418        436        437        420        419        437        438        421        420        438        439        422        421        439        440        423        422        440        441        424        423        442        443        426        425        443        444        427        426        444        445        428        427        445        446        429        428        446        447        430        429        447        448        431        430        448        449        432        431        449        450        433        432        450        451        434        433        451        452        435        434        452        453        436        435        453        454        437        436        454        455        438        437        455        456        439        438        456        457        440        439        457        458        441        440        459        460        443        442        460        461        444        443        461        462        445        444        462        463        446        445        463        464        447        446        464        465        448        447        465        466        449        448        466        467        450        449        467        468        451        450        468        469        452        451        469        470        453        452        470        471        454        453        471        472        455        454        472        473        456        455        473        474        457        456        474        475        458        457        476        477        460        459        477        478        461        460        478        479        462        461        479        480        463        462        480        481        464        463        481        482        465        464        482        483        466        465        483        484        467        466        484        485        468        467        485        486        469        468        486        487        470        469        487        488        471        470        488        489        472        471        489        490        473        472        490        491        474        473        491        492        475        474        493        494        477        476        494        495        478        477        495        496        479        478        496        497        480        479        497        498        481        480        498        499        482        481        499        500        483        482        500        501        484        483        501        502        485        484        502        503        486        485        503        504        487        486        504        505        488        487        505        506        489        488        506        507        490        489        507        508        491        490        508        509        492        491        510        511        494        493        511        512        495        494        512        513        496        495        513        514        497        496        514        515        498        497        515        516        499        498        516        517        500        499        517        518        501        500        518        519        502        501        519        520        503        502        520        521        504        503        521        522        505        504        522        523        506        505        523        524        507        506        524        525        508        507        525        526        509        508        527        528        511        510        528        529        512        511        529        530        513        512        530        531        514        513        531        532        515        514        532        533        516        515        533        534        517        516        534        535        518        517        535        536        519        518        536        537        520        519        537        538        521        520        538        539        522        521        539        540        523        522        540        541        524        523        541        542        525        524        542        543        526        525        544        545        528        527        545        546        529        528        546        547        530        529        547        548        531        530        548        549        532        531        549        550        533        532        550        551        534        533        551        552        535        534        552        553        536        535        553        554        537        536        554        555        538        537        555        556        539        538        556        557        540        539        557        558        541        540        558        559        542        541        559        560        543        542        561        562        545        544        562        563        546        545        563        564        547        546        564        565        548        547        565        566        549        548        566        567        550        549        567        568        551        550        568        569        552        551        569        570        553        552        570        571        554        553        571        572        555        554        572        573        556        555        573        574        557        556        574        575        558        557        575        576        559        558        576        577        560        559        578        579        596        595        579        580        597        596        580        581        598        597        581        582        599        598        582        583        600        599        583        584        601        600        584        585        602        601        585        586        603        602        586        587        604        603        587        588        605        604        588        589        606        605        589        590        607        606        590        591        608        607        591        592        609        608        592        593        610        609        593        594        611        610        595        596        613        612        596        597        614        613        597        598        615        614        598        599        616        615        599        600        617        616        600        601        618        617        601        602        619        618        602        603        620        619        603        604        621        620        604        605        622        621        605        606        623        622        606        607        624        623        607        608        625        624        608        609        626        625        609        610        627        626        610        611        628        627        612        613        630        629        613        614        631        630        614        615        632        631        615        616        633        632        616        617        634        633        617        618        635        634        618        619        636        635        619        620        637        636        620        621        638        637        621        622        639        638        622        623        640        639        623        624        641        640        624        625        642        641        625        626        643        642        626        627        644        643        627        628        645        644        629        630        647        646        630        631        648        647        631        632        649        648        632        633        650        649        633        634        651        650        634        635        652        651        635        636        653        652        636        637        654        653        637        638        655        654        638        639        656        655        639        640        657        656        640        641        658        657        641        642        659        658        642        643        660        659        643        644        661        660        644        645        662        661        646        647        664        663        647        648        665        664        648        649        666        665        649        650        667        666        650        651        668        667        651        652        669        668        652        653        670        669        653        654        671        670        654        655        672        671        655        656        673        672        656        657        674        673        657        658        675        674        658        659        676        675        659        660        677        676        660        661        678        677        661        662        679        678        663        664        681        680        664        665        682        681        665        666        683        682        666        667        684        683        667        668        685        684        668        669        686        685        669        670        687        686        670        671        688        687        671        672        689        688        672        673        690        689        673        674        691        690        674        675        692        691        675        676        693        692        676        677        694        693        677        678        695        694        678        679        696        695        680        681        698        697        681        682        699        698        682        683        700        699        683        684        701        700        684        685        702        701        685        686        703        702        686        687        704        703        687        688        705        704        688        689        706        705        689        690        707        706        690        691        708        707        691        692        709        708        692        693        710        709        693        694        711        710        694        695        712        711        695        696        713        712        697        698        715        714        698        699        716        715        699        700        717        716        700        701        718        717        701        702        719        718        702        703        720        719        703        704        721        720        704        705        722        721        705        706        723        722        706        707        724        723        707        708        725        724        708        709        726        725        709        710        727        726        710        711        728        727        711        712        729        728        712        713        730        729        714        715        732        731        715        716        733        732        716        717        734        733        717        718        735        734        718        719        736        735        719        720        737        736        720        721        738        737        721        722        739        738        722        723        740        739        723        724        741        740        724        725        742        741        725        726        743        742        726        727        744        743        727        728        745        744        728        729        746        745        729        730        747        746        731        732        749        748        732        733        750        749        733        734        751        750        734        735        752        751        735        736        753        752        736        737        754        753        737        738        755        754        738        739        756        755        739        740        757        756        740        741        758        757        741        742        759        758        742        743        760        759        743        744        761        760        744        745        762        761        745        746        763        762        746        747        764        763        748        749        766        765        749        750        767        766        750        751        768        767        751        752        769        768        752        753        770        769        753        754        771        770        754        755        772        771        755        756        773        772        756        757        774        773        757        758        775        774        758        759        776        775        759        760        777        776        760        761        778        777        761        762        779        778        762        763        780        779        763        764        781        780        765        766        783        782        766        767        784        783        767        768        785        784        768        769        786        785        769        770        787        786        770        771        788        787        771        772        789        788        772        773        790        789        773        774        791        790        774        775        792        791        775        776        793        792        776        777        794        793        777        778        795        794        778        779        796        795        779        780        797        796        780        781        798        797        782        783        800        799        783        784        801        800        784        785        802        801        785        786        803        802        786        787        804        803        787        788        805        804        788        789        806        805        789        790        807        806        790        791        808        807        791        792        809        808        792        793        810        809        793        794        811        810        794        795        812        811        795        796        813        812        796        797        814        813        797        798        815        814        799        800        817        816        800        801        818        817        801        802        819        818        802        803        820        819        803        804        821        820        804        805        822        821        805        806        823        822        806        807        824        823        807        808        825        824        808        809        826        825        809        810        827        826        810        811        828        827        811        812        829        828        812        813        830        829        813        814        831        830        814        815        832        831        816        817        834        833        817        818        835        834        818        819        836        835        819        820        837        836        820        821        838        837        821        822        839        838        822        823        840        839        823        824        841        840        824        825        842        841        825        826        843        842        826        827        844        843        827        828        845        844        828        829        846        845        829        830        847        846        830        831        848        847        831        832        849        848        833        834        562        561        834        835        563        562        835        836        564        563        836        837        565        564        837        838        566        565        838        839        567        566        839        840        568        567        840        841        569        568        841        842        570        569        842        843        571        570        843        844        572        571        844        845        573        572        845        846        574        573        846        847        575        574        847        848        576        575        848        849        577        576        884        885        579        578        885        886        580        579        886        887        581        580        887        888        582        581        888        889        583        582        889        890        584        583        890        891        585        584        891        892        586        585        892        893        587        586        893        894        588        587        894        895        589        588        895        896        590        589        896        897        591        590        897        898        592        591        898        899        593        592        899        900        594        593        901        902        885        884        902        903        886        885        903        904        887        886        904        905        888        887        905        906        889        888        906        907        890        889        907        908        891        890        908        909        892        891        909        910        893        892        910        911        894        893        911        912        895        894        912        913        896        895        913        914        897        896        914        915        898        897        915        916        899        898        916        917        900        899        918        919        902        901        919        920        903        902        920        921        904        903        921        922        905        904        922        923        906        905        923        924        907        906        924        925        908        907        925        926        909        908        926        927        910        909        927        928        911        910        928        929        912        911        929        930        913        912        930        931        914        913        931        932        915        914        932        933        916        915        933        934        917        916        935        936        919        918        936        937        920        919        937        938        921        920        938        939        922        921        939        940        923        922        940        941        924        923        941        942        925        924        942        943        926        925        943        944        927        926        944        945        928        927        945        946        929        928        946        947        930        929        947        948        931        930        948        949        932        931        949        950        933        932        950        951        934        933        952        953        936        935        953        954        937        936        954        955        938        937        955        956        939        938        956        957        940        939        957        958        941        940        958        959        942        941        959        960        943        942        960        961        944        943        961        962        945        944        962        963        946        945        963        964        947        946        964        965        948        947        965        966        949        948        966        967        950        949        967        968        951        950        969        970        953        952        970        971        954        953        971        972        955        954        972        973        956        955        973        974        957        956        974        975        958        957        975        976        959        958        976        977        960        959        977        978        961        960        978        979        962        961        979        980        963        962        980        981        964        963        981        982        965        964        982        983        966        965        983        984        967        966        984        985        968        967        986        987        970        969        987        988        971        970        988        989        972        971        989        990        973        972        990        991        974        973        991        992        975        974        992        993        976        975        993        994        977        976        994        995        978        977        995        996        979        978        996        997        980        979        997        998        981        980        998        999        982        981        999       1000        983        982       1000       1001        984        983       1001       1002        985        984       1003       1004        987        986       1004       1005        988        987       1005       1006        989        988       1006       1007        990        989       1007       1008        991        990       1008       1009        992        991       1009       1010        993        992       1010       1011        994        993       1011       1012        995        994       1012       1013        996        995       1013       1014        997        996       1014       1015        998        997       1015       1016        999        998       1016       1017       1000        999       1017       1018       1001       1000       1018       1019       1002       1001       1020       1021       1004       1003       1021       1022       1005       1004       1022       1023       1006       1005       1023       1024       1007       1006       1024       1025       1008       1007       1025       1026       1009       1008       1026       1027       1010       1009       1027       1028       1011       1010       1028       1029       1012       1011       1029       1030       1013       1012       1030       1031       1014       1013       1031       1032       1015       1014       1032       1033       1016       1015       1033       1034       1017       1016       1034       1035       1018       1017       1035       1036       1019       1018       1037       1038       1021       1020       1038       1039       1022       1021       1039       1040       1023       1022       1040       1041       1024       1023       1041       1042       1025       1024       1042       1043       1026       1025       1043       1044       1027       1026       1044       1045       1028       1027       1045       1046       1029       1028       1046       1047       1030       1029       1047       1048       1031       1030       1048       1049       1032       1031       1049       1050       1033       1032       1050       1051       1034       1033       1051       1052       1035       1034       1052       1053       1036       1035       1054       1055       1038       1037       1055       1056       1039       1038       1056       1057       1040       1039       1057       1058       1041       1040       1058       1059       1042       1041       1059       1060       1043       1042       1060       1061       1044       1043       1061       1062       1045       1044       1062       1063       1046       1045       1063       1064       1047       1046       1064       1065       1048       1047       1065       1066       1049       1048       1066       1067       1050       1049       1067       1068       1051       1050       1068       1069       1052       1051       1069       1070       1053       1052       1071       1072       1055       1054       1072       1073       1056       1055       1073       1074       1057       1056       1074       1075       1058       1057       1075       1076       1059       1058       1076       1077       1060       1059       1077       1078       1061       1060       1078       1079       1062       1061       1079       1080       1063       1062       1080       1081       1064       1063       1081       1082       1065       1064       1082       1083       1066       1065       1083       1084       1067       1066       1084       1085       1068       1067       1085       1086       1069       1068       1086       1087       1070       1069       1088       1089       1072       1071       1089       1090       1073       1072       1090       1091       1074       1073       1091       1092       1075       1074       1092       1093       1076       1075       1093       1094       1077       1076       1094       1095       1078       1077       1095       1096       1079       1078       1096       1097       1080       1079       1097       1098       1081       1080       1098       1099       1082       1081       1099       1100       1083       1082       1100       1101       1084       1083       1101       1102       1085       1084       1102       1103       1086       1085       1103       1104       1087       1086       1105       1106       1089       1088       1106       1107       1090       1089       1107       1108       1091       1090       1108       1109       1092       1091       1109       1110       1093       1092       1110       1111       1094       1093       1111       1112       1095       1094       1112       1113       1096       1095       1113       1114       1097       1096       1114       1115       1098       1097       1115       1116       1099       1098       1116       1117       1100       1099       1117       1118       1101       1100       1118       1119       1102       1101       1119       1120       1103       1102       1120       1121       1104       1103       1122       1123       1106       1105       1123       1124       1107       1106       1124       1125       1108       1107       1125       1126       1109       1108       1126       1127       1110       1109       1127       1128       1111       1110       1128       1129       1112       1111       1129       1130       1113       1112       1130       1131       1114       1113       1131       1132       1115       1114       1132       1133       1116       1115       1133       1134       1117       1116       1134       1135       1118       1117       1135       1136       1119       1118       1136       1137       1120       1119       1137       1138       1121       1120        272        273       1123       1122        273        274       1124       1123        274        275       1125       1124        275        276       1126       1125        276        277       1127       1126        277        278       1128       1127        278        279       1129       1128        279        280       1130       1129        280        281       1131       1130        281        282       1132       1131        282        283       1133       1132        283        284       1134       1133        284        285       1135       1134        285        286       1136       1135        286        287       1137       1136        287        288       1138       1137 </DataArray>
<DataArray type="Int32"                                    Name="offsets"                                                      NumberOfComponents=" 1" format="ascii">
         4          8         12         16         20         24         28         32         36         40         44         48         52         56         60         64         68         72         76         80         84         88         92         96        100        104        108        112        116        120        124        128        132        136        140        144        148        152        156        160        164        168        172        176        180        184        188        192        196        200        204        208        212        216        220        224        228        232        236        240        244        248        252        256        260        264        268        272        276        280        284        288        292        296        300        304        308        312        316        320        324        328        332        336        340        344        348        352        356        360        364        368        372        376        380        384        388        392        396        400        404        408        412        416        420        424        428        432        436        440        444        448        452        456        460        464        468        472        476        480        484        488        492        496        500        504        508        512        516        520        524        528        532        536        540        544        548        552        556        560        564        568        572        576        580        584        588        592        596        600        604        608        612        616        620        624        628        632        636        640        644        648        652        656        660        664        668        672        676        680        684        688        692        696        700        704        708        712        716        720        724        728        732        736        740        744        748        752        756        760        764        768        772        776        780        784        788        792        796        800        804        808        812        816        820        824        828        832        836        840        844        848        852        856        860        864        868        872        876        880        884        888        892        896        900        904        908        912        916        920        924        928        932        936        940        944        948        952        956        960        964        968        972        976        980        984        988        992        996       1000       1004       1008       1012       1016       1020       1024       1028       1032       1036       1040       1044       1048       1052       1056       1060       1064       1068       1072       1076       1080       1084       1088       1092       1096       1100       1104       1108       1112       1116       1120       1124       1128       1132       1136       1140       1144       1148       1152       1156       1160       1164       1168       1172       1176       1180       1184       1188       1192       1196       1200       1204       1208       1212       1216       1220       1224       1228       1232       1236       1240       1244       1248       1252       1256       1260       1264       1268       1272       1276       1280       1284       1288       1292       1296       1300       1304       1308       1312       1316       1320       1324       1328       1332       1336       1340       1344       1348       1352       1356       1360       1364       1368       1372       1376       1380       1384       1388       1392       1396       1400       1404       1408       1412       1416       1420       1424       1428       1432       1436       1440       1444       1448       1452       1456       1460       1464       1468       1472       1476       1480       1484       1488       1492       1496       1500       1504       1508       1512       1516       1520       1524       1528       1532       1536       1540       1544       1548       1552       1556       1560       1564       1568       1572       1576       1580       1584       1588       1592       1596       1600       1604       1608       1612       1616       1620       1624       1628       1632       1636       1640       1644       1648       1652       1656       1660       1664       1668       1672       1676       1680       1684       1688       1692       1696       1700       1704       1708       1712       1716       1720       1724       1728       1732       1736       1740       1744       1748       1752       1756       1760       1764       1768       1772       1776       1780       1784       1788       1792       1796       1800       1804       1808       1812       1816       1820       1824       1828       1832       1836       1840       1844       1848       1852       1856       1860       1864       1868       1872       1876       1880       1884       1888       1892       1896       1900       1904       1908       1912       1916       1920       1924       1928       1932       1936       1940       1944       1948       1952       1956       1960       1964       1968       1972       1976       1980       1984       1988       1992       1996       2000       2004       2008       2012       2016       2020       2024       2028       2032       2036       2040       2044       2048       2052       2056       2060       2064       2068       2072       2076       2080       2084       2088       2092       2096       2100       2104       2108       2112       2116       2120       2124       2128       2132       2136       2140       2144       2148       2152       2156       2160       2164       2168       2172       2176       2180       2184       2188       2192       2196       2200       2204       2208       2212       2216       2220       2224       2228       2232       2236       2240       2244       2248       2252       2256       2260       2264       2268       2272       2276       2280       2284       2288       2292       2296       2300       2304       2308       2312       2316       2320       2324       2328       2332       2336       2340       2344       2348       2352       2356       2360       2364       2368       2372       2376       2380       2384       2388       2392       2396       2400       2404       2408       2412       2416       2420       2424       2428       2432       2436       2440       2444       2448       2452       2456       2460       2464       2468       2472       2476       2480       2484       2488       2492       2496       2500       2504       2508       2512       2516       2520       2524       2528       2532       2536       2540       2544       2548       2552       2556       2560       2564       2568       2572       2576       2580       2584       2588       2592       2596       2600       2604       2608       2612       2616       2620       2624       2628       2632       2636       2640       2644       2648       2652       2656       2660       2664       2668       2672       2676       2680       2684       2688       2692       2696       2700       2704       2708       2712       2716       2720       2724       2728       2732       2736       2740       2744       2748       2752       2756       2760       2764       2768       2772       2776       2780       2784       2788       2792       2796       2800       2804       2808       2812       2816       2820       2824       2828       2832       2836       2840       2844       2848       2852       2856       2860       2864       2868       2872       2876       2880       2884       2888       2892       2896       2900       2904       2908       2912       2916       2920       2924       2928       2932       2936       2940       2944       2948       2952       2956       2960       2964       2968       2972       2976       2980       2984       2988       2992       2996       3000       3004       3008       3012       3016       3020       3024       3028       3032       3036       3040       3044       3048       3052       3056       3060       3064       3068       3072       3076       3080       3084       3088       3092       3096       3100       3104       3108       3112       3116       3120       3124       3128       3132       3136       3140       3144       3148       3152       3156       3160       3164       3168       3172       3176       3180       3184       3188       3192       3196       3200       3204       3208       3212       3216       3220       3224       3228       3232       3236       3240       3244       3248       3252       3256       3260       3264       3268       3272       3276       3280       3284       3288       3292       3296       3300       3304       3308       3312       3316       3320       3324       3328       3332       3336       3340       3344       3348       3352       3356       3360       3364       3368       3372       3376       3380       3384       3388       3392       3396       3400       3404       3408       3412       3416       3420       3424       3428       3432       3436       3440       3444       3448       3452       3456       3460       3464       3468       3472       3476       3480       3484       3488       3492       3496       3500       3504       3508       3512       3516       3520       3524       3528       3532       3536       3540       3544       3548       3552       3556       3560       3564       3568       3572       3576       3580       3584       3588       3592       3596       3600       3604       3608       3612       3616       3620       3624       3628       3632       3636       3640       3644       3648       3652       3656       3660       3664       3668       3672       3676       3680       3684       3688       3692       3696       3700       3704       3708       3712       3716       3720       3724       3728       3732       3736       3740       3744       3748       3752       3756       3760       3764       3768       3772       3776       3780       3784       3788       3792       3796       3800       3804       3808       3812       3816       3820       3824       3828       3832       3836       3840       3844       3848       3852       3856       3860       3864       3868       3872       3876       3880       3884       3888       3892       3896       3900       3904       3908       3912       3916       3920       3924       3928       3932       3936       3940       3944       3948       3952       3956       3960       3964       3968       3972       3976       3980       3984       3988       3992       3996       4000       4004       4008       4012       4016       4020       4024       4028       4032       4036       4040       4044       4048       4052       4056       4060       4064       4068       4072       4076       4080       4084       4088       4092       4096 </DataArray>
<DataArray type="UInt8"                                    Name="types"                                                      NumberOfComponents=" 1" format="ascii">
         9          9          9          9          9          9          9          9          9          9          9          9          9          9          9          9          9          9          9          9          9          9          9          9          9          9          9          9          9          9          9          9          9          9          9          9          9          9          9          9          9          9          9          9          9          9          9          9          9          9          9          9          9          9          9          9          9          9          9          9          9          9          9          9          9          9          9          9          9          9          9          9          9          9          9          9          9          9          9          9          9          9          9          9          9          9          9          9          9          9          9          9          9          9          9          9          9          9          9          9          9          9          9          9          9          9          9          9          9          9          9          9          9          9          9          9          9          9          9          9          9          9          9          9          9          9          9          9          9          9          9          9          9          9          9          9          9          9          9          9          9          9          9          9          9          9          9          9          9          9          9          9          9          9          9          9          9          9          9          9          9          9          9          9          9          9          9          9          9          9          9          9          9          9          9          9          9          9          9          9          9          9          9          9          9          9          9          9          9          9          9          9          9          9          9          9          9          9          9          9          9          9          9          9          9          9          9          9          9          9          9          9          9          9          9          9          9          9          9          9          9          9          9          9          9          9          9          9          9          9          9          9          9          9          9          9          9          9          9          9          9          9          9          9          9          9          9          9          9          9          9          9          9          9          9          9          9          9          9          9          9          9          9          9          9          9          9          9          9          9          9          9          9          9          9          9          9          9          9          9          9          9          9          9          9          9          9          9          9          9          9          9          9          9          9          9          9          9          9          9          9          9          9          9          9          9          9          9          9          9          9          9          9          9          9          9          9          9          9          9          9          9          9          9          9          9          9          9          9          9          9          9          9          9          9          9          9          9          9          9          9          9          9          9          9          9          9          9          9          9          9          9          9          9          9          9          9          9          9          9          9          9          9          9          9          9          9          9          9          9          9          9          9          9          9          9          9          9          9          9          9          9          9          9          9          9          9          9          9          9          9          9          9          9          9          9          9          9          9          9          9          9          9          9          9          9          9          9          9          9          9          9          9          9          9          9          9          9          9          9          9          9          9          9          9          9          9          9          9          9          9          9          9          9          9          9          9          9          9          9          9          9          9          9          9          9          9          9          9          9          9          9          9          9          9          9          9          9          9          9          9          9          9          9          9          9          9          9          9          9          9          9          9          9          9          9          9          9          9          9          9          9          9          9          9          9          9          9          9          9          9          9          9          9          9          9          9          9          9          9          9          9          9          9          9          9          9          9          9          9          9          9          9          9          9          9          9          9          9          9          9          9          9          9          9          9          9          9          9          9          9          9          9          9          9          9          9          9          9          9          9          9          9          9          9          9          9          9          9          9          9          9          9          9          9          9          9          9          9          9          9          9          9          9          9          9          9          9          9          9          9          9          9          9          9          9          9          9          9          9          9          9          9          9          9          9          9          9          9          9          9          9          9          9          9          9          9          9          9          9          9          9          9          9          9          9          9          9          9          9          9          9          9          9          9          9          9          9          9          9          9          9          9          9          9          9          9          9          9          9          9          9          9          9          9          9          9          9          9          9          9          9          9          9          9          9          9          9          9          9          9          9          9          9          9          9          9          9          9          9          9          9          9          9          9          9          9          9          9          9          9          9          9          9          9          9          9          9          9          9          9          9          9          9          9          9          9          9          9          9          9          9          9          9          9          9          9          9          9          9          9          9          9          9          9          9          9          9          9          9          9          9          9          9          9          9          9          9          9          9          9          9          9          9          9          9          9          9          9          9          9          9          9          9          9          9          9          9          9          9          9          9          9          9          9          9          9          9          9          9          9          9          9          9          9          9          9          9          9          9          9          9          9          9          9          9          9          9          9          9          9          9          9          9          9          9          9          9          9          9          9          9          9          9          9          9          9          9          9          9          9          9          9          9          9          9          9          9          9          9          9          9          9          9          9          9          9          9          9          9          9          9          9          9          9          9          9          9          9          9          9          9          9          9          9          9          9          9          9          9          9          9          9          9          9          9          9          9          9          9          9          9          9          9          9          9          9          9          9          9          9          9          9          9          9          9          9          9          9          9          9          9          9          9          9          9          9          9          9          9          9          9          9          9          9          9          9          9          9          9          9          9          9          9          9          9          9          9          9          9          9          9          9          9          9          9          9          9          9          9          9          9          9          9          9          9          9          9          9          9          9          9          9          9          9          9          9          9          9          9          9          9          9          9          9          9          9          9          9          9          9          9          9          9          9          9          9          9          9          9          9          9          9          9          9          9          9          9          9          9          9          9          9          9          9          9          9          9          9          9          9          9          9          9          9          9          9          9          9          9          9          9          9          9          9          9          9          9          9          9          9          9          9          9          9          9          9          9          9          9          9          9          9          9          9          9          9          9          9          9          9          9          9          9          9          9          9          9          9          9          9          9          9          9          9          9          9          9          9          9          9          9          9          9 </DataArray>
</Cells>
<CellData>
<DataArray type="Int32"                                    Name="material"                                                      NumberOfComponents=" 1" format="ascii">
         1          1          1          1          1          1          1          1          1          1          1          1          1          1          1          1          1          1          1          1          1          1          1          1          1          1          1          1          1          1          1          1          1          1          1          1          1          1          1          1          1          1          1          1          1          1          1          1          1          1          1          1          1          1          1          1          1          1          1          1          1          1          1          1          1          1          1          1          1          1          1          1          1          1          1          1          1          1          1          1          1          1          1          1          1          1          1          1          1          1          1          1          1          1          1          1          1          1          1          1          1          1          1          1          1          1          1          1          1          1          1          1          1          1          1          1          1          1          1          1          1          1          1          1          1          1          1          1          1          1          1          1          1          1          1          1          1          1          1          1          1          1          1          1          1          1          1          1          1          1          1          1          1          1          1          1          1          1          1          1          1          1          1          1          1          1          1          1          1          1          1          1          1          1          1          1          1          1          1          1          1          1          1          1          1          1          1          1          1          1          1          1          1          1          1          1          1          1          1          1          1          1          1          1          1          1          1          1          1          1          1          1          1          1          1          1          1          1          1          1          1          1          1          1          1          1          1          1          1          1          1          1          1          1          1          1          1          1          1          1          1          1          1          1          1          1          1          1          1          1          1          1          1          1          1          1          1          1          1          1          1          1          1          1          1          1          1          1          1          1          1          1          1          1          1          1          1          1          1          1          1          1          1          1          1          1          1          1          1          1          1          1          1          1          1          1          1          1          1          1          1          1          1          1          1          1          1          1          1          1          1          1          1          1          1          1          1          1          1          1          1          1          1          1          1          1          1          1          1          1          1          1          1          1          1          1          1          1          1          1          1          1          1          1          1          1          1          1          1          1          1          1          1          1          1          1          1          1          1          1          1          1          1          1          1          1          1          1          1          1          1          1          1          1          1          1          1          1          1          1          1          1          1          1          1          1          1          1          1          1          1          1          1          1          1          1          1          1          1          1          1          1          1          1          1          1          1          1          1          1          1          1          1          1          1          1          1          1          1          1          1          1          1          1          1          1          1          1          1          1          1          1          1          1          1          1          1          1          1          1          1          1          1          1          1          1          1          1          1          1          1          1          1          1          1          1          1          1          1          1          1          1          1          1          1          1          1          1          1          1          1          1          1          1          1          1          1          1          1          1          1          1          1          1          1          1          1          1          1          1          1          1          1          1          1          1          1          1          1          1          1          1          1          1          1          1          1          1          1          1          1          1          1          1          1          1          1          1          1          1          1          1          1          1          1          1          1          1          1          1          1          1          1          1          1          1          1          1          1          1          1          1          1          1          1          1          1          1          1          1          1          1          1          1          1          1          1          1          1          1          1          1          1          1          1          1          1          1          1          1          1          1          1          1          1          1          1          1          1          1          1          1          1          1          1          1          1          1          1          1          1          1          1          1          1          1          1          1          1          1          1          1          1          1          1          1          1          1          1          1          1          1          1          1          1          1          1          1          1          1          1          1          1          1          1          1          1          1          1          1          1          1          1          1          1          1          1          1          1          1          1          1          1          1          1          1          1          1          1          1          1          1          1          1          1          1          1          1          1          1          1          1          1          1          1          1          1          1          1          1          1          1          1          1          1          1          1          1          1          1          1          1          1          1          1          1          1          1          1          1          1          1          1          1          1          1          1          1          1          1          1          1          1          1          1          1          1          1          1          1          1          1          1          1          1          1          1          1          1          1          1          1          1          1          1          1          1          1          1          1          1          1          1          1          1          1          1          1          1          1          1          1          1          1          1          1          1          1          1          1          1          1          1          1          1          1          1          1          1          1          1          1          1          1          1          1          1          1          1          1          1          1          1          1          1          1          1          1          1          1          1          1          1          1          1          1          1          1          1          1          1          1          1          1          1          1          1          1          1          1          1          1          1          1          1          1          1          1          1          1          1          1          1          1          1          1          1          1          1          1          1          1          1          1          1          1          1          1          1          1          1          1          1          1          1          1          1          1          1          1          1          1          1          1          1          1          1          1          1          1          1          1          1          1          1          1          1          1          1          1          1          1          1          1          1          1          1          1          1          1          1          1          1          1          1          1          1          1          1          1          1          1          1          1          1          1          1          1          1          1          1          1          1          1          1          1          1          1          1          1          1          1          1          1          1          1          1          1          1          1          1          1          1          1          1          1          1          1          1          1          1          1          1          1          1          1          1          1          1          1          1          1          1          1          1          1          1          1          1          1          1          1          1          1          1          1          1          1          1          1          1          1          1          1          1          1          1          1          1          1          1          1          1          1          1          1          1          1          1          1          1          1          1          1          1          1          1          1          1          1          1          1          1          1          1          1          1          1          1          1          1          1          1          1          1          1          1          1          1          1          1          1          1          1          1          1          1          1          1          1          1          1          1          1          1          1          1          1          1          1          1          1          1          1 </DataArray>
</CellData>
<PointData>
<DataArray type="Float64"                                    Name="u"                                                      NumberOfComponents=" 3" format="ascii">
             -0.000740080               0.000000000               0.999999984              -0.000791548              -0.000000000               0.999999984              -0.000814007               0.000000000               0.999999984              -0.000826317               0.000000000               0.999999984              -0.000835674              -0.000000000               0.999999984              -0.000844976              -0.000000000               0.999999984              -0.000855210               0.000000000               0.999999984              -0.000866590               0.000000000               0.999999984              -0.000879020              -0.000000000               0.999999984              -0.000892434               0.000000000               0.999999984              -0.000906641               0.000000000               0.999999984              -0.000921358               0.000000000               0.999999984              -0.000936143               0.000000000               0.999999984              -0.000950596               0.000000000               0.999999984              -0.000964383               0.000000000               0.999999984              -0.000976973              -0.000000000               0.999999984              -0.000987767               0.000000000               0.999999984              -0.000736182               0.000132742               0.999999984              -0.000783758               0.000108057               0.999999984              -0.000803702               0.000097040               0.999999984              -0.000814497               0.000092928               0.999999984              -0.000822827               0.000092575               0.999999984              -0.000831388               0.000094179               0.999999984              -0.000841071               0.000096683               0.999999984              -0.000851987               0.000099467               0.999999984              -0.000863959               0.000102138               0.999999984              -0.000876804               0.000104550               0.999999984              -0.000890276               0.000106298               0.999999984              -0.000904050               0.000106860               0.999999984              -0.000917683               0.000105882               0.999999984              -0.000930750               0.000102936               0.999999984              -0.000942925               0.000097800               0.999999984              -0.000953694               0.000089496               0.999999984              -0.000962368               0.000076947               0.999999984              -0.000724217               0.000264244               0.999999984              -0.000760491               0.000215376               0.999999984              -0.000773521               0.000194580               0.999999984              -0.000780201               0.000187282               0.999999984              -0.000786024               0.000187204               0.999999984              -0.000792953               0.000190821               0.999999984              -0.000801306               0.000195995               0.999999984              -0.000810891               0.000201620               0.999999984              -0.000821306               0.000206969               0.999999984              -0.000832196               0.000211554               0.999999984              -0.000843165               0.000214803               0.999999984              -0.000853819               0.000215674               0.999999984              -0.000863704               0.000213545               0.999999984              -0.000872327               0.000207952               0.999999984              -0.000879317               0.000198036               0.999999984              -0.000884281               0.000182368               0.999999984              -0.000886952               0.000159431               0.999999984              -0.000704408               0.000393085               0.999999984              -0.000722969               0.000321462               0.999999984              -0.000726050               0.000292855               0.999999984              -0.000727105               0.000284073               0.999999984              -0.000729750               0.000285298               0.999999984              -0.000734539               0.000291526               0.999999984              -0.000741109               0.000299699               0.999999984              -0.000748748               0.000308194               0.999999984              -0.000756731               0.000315982               0.999999984              -0.000764558               0.000322445               0.999999984              -0.000771730               0.000326632               0.999999984              -0.000777594               0.000327425               0.999999984              -0.000781609               0.000323917               0.999999984              -0.000783400               0.000315501               0.999999984              -0.000782747               0.000301428               0.999999984              -0.000779617               0.000280799               0.999999984              -0.000774380               0.000252714               0.999999984              -0.000677147               0.000517918               0.999999984              -0.000672942               0.000426098               0.999999984              -0.000664886               0.000392192               0.999999984              -0.000660521               0.000383691               0.999999984              -0.000660434               0.000387220               0.999999984              -0.000663460               0.000396443               0.999999984              -0.000668283               0.000407633               0.999999984              -0.000673648               0.000418778               0.999999984              -0.000678647               0.000428801               0.999999984              -0.000682523               0.000436646               0.999999984              -0.000684464               0.000441303               0.999999984              -0.000683857               0.000441425               0.999999984              -0.000680387               0.000436324               0.999999984              -0.000673930               0.000425681               0.999999984              -0.000664725               0.000409172               0.999999984              -0.000653177               0.000386856               0.999999984              -0.000639975               0.000358960               0.999999984              -0.000642789               0.000637622               0.999999984              -0.000613010               0.000529215               0.999999984              -0.000594796               0.000492623               0.999999984              -0.000586571               0.000485632               0.999999984              -0.000584907               0.000492032               0.999999984              -0.000586809               0.000504448               0.999999984              -0.000590032               0.000518482               0.999999984              -0.000592995               0.000532060               0.999999984              -0.000594509               0.000543890               0.999999984              -0.000593538               0.000552534               0.999999984              -0.000589276               0.000556798               0.999999984              -0.000581318               0.000555841               0.999999984              -0.000569722               0.000549355               0.999999984              -0.000554870               0.000537395               0.999999984              -0.000537315               0.000520332               0.999999984              -0.000517712               0.000498937               0.999999984              -0.000496926               0.000474176               0.999999984              -0.000602137               0.000751060               0.999999984              -0.000546423               0.000630700               0.999999984              -0.000520470               0.000593660               0.999999984              -0.000510510               0.000588993               0.999999984              -0.000508697               0.000598384               0.999999984              -0.000510167               0.000613704               0.999999984              -0.000512052               0.000630276               0.999999984              -0.000512420               0.000645920               0.999999984              -0.000509800               0.000658900               0.999999984              -0.000503207               0.000667473               0.999999984              -0.000492069               0.000670876               0.999999984              -0.000476348               0.000668631               0.999999984              -0.000456535               0.000661055               0.999999984              -0.000433312               0.000648696               0.999999984              -0.000407552               0.000632254               0.999999984              -0.000379992               0.000612841               0.999999984              -0.000351336               0.000591502               0.999999984              -0.000556035               0.000857081               0.999999984              -0.000476242               0.000730469               0.999999984              -0.000446007               0.000694542               0.999999984              -0.000436897               0.000692231               0.999999984              -0.000436177               0.000704251               0.999999984              -0.000437780               0.000721943               0.999999984              -0.000438205               0.000740676               0.999999984              -0.000435357               0.000757849               0.999999984              -0.000427776               0.000771146               0.999999984              -0.000414678               0.000779130               0.999999984              -0.000395783               0.000781473               0.999999984              -0.000371596               0.000778180               0.999999984              -0.000342950               0.000770116               0.999999984              -0.000310824               0.000758141               0.999999984              -0.000276150               0.000743250               0.999999984              -0.000239806               0.000726423               0.999999984              -0.000202515               0.000708451               0.999999984              -0.000506012               0.000953853               0.999999984              -0.000405042               0.000828403               0.999999984              -0.000375363               0.000793938               0.999999984              -0.000368824               0.000793471               0.999999984              -0.000369967               0.000807496               0.999999984              -0.000371727               0.000827177               0.999999984              -0.000370213               0.000847420               0.999999984              -0.000363340               0.000865349               0.999999984              -0.000349735               0.000878418               0.999999984              -0.000328848               0.000885606               0.999999984              -0.000300992               0.000887065               0.999999984              -0.000267200               0.000883437               0.999999984              -0.000228594               0.000875722               0.999999984              -0.000186486               0.000865234               0.999999984              -0.000142097               0.000852892               0.999999984              -0.000096667               0.000839641               0.999999984              -0.000050898               0.000825918               0.999999984              -0.000454467               0.001045050               0.999999984              -0.000345929               0.000937184               0.999999984              -0.000313070               0.000898654               0.999999984              -0.000305223               0.000892532               0.999999984              -0.000305888               0.000901726               0.999999984              -0.000308276               0.000918300               0.999999984              -0.000308263               0.000937543               0.999999984              -0.000303803               0.000956459               0.999999984              -0.000293538               0.000973017               0.999999984              -0.000276726               0.000985550               0.999999984              -0.000253174               0.000993695               0.999999984              -0.000223308               0.000997433               0.999999984              -0.000187728               0.000997508               0.999999984              -0.000147536               0.000994578               0.999999984              -0.000103961               0.000989773               0.999999984              -0.000058253               0.000983646               0.999999984              -0.000011920               0.000977035               0.999999984              -0.000398043               0.001128059               0.999999984              -0.000289581               0.001042319               0.999999984              -0.000253755               0.001005872               0.999999984              -0.000243809               0.000996631               0.999999984              -0.000243364               0.001002441               0.999999984              -0.000245524               0.001016481               0.999999984              -0.000246397               0.001034659               0.999999984              -0.000243804               0.001054133               0.999999984              -0.000236251               0.001073014               0.999999984              -0.000223134               0.001089761               0.999999984              -0.000203951               0.001103445               0.999999984              -0.000178318               0.001113713               0.999999984              -0.000146494               0.001120734               0.999999984              -0.000109052               0.001124913               0.999999984              -0.000067056               0.001127013               0.999999984              -0.000021623               0.001127737               0.999999984               0.000025759               0.001127795               0.999999984              -0.000337857               0.001200935               0.999999984              -0.000236044               0.001140643               0.999999984              -0.000199056               0.001110715               0.999999984              -0.000187008               0.001101666               0.999999984              -0.000184953               0.001106016               0.999999984              -0.000186229               0.001118801               0.999999984              -0.000187163               0.001136465               0.999999984              -0.000185646               0.001156665               0.999999984              -0.000180232               0.001177478               0.999999984              -0.000170316               0.001197691               0.999999984              -0.000155119               0.001216108               0.999999984              -0.000133880               0.001232131               0.999999984              -0.000106290               0.001245535               0.999999984              -0.000072517               0.001256349               0.999999984              -0.000033034               0.001264959               0.999999984               0.000011522               0.001272124               0.999999984               0.000059934               0.001278541               0.999999984              -0.000274400               0.001262412               0.999999984              -0.000185322               0.001228222               0.999999984              -0.000149850               0.001208029               0.999999984              -0.000136578               0.001202193               0.999999984              -0.000132861               0.001207335               0.999999984              -0.000132853               0.001220281               0.999999984              -0.000133328               0.001238369               0.999999984              -0.000132300               0.001259621               0.999999984              -0.000128524               0.001282530               0.999999984              -0.000121255               0.001305871               0.999999984              -0.000109593               0.001328678               0.999999984              -0.000092695               0.001350111               0.999999984              -0.000069842               0.001369655               0.999999984              -0.000040624               0.001387130               0.999999984              -0.000004824               0.001402476               0.999999984               0.000037802               0.001416126               0.999999984               0.000086900               0.001428711               0.999999984              -0.000208224               0.001311442               0.999999984              -0.000136952               0.001301235               0.999999984              -0.000106217               0.001292250               0.999999984              -0.000093414               0.001291525               0.999999984              -0.000088776               0.001299149               0.999999984              -0.000087658               0.001313527               0.999999984              -0.000087479               0.001332987               0.999999984              -0.000086571               0.001355939               0.999999984              -0.000083901               0.001381228               0.999999984              -0.000078771               0.001407883               0.999999984              -0.000070348               0.001434999               0.999999984              -0.000057655               0.001461780               0.999999984              -0.000039913               0.001487404               0.999999984              -0.000016395               0.001511483               0.999999984               0.000013928               0.001533879               0.999999984               0.000052017               0.001554527               0.999999984               0.000098855               0.001573690               0.999999984              -0.000139998               0.001347136               0.999999984              -0.000090361               0.001356116               0.999999984              -0.000067604               0.001357529               0.999999984              -0.000057345               0.001362459               0.999999984              -0.000053086               0.001373251               0.999999984              -0.000051591               0.001389680               0.999999984              -0.000051000               0.001410855               0.999999984              -0.000050202               0.001435768               0.999999984              -0.000048414               0.001463413               0.999999984              -0.000045060               0.001493068               0.999999984              -0.000039487               0.001524149               0.999999984              -0.000031048               0.001555775               0.999999984              -0.000019002               0.001587118               0.999999984              -0.000002434               0.001617536               0.999999984               0.000019904               0.001646791               0.999999984               0.000049435               0.001674445               0.999999984               0.000087868               0.001700234               0.999999984              -0.000070370               0.001368864               0.999999984              -0.000044908               0.001390202               0.999999984              -0.000032791               0.001398847               0.999999984              -0.000027053               0.001408078               0.999999984              -0.000024495               0.001421529               0.999999984              -0.000023433               0.001439790               0.999999984              -0.000022947               0.001462444               0.999999984              -0.000022494               0.001488841               0.999999984              -0.000021603               0.001518287               0.999999984              -0.000019818               0.001550179               0.999999984              -0.000016969               0.001583966               0.999999984              -0.000012866               0.001619017               0.999999984              -0.000006836               0.001654676               0.999999984               0.000001692               0.001690152               0.999999984               0.000013509               0.001724915               0.999999984               0.000029902               0.001758324               0.999999984               0.000052267               0.001789596               0.999999984              -0.000000000               0.001376172               0.999999984              -0.000000000               0.001401779               0.999999984               0.000000000               0.001413030               0.999999984              -0.000000000               0.001423868               0.999999984              -0.000000000               0.001438275               0.999999984               0.000000000               0.001457176               0.999999984              -0.000000000               0.001480392               0.999999984              -0.000000000               0.001507402               0.999999984               0.000000000               0.001537603               0.999999984              -0.000000000               0.001570336               0.999999984               0.000000000               0.001605130               0.999999984               0.000000000               0.001641398               0.999999984               0.000000000               0.001678595               0.999999984               0.000000000               0.001716026               0.999999984               0.000000000               0.001753131               0.999999984               0.000000000               0.001789034               0.999999984              -0.000000000               0.001822508               0.999999984              -0.000740080               0.000000000               0.999999984              -0.000791548              -0.000000000               0.999999984              -0.000814007               0.000000000               0.999999984              -0.000826317               0.000000000               0.999999984              -0.000835674              -0.000000000               0.999999984              -0.000844976              -0.000000000               0.999999984              -0.000855210               0.000000000               0.999999984              -0.000866590               0.000000000               0.999999984              -0.000879020              -0.000000000               0.999999984              -0.000892434               0.000000000               0.999999984              -0.000906641               0.000000000               0.999999984              -0.000921358               0.000000000               0.999999984              -0.000936143               0.000000000               0.999999984              -0.000950596               0.000000000               0.999999984              -0.000964383               0.000000000               0.999999984              -0.000976973              -0.000000000               0.999999984              -0.000987767               0.000000000               0.999999984              -0.000736182              -0.000132742               0.999999984              -0.000783758              -0.000108057               0.999999984              -0.000803702              -0.000097040               0.999999984              -0.000814497              -0.000092928               0.999999984              -0.000822827              -0.000092575               0.999999984              -0.000831388              -0.000094179               0.999999984              -0.000841071              -0.000096683               0.999999984              -0.000851987              -0.000099467               0.999999984              -0.000863959              -0.000102138               0.999999984              -0.000876804              -0.000104550               0.999999984              -0.000890276              -0.000106298               0.999999984              -0.000904050              -0.000106860               0.999999984              -0.000917683              -0.000105882               0.999999984              -0.000930750              -0.000102936               0.999999984              -0.000942925              -0.000097800               0.999999984              -0.000953694              -0.000089496               0.999999984              -0.000962368              -0.000076947               0.999999984              -0.000724217              -0.000264244               0.999999984              -0.000760491              -0.000215376               0.999999984              -0.000773521              -0.000194580               0.999999984              -0.000780201              -0.000187282               0.999999984              -0.000786024              -0.000187204               0.999999984              -0.000792953              -0.000190821               0.999999984              -0.000801306              -0.000195995               0.999999984              -0.000810891              -0.000201620               0.999999984              -0.000821306              -0.000206969               0.999999984              -0.000832196              -0.000211554               0.999999984              -0.000843165              -0.000214803               0.999999984              -0.000853819              -0.000215674               0.999999984              -0.000863704              -0.000213545               0.999999984              -0.000872327              -0.000207952               0.999999984              -0.000879317              -0.000198036               0.999999984              -0.000884281              -0.000182368               0.999999984              -0.000886952              -0.000159431               0.999999984              -0.000704408              -0.000393085               0.999999984              -0.000722969              -0.000321462               0.999999984              -0.000726050              -0.000292855               0.999999984              -0.000727105              -0.000284073               0.999999984              -0.000729750              -0.000285298               0.999999984              -0.000734539              -0.000291526               0.999999984              -0.000741109              -0.000299699               0.999999984              -0.000748748              -0.000308194               0.999999984              -0.000756731              -0.000315982               0.999999984              -0.000764558              -0.000322445               0.999999984              -0.000771730              -0.000326632               0.999999984              -0.000777594              -0.000327425               0.999999984              -0.000781609              -0.000323917               0.999999984              -0.000783400              -0.000315501               0.999999984              -0.000782747              -0.000301428               0.999999984              -0.000779617              -0.000280799               0.999999984              -0.000774380              -0.000252714               0.999999984              -0.000677147              -0.000517918               0.999999984              -0.000672942              -0.000426098               0.999999984              -0.000664886              -0.000392192               0.999999984              -0.000660521              -0.000383691               0.999999984              -0.000660434              -0.000387220               0.999999984              -0.000663460              -0.000396443               0.999999984              -0.000668283              -0.000407633               0.999999984              -0.000673648              -0.000418778               0.999999984              -0.000678647              -0.000428801               0.999999984              -0.000682523              -0.000436646               0.999999984              -0.000684464              -0.000441303               0.999999984              -0.000683857              -0.000441425               0.999999984              -0.000680387              -0.000436324               0.999999984              -0.000673930              -0.000425681               0.999999984              -0.000664725              -0.000409172               0.999999984              -0.000653177              -0.000386856               0.999999984              -0.000639975              -0.000358960               0.999999984              -0.000642789              -0.000637622               0.999999984              -0.000613010              -0.000529215               0.999999984              -0.000594796              -0.000492623               0.999999984              -0.000586571              -0.000485632               0.999999984              -0.000584907              -0.000492032               0.999999984              -0.000586809              -0.000504448               0.999999984              -0.000590032              -0.000518482               0.999999984              -0.000592995              -0.000532060               0.999999984              -0.000594509              -0.000543890               0.999999984              -0.000593538              -0.000552534               0.999999984              -0.000589276              -0.000556798               0.999999984              -0.000581318              -0.000555841               0.999999984              -0.000569722              -0.000549355               0.999999984              -0.000554870              -0.000537395               0.999999984              -0.000537315              -0.000520332               0.999999984              -0.000517712              -0.000498937               0.999999984              -0.000496926              -0.000474176               0.999999984              -0.000602137              -0.000751060               0.999999984              -0.000546423              -0.000630700               0.999999984              -0.000520470              -0.000593660               0.999999984              -0.000510510              -0.000588993               0.999999984              -0.000508697              -0.000598384               0.999999984              -0.000510167              -0.000613704               0.999999984              -0.000512052              -0.000630276               0.999999984              -0.000512420              -0.000645920               0.999999984              -0.000509800              -0.000658900               0.999999984              -0.000503207              -0.000667473               0.999999984              -0.000492069              -0.000670876               0.999999984              -0.000476348              -0.000668631               0.999999984              -0.000456535              -0.000661055               0.999999984              -0.000433312              -0.000648696               0.999999984              -0.000407552              -0.000632254               0.999999984              -0.000379992              -0.000612841               0.999999984              -0.000351336              -0.000591502               0.999999984              -0.000556035              -0.000857081               0.999999984              -0.000476242              -0.000730469               0.999999984              -0.000446007              -0.000694542               0.999999984              -0.000436897              -0.000692231               0.999999984              -0.000436177              -0.000704251               0.999999984              -0.000437780              -0.000721943               0.999999984              -0.000438205              -0.000740676               0.999999984              -0.000435357              -0.000757849               0.999999984              -0.000427776              -0.000771146               0.999999984              -0.000414678              -0.000779130               0.999999984              -0.000395783              -0.000781473               0.999999984              -0.000371596              -0.000778180               0.999999984              -0.000342950              -0.000770116               0.999999984              -0.000310824              -0.000758141               0.999999984              -0.000276150              -0.000743250               0.999999984              -0.000239806              -0.000726423               0.999999984              -0.000202515              -0.000708451               0.999999984              -0.000506012              -0.000953853               0.999999984              -0.000405042              -0.000828403               0.999999984              -0.000375363              -0.000793938               0.999999984              -0.000368824              -0.000793471               0.999999984              -0.000369967              -0.000807496               0.999999984              -0.000371727              -0.000827177               0.999999984              -0.000370213              -0.000847420               0.999999984              -0.000363340              -0.000865349               0.999999984              -0.000349735              -0.000878418               0.999999984              -0.000328848              -0.000885606               0.999999984              -0.000300992              -0.000887065               0.999999984              -0.000267200              -0.000883437               0.999999984              -0.000228594              -0.000875722               0.999999984              -0.000186486              -0.000865234               0.999999984              -0.000142097              -0.000852892               0.999999984              -0.000096667              -0.000839641               0.999999984              -0.000050898              -0.000825918               0.999999984              -0.000454467              -0.001045050               0.999999984              -0.000345929              -0.000937184               0.999999984              -0.000313070              -0.000898654               0.999999984              -0.000305223              -0.000892532               0.999999984              -0.000305888              -0.000901726               0.999999984              -0.000308276              -0.000918300               0.999999984              -0.000308263              -0.000937543               0.999999984              -0.000303803              -0.000956459               0.999999984              -0.000293538              -0.000973017               0.999999984              -0.000276726              -0.000985550               0.999999984              -0.000253174              -0.000993695               0.999999984              -0.000223308              -0.000997433               0.999999984              -0.000187728              -0.000997508               0.999999984              -0.000147536              -0.000994578               0.999999984              -0.000103961              -0.000989773               0.999999984              -0.000058253              -0.000983646               0.999999984              -0.000011920              -0.000977035               0.999999984              -0.000398043              -0.001128059               0.999999984              -0.000289581              -0.001042319               0.999999984              -0.000253755              -0.001005872               0.999999984              -0.000243809              -0.000996631               0.999999984              -0.000243364              -0.001002441               0.999999984              -0.000245524              -0.001016481               0.999999984              -0.000246397              -0.001034659               0.999999984              -0.000243804              -0.001054133               0.999999984              -0.000236251              -0.001073014               0.999999984              -0.000223134              -0.001089761               0.999999984              -0.000203951              -0.001103445               0.999999984              -0.000178318              -0.001113713               0.999999984              -0.000146494              -0.001120734               0.999999984              -0.000109052              -0.001124913               0.999999984              -0.000067056              -0.001127013               0.999999984              -0.000021623              -0.001127737               0.999999984               0.000025759              -0.001127795               0.999999984              -0.000337857              -0.001200935               0.999999984              -0.000236044              -0.001140643               0.999999984              -0.000199056              -0.001110715               0.999999984              -0.000187008              -0.001101666               0.999999984              -0.000184953              -0.001106016               0.999999984              -0.000186229              -0.001118801               0.999999984              -0.000187163              -0.001136465               0.999999984              -0.000185646              -0.001156665               0.999999984              -0.000180232              -0.001177478               0.999999984              -0.000170316              -0.001197691               0.999999984              -0.000155119              -0.001216108               0.999999984              -0.000133880              -0.001232131               0.999999984              -0.000106290              -0.001245535               0.999999984              -0.000072517              -0.001256349               0.999999984              -0.000033034              -0.001264959               0.999999984               0.000011522              -0.001272124               0.999999984               0.000059934              -0.001278541               0.999999984              -0.000274400              -0.001262412               0.999999984              -0.000185322              -0.001228222               0.999999984              -0.000149850              -0.001208029               0.999999984              -0.000136578              -0.001202193               0.999999984              -0.000132861              -0.001207335               0.999999984              -0.000132853              -0.001220281               0.999999984              -0.000133328              -0.001238369               0.999999984              -0.000132300              -0.001259621               0.999999984              -0.000128524              -0.001282530               0.999999984              -0.000121255              -0.001305871               0.999999984              -0.000109593              -0.001328678               0.999999984              -0.000092695              -0.001350111               0.999999984              -0.000069842              -0.001369655               0.999999984              -0.000040624              -0.001387130               0.999999984              -0.000004824              -0.001402476               0.999999984               0.000037802              -0.001416126               0.999999984               0.000086900              -0.001428711               0.999999984              -0.000208224              -0.001311442               0.999999984              -0.000136952              -0.001301235               0.999999984              -0.000106217              -0.001292250               0.999999984              -0.000093414              -0.001291525               0.999999984              -0.000088776              -0.001299149               0.999999984              -0.000087658              -0.001313527               0.999999984              -0.000087479              -0.001332987               0.999999984              -0.000086571              -0.001355939               0.999999984              -0.000083901              -0.001381228               0.999999984              -0.000078771              -0.001407883               0.999999984              -0.000070348              -0.001434999               0.999999984              -0.000057655              -0.001461780               0.999999984              -0.000039913              -0.001487404               0.999999984              -0.000016395              -0.001511483               0.999999984               0.000013928              -0.001533879               0.999999984               0.000052017              -0.001554527               0.999999984               0.000098855              -0.001573690               0.999999984              -0.000139998              -0.001347136               0.999999984              -0.000090361              -0.001356116               0.999999984              -0.000067604              -0.001357529               0.999999984              -0.000057345              -0.001362459               0.999999984              -0.000053086              -0.001373251               0.999999984              -0.000051591              -0.001389680               0.999999984              -0.000051000              -0.001410855               0.999999984              -0.000050202              -0.001435768               0.999999984              -0.000048414              -0.001463413               0.999999984              -0.000045060              -0.001493068               0.999999984              -0.000039487              -0.001524149               0.999999984              -0.000031048              -0.001555775               0.999999984              -0.000019002              -0.001587118               0.999999984              -0.000002434              -0.001617536               0.999999984               0.000019904              -0.001646791               0.999999984               0.000049435              -0.001674445               0.999999984               0.000087868              -0.001700234               0.999999984              -0.000070370              -0.001368864               0.999999984              -0.000044908              -0.001390202               0.999999984              -0.000032791              -0.001398847               0.999999984              -0.000027053              -0.001408078               0.999999984              -0.000024495              -0.001421529               0.999999984              -0.000023433              -0.001439790               0.999999984              -0.000022947              -0.001462444               0.999999984              -0.000022494              -0.001488841               0.999999984              -0.000021603              -0.001518287               0.999999984              -0.000019818              -0.001550179               0.999999984              -0.000016969              -0.001583966               0.999999984              -0.000012866              -0.001619017               0.999999984              -0.000006836              -0.001654676               0.999999984               0.000001692              -0.001690152               0.999999984               0.000013509              -0.001724915               0.999999984               0.000029902              -0.001758324               0.999999984               0.000052267              -0.001789596               0.999999984               0.000000000              -0.001376172               0.999999984               0.000000000              -0.001401779               0.999999984              -0.000000000              -0.001413030               0.999999984              -0.000000000              -0.001423868               0.999999984               0.000000000              -0.001438275               0.999999984              -0.000000000              -0.001457176               0.999999984              -0.000000000              -0.001480392               0.999999984              -0.000000000              -0.001507402               0.999999984              -0.000000000              -0.001537603               0.999999984              -0.000000000              -0.001570336               0.999999984               0.000000000              -0.001605130               0.999999984               0.000000000              -0.001641398               0.999999984              -0.000000000              -0.001678595               0.999999984               0.000000000              -0.001716026               0.999999984               0.000000000              -0.001753131               0.999999984               0.000000000              -0.001789034               0.999999984              -0.000000000              -0.001822508               0.999999984               0.000740080               0.000000000               0.999999984               0.000791548               0.000000000               0.999999984               0.000814007               0.000000000               0.999999984               0.000826317              -0.000000000               0.999999984               0.000835674               0.000000000               0.999999984               0.000844976              -0.000000000               0.999999984               0.000855210              -0.000000000               0.999999984               0.000866590              -0.000000000               0.999999984               0.000879020               0.000000000               0.999999984               0.000892434               0.000000000               0.999999984               0.000906641               0.000000000               0.999999984               0.000921358               0.000000000               0.999999984               0.000936143              -0.000000000               0.999999984               0.000950596               0.000000000               0.999999984               0.000964383              -0.000000000               0.999999984               0.000976973              -0.000000000               0.999999984               0.000987767               0.000000000               0.999999984               0.000736182              -0.000132742               0.999999984               0.000783758              -0.000108057               0.999999984               0.000803702              -0.000097040               0.999999984               0.000814497              -0.000092928               0.999999984               0.000822827              -0.000092575               0.999999984               0.000831388              -0.000094179               0.999999984               0.000841071              -0.000096683               0.999999984               0.000851987              -0.000099467               0.999999984               0.000863959              -0.000102138               0.999999984               0.000876804              -0.000104550               0.999999984               0.000890276              -0.000106298               0.999999984               0.000904050              -0.000106860               0.999999984               0.000917683              -0.000105882               0.999999984               0.000930750              -0.000102936               0.999999984               0.000942925              -0.000097800               0.999999984               0.000953694              -0.000089496               0.999999984               0.000962368              -0.000076947               0.999999984               0.000724217              -0.000264244               0.999999984               0.000760491              -0.000215376               0.999999984               0.000773521              -0.000194580               0.999999984               0.000780201              -0.000187282               0.999999984               0.000786024              -0.000187204               0.999999984               0.000792953              -0.000190821               0.999999984               0.000801306              -0.000195995               0.999999984               0.000810891              -0.000201620               0.999999984               0.000821306              -0.000206969               0.999999984               0.000832196              -0.000211554               0.999999984               0.000843165              -0.000214803               0.999999984               0.000853819              -0.000215674               0.999999984               0.000863704              -0.000213545               0.999999984               0.000872327              -0.000207952               0.999999984               0.000879317              -0.000198036               0.999999984               0.000884281              -0.000182368               0.999999984               0.000886952              -0.000159431               0.999999984               0.000704408              -0.000393085               0.999999984               0.000722969              -0.000321462               0.999999984               0.000726050              -0.000292855               0.999999984               0.000727105              -0.000284073               0.999999984               0.000729750              -0.000285298               0.999999984               0.000734539              -0.000291526               0.999999984               0.000741109              -0.000299699               0.999999984               0.000748748              -0.000308194               0.999999984               0.000756731              -0.000315982               0.999999984               0.000764558              -0.000322445               0.999999984               0.000771730              -0.000326632               0.999999984               0.000777594              -0.000327425               0.999999984               0.000781609              -0.000323917               0.999999984               0.000783400              -0.000315501               0.999999984               0.000782747              -0.000301428               0.999999984               0.000779617              -0.000280799               0.999999984               0.000774380              -0.000252714               0.999999984               0.000677147              -0.000517918               0.999999984               0.000672942              -0.000426098               0.999999984               0.000664886              -0.000392192               0.999999984               0.000660521              -0.000383691               0.999999984               0.000660434              -0.000387220               0.999999984               0.000663460              -0.000396443               0.999999984               0.000668283              -0.000407633               0.999999984               0.000673648              -0.000418778               0.999999984               0.000678647              -0.000428801               0.999999984               0.000682523              -0.000436646               0.999999984               0.000684464              -0.000441303               0.999999984               0.000683857              -0.000441425               0.999999984               0.000680387              -0.000436324               0.999999984               0.000673930              -0.000425681               0.999999984               0.000664725              -0.000409172               0.999999984               0.000653177              -0.000386856               0.999999984               0.000639975              -0.000358960               0.999999984               0.000642789              -0.000637622               0.999999984               0.000613010              -0.000529215               0.999999984               0.000594796              -0.000492623               0.999999984               0.000586571              -0.000485632               0.999999984               0.000584907              -0.000492032               0.999999984               0.000586809              -0.000504448               0.999999984               0.000590032              -0.000518482               0.999999984               0.000592995              -0.000532060               0.999999984               0.000594509              -0.000543890               0.999999984               0.000593538              -0.000552534               0.999999984               0.000589276              -0.000556798               0.999999984               0.000581318              -0.000555841               0.999999984               0.000569722              -0.000549355               0.999999984               0.000554870              -0.000537395               0.999999984               0.000537315              -0.000520332               0.999999984               0.000517712              -0.000498937               0.999999984               0.000496926              -0.000474176               0.999999984               0.000602137              -0.000751060               0.999999984               0.000546423              -0.000630700               0.999999984               0.000520470              -0.000593660               0.999999984               0.000510510              -0.000588993               0.999999984               0.000508697              -0.000598384               0.999999984               0.000510167              -0.000613704               0.999999984               0.000512052              -0.000630276               0.999999984               0.000512420              -0.000645920               0.999999984               0.000509800              -0.000658900               0.999999984               0.000503207              -0.000667473               0.999999984               0.000492069              -0.000670876               0.999999984               0.000476348              -0.000668631               0.999999984               0.000456535              -0.000661055               0.999999984               0.000433312              -0.000648696               0.999999984               0.000407552              -0.000632254               0.999999984               0.000379992              -0.000612841               0.999999984               0.000351336              -0.000591502               0.999999984               0.000556035              -0.000857081               0.999999984               0.000476242              -0.000730469               0.999999984               0.000446007              -0.000694542               0.999999984               0.000436897              -0.000692231               0.999999984               0.000436177              -0.000704251               0.999999984               0.000437780              -0.000721943               0.999999984               0.000438205              -0.000740676               0.999999984               0.000435357              -0.000757849               0.999999984               0.000427776              -0.000771146               0.999999984               0.000414678              -0.000779130               0.999999984               0.000395783              -0.000781473               0.999999984               0.000371596              -0.000778180               0.999999984               0.000342950              -0.000770116               0.999999984               0.000310824              -0.000758141               0.999999984               0.000276150              -0.000743250               0.999999984               0.000239806              -0.000726423               0.999999984               0.000202515              -0.000708451               0.999999984               0.000506012              -0.000953853               0.999999984               0.000405042              -0.000828403               0.999999984               0.000375363              -0.000793938               0.999999984               0.000368824              -0.000793471               0.999999984               0.000369967              -0.000807496               0.999999984               0.000371727              -0.000827177               0.999999984               0.000370213              -0.000847420               0.999999984               0.000363340              -0.000865349               0.999999984               0.000349735              -0.000878418               0.999999984               0.000328848              -0.000885606               0.999999984               0.000300992              -0.000887065               0.999999984               0.000267200              -0.000883437               0.999999984               0.000228594              -0.000875722               0.999999984               0.000186486              -0.000865234               0.999999984               0.000142097              -0.000852892               0.999999984               0.000096667              -0.000839641               0.999999984               0.000050898              -0.000825918               0.999999984               0.000454467              -0.001045050               0.999999984               0.000345929              -0.000937184               0.999999984               0.000313070              -0.000898654               0.999999984               0.000305223              -0.000892532               0.999999984               0.000305888              -0.000901726               0.999999984               0.000308276              -0.000918300               0.999999984               0.000308263              -0.000937543               0.999999984               0.000303803              -0.000956459               0.999999984               0.000293538              -0.000973017               0.999999984               0.000276726              -0.000985550               0.999999984               0.000253174              -0.000993695               0.999999984               0.000223308              -0.000997433               0.999999984               0.000187728              -0.000997508               0.999999984               0.000147536              -0.000994578               0.999999984               0.000103961              -0.000989773               0.999999984               0.000058253              -0.000983646               0.999999984               0.000011920              -0.000977035               0.999999984               0.000398043              -0.001128059               0.999999984               0.000289581              -0.001042319               0.999999984               0.000253755              -0.001005872               0.999999984               0.000243809              -0.000996631               0.999999984               0.000243364              -0.001002441               0.999999984               0.000245524              -0.001016481               0.999999984               0.000246397              -0.001034659               0.999999984               0.000243804              -0.001054133               0.999999984               0.000236251              -0.001073014               0.999999984               0.000223134              -0.001089761               0.999999984               0.000203951              -0.001103445               0.999999984               0.000178318              -0.001113713               0.999999984               0.000146494              -0.001120734               0.999999984               0.000109052              -0.001124913               0.999999984               0.000067056              -0.001127013               0.999999984               0.000021623              -0.001127737               0.999999984              -0.000025759              -0.001127795               0.999999984               0.000337857              -0.001200935               0.999999984               0.000236044              -0.001140643               0.999999984               0.000199056              -0.001110715               0.999999984               0.000187008              -0.001101666               0.999999984               0.000184953              -0.001106016               0.999999984               0.000186229              -0.001118801               0.999999984               0.000187163              -0.001136465               0.999999984               0.000185646              -0.001156665               0.999999984               0.000180232              -0.001177478               0.999999984               0.000170316              -0.001197691               0.999999984               0.000155119              -0.001216108               0.999999984               0.000133880              -0.001232131               0.999999984               0.000106290              -0.001245535               0.999999984               0.000072517              -0.001256349               0.999999984               0.000033034              -0.001264959               0.999999984              -0.000011522              -0.001272124               0.999999984              -0.000059934              -0.001278541               0.999999984               0.000274400              -0.001262412               0.999999984               0.000185322              -0.001228222               0.999999984               0.000149850              -0.001208029               0.999999984               0.000136578              -0.001202193               0.999999984               0.000132861              -0.001207335               0.999999984               0.000132853              -0.001220281               0.999999984               0.000133328              -0.001238369               0.999999984               0.000132300              -0.001259621               0.999999984               0.000128524              -0.001282530               0.999999984               0.000121255              -0.001305871               0.999999984               0.000109593              -0.001328678               0.999999984               0.000092695              -0.001350111               0.999999984               0.000069842              -0.001369655               0.999999984               0.000040624              -0.001387130               0.999999984               0.000004824              -0.001402476               0.999999984              -0.000037802              -0.001416126               0.999999984              -0.000086900              -0.001428711               0.999999984               0.000208224              -0.001311442               0.999999984               0.000136952              -0.001301235               0.999999984               0.000106217              -0.001292250               0.999999984               0.000093414              -0.001291525               0.999999984               0.000088776              -0.001299149               0.999999984               0.000087658              -0.001313527               0.999999984               0.000087479              -0.001332987               0.999999984               0.000086571              -0.001355939               0.999999984               0.000083901              -0.001381228               0.999999984               0.000078771              -0.001407883               0.999999984               0.000070348              -0.001434999               0.999999984               0.000057655              -0.001461780               0.999999984               0.000039913              -0.001487404               0.999999984               0.000016395              -0.001511483               0.999999984              -0.000013928              -0.001533879               0.999999984              -0.000052017              -0.001554527               0.999999984              -0.000098855              -0.001573690               0.999999984               0.000139998              -0.001347136               0.999999984               0.000090361              -0.001356116               0.999999984               0.000067604              -0.001357529               0.999999984               0.000057345              -0.001362459               0.999999984               0.000053086              -0.001373251               0.999999984               0.000051591              -0.001389680               0.999999984               0.000051000              -0.001410855               0.999999984               0.000050202              -0.001435768               0.999999984               0.000048414              -0.001463413               0.999999984               0.000045060              -0.001493068               0.999999984               0.000039487              -0.001524149               0.999999984               0.000031048              -0.001555775               0.999999984               0.000019002              -0.001587118               0.999999984               0.000002434              -0.001617536               0.999999984              -0.000019904              -0.001646791               0.999999984              -0.000049435              -0.001674445               0.999999984              -0.000087868              -0.001700234               0.999999984               0.000070370              -0.001368864               0.999999984               0.000044908              -0.001390202               0.999999984               0.000032791              -0.001398847               0.999999984               0.000027053              -0.001408078               0.999999984               0.000024495              -0.001421529               0.999999984               0.000023433              -0.001439790               0.999999984               0.000022947              -0.001462444               0.999999984               0.000022494              -0.001488841               0.999999984               0.000021603              -0.001518287               0.999999984               0.000019818              -0.001550179               0.999999984               0.000016969              -0.001583966               0.999999984               0.000012866              -0.001619017               0.999999984               0.000006836              -0.001654676               0.999999984              -0.000001692              -0.001690152               0.999999984              -0.000013509              -0.001724915               0.999999984              -0.000029902              -0.001758324               0.999999984              -0.000052267              -0.001789596               0.999999984               0.000000000              -0.001376172               0.999999984               0.000000000              -0.001401779               0.999999984              -0.000000000              -0.001413030               0.999999984              -0.000000000              -0.001423868               0.999999984               0.000000000              -0.001438275               0.999999984              -0.000000000              -0.001457176               0.999999984              -0.000000000              -0.001480392               0.999999984              -0.000000000              -0.001507402               0.999999984              -0.000000000              -0.001537603               0.999999984              -0.000000000              -0.001570336               0.999999984               0.000000000              -0.001605130               0.999999984               0.000000000              -0.001641398               0.999999984              -0.000000000              -0.001678595               0.999999984               0.000000000              -0.001716026               0.999999984               0.000000000              -0.001753131               0.999999984               0.000000000              -0.001789034               0.999999984              -0.000000000              -0.001822508               0.999999984               0.000740080               0.000000000               0.999999984               0.000791548               0.000000000               0.999999984               0.000814007               0.000000000               0.999999984               0.000826317              -0.000000000               0.999999984               0.000835674               0.000000000               0.999999984               0.000844976              -0.000000000               0.999999984               0.000855210              -0.000000000               0.999999984               0.000866590              -0.000000000               0.999999984               0.000879020               0.000000000               0.999999984               0.000892434               0.000000000               0.999999984               0.000906641               0.000000000               0.999999984               0.000921358               0.000000000               0.999999984               0.000936143              -0.000000000               0.999999984               0.000950596               0.000000000               0.999999984               0.000964383              -0.000000000               0.999999984               0.000976973              -0.000000000               0.999999984               0.000987767               0.000000000               0.999999984               0.000736182               0.000132742               0.999999984               0.000783758               0.000108057               0.999999984               0.000803702               0.000097040               0.999999984               0.000814497               0.000092928               0.999999984               0.000822827               0.000092575               0.999999984               0.000831388               0.000094179               0.999999984               0.000841071               0.000096683               0.999999984               0.000851987               0.000099467               0.999999984               0.000863959               0.000102138               0.999999984               0.000876804               0.000104550               0.999999984               0.000890276               0.000106298               0.999999984               0.000904050               0.000106860               0.999999984               0.000917683               0.000105882               0.999999984               0.000930750               0.000102936               0.999999984               0.000942925               0.000097800               0.999999984               0.000953694               0.000089496               0.999999984               0.000962368               0.000076947               0.999999984               0.000724217               0.000264244               0.999999984               0.000760491               0.000215376               0.999999984               0.000773521               0.000194580               0.999999984               0.000780201               0.000187282               0.999999984               0.000786024               0.000187204               0.999999984               0.000792953               0.000190821               0.999999984               0.000801306               0.000195995               0.999999984               0.000810891               0.000201620               0.999999984               0.000821306               0.000206969               0.999999984               0.000832196               0.000211554               0.999999984               0.000843165               0.000214803               0.999999984               0.000853819               0.000215674               0.999999984               0.000863704               0.000213545               0.999999984               0.000872327               0.000207952               0.999999984               0.000879317               0.000198036               0.999999984               0.000884281               0.000182368               0.999999984               0.000886952               0.000159431               0.999999984               0.000704408               0.000393085               0.999999984               0.000722969               0.000321462               0.999999984               0.000726050               0.000292855               0.999999984               0.000727105               0.000284073               0.999999984               0.000729750               0.000285298               0.999999984               0.000734539               0.000291526               0.999999984               0.000741109               0.000299699               0.999999984               0.000748748               0.000308194               0.999999984               0.000756731               0.000315982               0.999999984               0.000764558               0.000322445               0.999999984               0.000771730               0.000326632               0.999999984               0.000777594               0.000327425               0.999999984               0.000781609               0.000323917               0.999999984               0.000783400               0.000315501               0.999999984               0.000782747               0.000301428               0.999999984               0.000779617               0.000280799               0.999999984               0.000774380               0.000252714               0.999999984               0.000677147               0.000517918               0.999999984               0.000672942               0.000426098               0.999999984               0.000664886               0.000392192               0.999999984               0.000660521               0.000383691               0.999999984               0.000660434               0.000387220               0.999999984               0.000663460               0.000396443               0.999999984               0.000668283               0.000407633               0.999999984               0.000673648               0.000418778               0.999999984               0.000678647               0.000428801               0.999999984               0.000682523               0.000436646               0.999999984               0.000684464               0.000441303               0.999999984               0.000683857               0.000441425               0.999999984               0.000680387               0.000436324               0.999999984               0.000673930               0.000425681               0.999999984               0.000664725               0.000409172               0.999999984               0.000653177               0.000386856               0.999999984               0.000639975               0.000358960               0.999999984               0.000642789               0.000637622               0.999999984               0.000613010               0.000529215               0.999999984               0.000594796               0.000492623               0.999999984               0.000586571               0.000485632               0.999999984               0.000584907               0.000492032               0.999999984               0.000586809               0.000504448               0.999999984               0.000590032               0.000518482               0.999999984               0.000592995               0.000532060               0.999999984               0.000594509               0.000543890               0.999999984               0.000593538               0.000552534               0.999999984               0.000589276               0.000556798               0.999999984               0.000581318               0.000555841               0.999999984               0.000569722               0.000549355               0.999999984               0.000554870               0.000537395               0.999999984               0.000537315               0.000520332               0.999999984               0.000517712               0.000498937               0.999999984               0.000496926               0.000474176               0.999999984               0.000602137               0.000751060               0.999999984               0.000546423               0.000630700               0.999999984               0.000520470               0.000593660               0.999999984               0.000510510               0.000588993               0.999999984               0.000508697               0.000598384               0.999999984               0.000510167               0.000613704               0.999999984               0.000512052               0.000630276               0.999999984               0.000512420               0.000645920               0.999999984               0.000509800               0.000658900               0.999999984               0.000503207               0.000667473               0.999999984               0.000492069               0.000670876               0.999999984               0.000476348               0.000668631               0.999999984               0.000456535               0.000661055               0.999999984               0.000433312               0.000648696               0.999999984               0.000407552               0.000632254               0.999999984               0.000379992               0.000612841               0.999999984               0.000351336               0.000591502               0.999999984               0.000556035               0.000857081               0.999999984               0.000476242               0.000730469               0.999999984               0.000446007               0.000694542               0.999999984               0.000436897               0.000692231               0.999999984               0.000436177               0.000704251               0.999999984               0.000437780               0.000721943               0.999999984               0.000438205               0.000740676               0.999999984               0.000435357               0.000757849               0.999999984               0.000427776               0.000771146               0.999999984               0.000414678               0.000779130               0.999999984               0.000395783               0.000781473               0.999999984               0.000371596               0.000778180               0.999999984               0.000342950               0.000770116               0.999999984               0.000310824               0.000758141               0.999999984               0.000276150               0.000743250               0.999999984               0.000239806               0.000726423               0.999999984               0.000202515               0.000708451               0.999999984               0.000506012               0.000953853               0.999999984               0.000405042               0.000828403               0.999999984               0.000375363               0.000793938               0.999999984               0.000368824               0.000793471               0.999999984               0.000369967               0.000807496               0.999999984               0.000371727               0.000827177               0.999999984               0.000370213               0.000847420               0.999999984               0.000363340               0.000865349               0.999999984               0.000349735               0.000878418               0.999999984               0.000328848               0.000885606               0.999999984               0.000300992               0.000887065               0.999999984               0.000267200               0.000883437               0.999999984               0.000228594               0.000875722               0.999999984               0.000186486               0.000865234               0.999999984               0.000142097               0.000852892               0.999999984               0.000096667               0.000839641               0.999999984               0.000050898               0.000825918               0.999999984               0.000454467               0.001045050               0.999999984               0.000345929               0.000937184               0.999999984               0.000313070               0.000898654               0.999999984               0.000305223               0.000892532               0.999999984               0.000305888               0.000901726               0.999999984               0.000308276               0.000918300               0.999999984               0.000308263               0.000937543               0.999999984               0.000303803               0.000956459               0.999999984               0.000293538               0.000973017               0.999999984               0.000276726               0.000985550               0.999999984               0.000253174               0.000993695               0.999999984               0.000223308               0.000997433               0.999999984               0.000187728               0.000997508               0.999999984               0.000147536               0.000994578               0.999999984               0.000103961               0.000989773               0.999999984               0.000058253               0.000983646               0.999999984               0.000011920               0.000977035               0.999999984               0.000398043               0.001128059               0.999999984               0.000289581               0.001042319               0.999999984               0.000253755               0.001005872               0.999999984               0.000243809               0.000996631               0.999999984               0.000243364               0.001002441               0.999999984               0.000245524               0.001016481               0.999999984               0.000246397               0.001034659               0.999999984               0.000243804               0.001054133               0.999999984               0.000236251               0.001073014               0.999999984               0.000223134               0.001089761               0.999999984               0.000203951               0.001103445               0.999999984               0.000178318               0.001113713               0.999999984               0.000146494               0.001120734               0.999999984               0.000109052               0.001124913               0.999999984               0.000067056               0.001127013               0.999999984               0.000021623               0.001127737               0.999999984              -0.000025759               0.001127795               0.999999984               0.000337857               0.001200935               0.999999984               0.000236044               0.001140643               0.999999984               0.000199056               0.001110715               0.999999984               0.000187008               0.001101666               0.999999984               0.000184953               0.001106016               0.999999984               0.000186229               0.001118801               0.999999984               0.000187163               0.001136465               0.999999984               0.000185646               0.001156665               0.999999984               0.000180232               0.001177478               0.999999984               0.000170316               0.001197691               0.999999984               0.000155119               0.001216108               0.999999984               0.000133880               0.001232131               0.999999984               0.000106290               0.001245535               0.999999984               0.000072517               0.001256349               0.999999984               0.000033034               0.001264959               0.999999984              -0.000011522               0.001272124               0.999999984              -0.000059934               0.001278541               0.999999984               0.000274400               0.001262412               0.999999984               0.000185322               0.001228222               0.999999984               0.000149850               0.001208029               0.999999984               0.000136578               0.001202193               0.999999984               0.000132861               0.001207335               0.999999984               0.000132853               0.001220281               0.999999984               0.000133328               0.001238369               0.999999984               0.000132300               0.001259621               0.999999984               0.000128524               0.001282530               0.999999984               0.000121255               0.001305871               0.999999984               0.000109593               0.001328678               0.999999984               0.000092695               0.001350111               0.999999984               0.000069842               0.001369655               0.999999984               0.000040624               0.001387130               0.999999984               0.000004824               0.001402476               0.999999984              -0.000037802               0.001416126               0.999999984              -0.000086900               0.001428711               0.999999984               0.000208224               0.001311442               0.999999984               0.000136952               0.001301235               0.999999984               0.000106217               0.001292250               0.999999984               0.000093414               0.001291525               0.999999984               0.000088776               0.001299149               0.999999984               0.000087658               0.001313527               0.999999984               0.000087479               0.001332987               0.999999984               0.000086571               0.001355939               0.999999984               0.000083901               0.001381228               0.999999984               0.000078771               0.001407883               0.999999984               0.000070348               0.001434999               0.999999984               0.000057655               0.001461780               0.999999984               0.000039913               0.001487404               0.999999984               0.000016395               0.001511483               0.999999984              -0.000013928               0.001533879               0.999999984              -0.000052017               0.001554527               0.999999984              -0.000098855               0.001573690               0.999999984               0.000139998               0.001347136               0.999999984               0.000090361               0.001356116               0.999999984               0.000067604               0.001357529               0.999999984               0.000057345               0.001362459               0.999999984               0.000053086               0.001373251               0.999999984               0.000051591               0.001389680               0.999999984               0.000051000               0.001410855               0.999999984               0.000050202               0.001435768               0.999999984               0.000048414               0.001463413               0.999999984               0.000045060               0.001493068               0.999999984               0.000039487               0.001524149               0.999999984               0.000031048               0.001555775               0.999999984               0.000019002               0.001587118               0.999999984               0.000002434               0.001617536               0.999999984              -0.000019904               0.001646791               0.999999984              -0.000049435               0.001674445               0.999999984              -0.000087868               0.001700234               0.999999984               0.000070370               0.001368864               0.999999984               0.000044908               0.001390202               0.999999984               0.000032791               0.001398847               0.999999984               0.000027053               0.001408078               0.999999984               0.000024495               0.001421529               0.999999984               0.000023433               0.001439790               0.999999984               0.000022947               0.001462444               0.999999984               0.000022494               0.001488841               0.999999984               0.000021603               0.001518287               0.999999984               0.000019818               0.001550179               0.999999984               0.000016969               0.001583966               0.999999984               0.000012866               0.001619017               0.999999984               0.000006836               0.001654676               0.999999984              -0.000001692               0.001690152               0.999999984              -0.000013509               0.001724915               0.999999984              -0.000029902               0.001758324               0.999999984              -0.000052267               0.001789596               0.999999984              -0.000000000               0.001376172               0.999999984              -0.000000000               0.001401779               0.999999984               0.000000000               0.001413030               0.999999984              -0.000000000               0.001423868               0.999999984              -0.000000000               0.001438275               0.999999984               0.000000000               0.001457176               0.999999984              -0.000000000               0.001480392               0.999999984              -0.000000000               0.001507402               0.999999984               0.000000000               0.001537603               0.999999984              -0.000000000               0.001570336               0.999999984               0.000000000               0.001605130               0.999999984               0.000000000               0.001641398               0.999999984               0.000000000               0.001678595               0.999999984               0.000000000               0.001716026               0.999999984               0.000000000               0.001753131               0.999999984               0.000000000               0.001789034               0.999999984              -0.000000000               0.001822508               0.999999984 </DataArray>
<DataArray type="Float64"                                    Name="defo"                                                      NumberOfComponents=" 3" format="ascii">
             -0.000740080               0.000000000               0.999999984              -0.000791548              -0.000000000               0.999999984              -0.000814007               0.000000000               0.999999984              -0.000826317               0.000000000               0.999999984              -0.000835674              -0.000000000               0.999999984              -0.000844976              -0.000000000               0.999999984              -0.000855210               0.000000000               0.999999984              -0.000866590               0.000000000               0.999999984              -0.000879020              -0.000000000               0.999999984              -0.000892434               0.000000000               0.999999984              -0.000906641               0.000000000               0.999999984              -0.000921358               0.000000000               0.999999984              -0.000936143               0.000000000               0.999999984              -0.000950596               0.000000000               0.999999984              -0.000964383               0.000000000               0.999999984              -0.000976973              -0.000000000               0.999999984              -0.000987767               0.000000000               0.999999984              -0.000736182               0.000132742               0.999999984              -0.000783758               0.000108057               0.999999984              -0.000803702               0.000097040               0.999999984              -0.000814497               0.000092928               0.999999984              -0.000822827               0.000092575               0.999999984              -0.000831388               0.000094179               0.999999984              -0.000841071               0.000096683               0.999999984              -0.000851987               0.000099467               0.999999984              -0.000863959               0.000102138               0.999999984              -0.000876804               0.000104550               0.999999984              -0.000890276               0.000106298               0.999999984              -0.000904050               0.000106860               0.999999984              -0.000917683               0.000105882               0.999999984              -0.000930750               0.000102936               0.999999984              -0.000942925               0.000097800               0.999999984              -0.000953694               0.000089496               0.999999984              -0.000962368               0.000076947               0.999999984              -0.000724217               0.000264244               0.999999984              -0.000760491               0.000215376               0.999999984              -0.000773521               0.000194580               0.999999984              -0.000780201               0.000187282               0.999999984              -0.000786024               0.000187204               0.999999984              -0.000792953               0.000190821               0.999999984              -0.000801306               0.000195995               0.999999984              -0.000810891               0.000201620               0.999999984              -0.000821306               0.000206969               0.999999984              -0.000832196               0.000211554               0.999999984              -0.000843165               0.000214803               0.999999984              -0.000853819               0.000215674               0.999999984              -0.000863704               0.000213545               0.999999984              -0.000872327               0.000207952               0.999999984              -0.000879317               0.000198036               0.999999984              -0.000884281               0.000182368               0.999999984              -0.000886952               0.000159431               0.999999984              -0.000704408               0.000393085               0.999999984              -0.000722969               0.000321462               0.999999984              -0.000726050               0.000292855               0.999999984              -0.000727105               0.000284073               0.999999984              -0.000729750               0.000285298               0.999999984              -0.000734539               0.000291526               0.999999984              -0.000741109               0.000299699               0.999999984              -0.000748748               0.000308194               0.999999984              -0.000756731               0.000315982               0.999999984              -0.000764558               0.000322445               0.999999984              -0.000771730               0.000326632               0.999999984              -0.000777594               0.000327425               0.999999984              -0.000781609               0.000323917               0.999999984              -0.000783400               0.000315501               0.999999984              -0.000782747               0.000301428               0.999999984              -0.000779617               0.000280799               0.999999984              -0.000774380               0.000252714               0.999999984              -0.000677147               0.000517918               0.999999984              -0.000672942               0.000426098               0.999999984              -0.000664886               0.000392192               0.999999984              -0.000660521               0.000383691               0.999999984              -0.000660434               0.000387220               0.999999984              -0.000663460               0.000396443               0.999999984              -0.000668283               0.000407633               0.999999984              -0.000673648               0.000418778               0.999999984              -0.000678647               0.000428801               0.999999984              -0.000682523               0.000436646               0.999999984              -0.000684464               0.000441303               0.999999984              -0.000683857               0.000441425               0.999999984              -0.000680387               0.000436324               0.999999984              -0.000673930               0.000425681               0.999999984              -0.000664725               0.000409172               0.999999984              -0.000653177               0.000386856               0.999999984              -0.000639975               0.000358960               0.999999984              -0.000642789               0.000637622               0.999999984              -0.000613010               0.000529215               0.999999984              -0.000594796               0.000492623               0.999999984              -0.000586571               0.000485632               0.999999984              -0.000584907               0.000492032               0.999999984              -0.000586809               0.000504448               0.999999984              -0.000590032               0.000518482               0.999999984              -0.000592995               0.000532060               0.999999984              -0.000594509               0.000543890               0.999999984              -0.000593538               0.000552534               0.999999984              -0.000589276               0.000556798               0.999999984              -0.000581318               0.000555841               0.999999984              -0.000569722               0.000549355               0.999999984              -0.000554870               0.000537395               0.999999984              -0.000537315               0.000520332               0.999999984              -0.000517712               0.000498937               0.999999984              -0.000496926               0.000474176               0.999999984              -0.000602137               0.000751060               0.999999984              -0.000546423               0.000630700               0.999999984              -0.000520470               0.000593660               0.999999984              -0.000510510               0.000588993               0.999999984              -0.000508697               0.000598384               0.999999984              -0.000510167               0.000613704               0.999999984              -0.000512052               0.000630276               0.999999984              -0.000512420               0.000645920               0.999999984              -0.000509800               0.000658900               0.999999984              -0.000503207               0.000667473               0.999999984              -0.000492069               0.000670876               0.999999984              -0.000476348               0.000668631               0.999999984              -0.000456535               0.000661055               0.999999984              -0.000433312               0.000648696               0.999999984              -0.000407552               0.000632254               0.999999984              -0.000379992               0.000612841               0.999999984              -0.000351336               0.000591502               0.999999984              -0.000556035               0.000857081               0.999999984              -0.000476242               0.000730469               0.999999984              -0.000446007               0.000694542               0.999999984              -0.000436897               0.000692231               0.999999984              -0.000436177               0.000704251               0.999999984              -0.000437780               0.000721943               0.999999984              -0.000438205               0.000740676               0.999999984              -0.000435357               0.000757849               0.999999984              -0.000427776               0.000771146               0.999999984              -0.000414678               0.000779130               0.999999984              -0.000395783               0.000781473               0.999999984              -0.000371596               0.000778180               0.999999984              -0.000342950               0.000770116               0.999999984              -0.000310824               0.000758141               0.999999984              -0.000276150               0.000743250               0.999999984              -0.000239806               0.000726423               0.999999984              -0.000202515               0.000708451               0.999999984              -0.000506012               0.000953853               0.999999984              -0.000405042               0.000828403               0.999999984              -0.000375363               0.000793938               0.999999984              -0.000368824               0.000793471               0.999999984              -0.000369967               0.000807496               0.999999984              -0.000371727               0.000827177               0.999999984              -0.000370213               0.000847420               0.999999984              -0.000363340               0.000865349               0.999999984              -0.000349735               0.000878418               0.999999984              -0.000328848               0.000885606               0.999999984              -0.000300992               0.000887065               0.999999984              -0.000267200               0.000883437               0.999999984              -0.000228594               0.000875722               0.999999984              -0.000186486               0.000865234               0.999999984              -0.000142097               0.000852892               0.999999984              -0.000096667               0.000839641               0.999999984              -0.000050898               0.000825918               0.999999984              -0.000454467               0.001045050               0.999999984              -0.000345929               0.000937184               0.999999984              -0.000313070               0.000898654               0.999999984              -0.000305223               0.000892532               0.999999984              -0.000305888               0.000901726               0.999999984              -0.000308276               0.000918300               0.999999984              -0.000308263               0.000937543               0.999999984              -0.000303803               0.000956459               0.999999984              -0.000293538               0.000973017               0.999999984              -0.000276726               0.000985550               0.999999984              -0.000253174               0.000993695               0.999999984              -0.000223308               0.000997433               0.999999984              -0.000187728               0.000997508               0.999999984              -0.000147536               0.000994578               0.999999984              -0.000103961               0.000989773               0.999999984              -0.000058253               0.000983646               0.999999984              -0.000011920               0.000977035               0.999999984              -0.000398043               0.001128059               0.999999984              -0.000289581               0.001042319               0.999999984              -0.000253755               0.001005872               0.999999984              -0.000243809               0.000996631               0.999999984              -0.000243364               0.001002441               0.999999984              -0.000245524               0.001016481               0.999999984              -0.000246397               0.001034659               0.999999984              -0.000243804               0.001054133               0.999999984              -0.000236251               0.001073014               0.999999984              -0.000223134               0.001089761               0.999999984              -0.000203951               0.001103445               0.999999984              -0.000178318               0.001113713               0.999999984              -0.000146494               0.001120734               0.999999984              -0.000109052               0.001124913               0.999999984              -0.000067056               0.001127013               0.999999984              -0.000021623               0.001127737               0.999999984               0.000025759               0.001127795               0.999999984              -0.000337857               0.001200935               0.999999984              -0.000236044               0.001140643               0.999999984              -0.000199056               0.001110715               0.999999984              -0.000187008               0.001101666               0.999999984              -0.000184953               0.001106016               0.999999984              -0.000186229               0.001118801               0.999999984              -0.000187163               0.001136465               0.999999984              -0.000185646               0.001156665               0.999999984              -0.000180232               0.001177478               0.999999984              -0.000170316               0.001197691               0.999999984              -0.000155119               0.001216108               0.999999984              -0.000133880               0.001232131               0.999999984              -0.000106290               0.001245535               0.999999984              -0.000072517               0.001256349               0.999999984              -0.000033034               0.001264959               0.999999984               0.000011522               0.001272124               0.999999984               0.000059934               0.001278541               0.999999984              -0.000274400               0.001262412               0.999999984              -0.000185322               0.001228222               0.999999984              -0.000149850               0.001208029               0.999999984              -0.000136578               0.001202193               0.999999984              -0.000132861               0.001207335               0.999999984              -0.000132853               0.001220281               0.999999984              -0.000133328               0.001238369               0.999999984              -0.000132300               0.001259621               0.999999984              -0.000128524               0.001282530               0.999999984              -0.000121255               0.001305871               0.999999984              -0.000109593               0.001328678               0.999999984              -0.000092695               0.001350111               0.999999984              -0.000069842               0.001369655               0.999999984              -0.000040624               0.001387130               0.999999984              -0.000004824               0.001402476               0.999999984               0.000037802               0.001416126               0.999999984               0.000086900               0.001428711               0.999999984              -0.000208224               0.001311442               0.999999984              -0.000136952               0.001301235               0.999999984              -0.000106217               0.001292250               0.999999984              -0.000093414               0.001291525               0.999999984              -0.000088776               0.001299149               0.999999984              -0.000087658               0.001313527               0.999999984              -0.000087479               0.001332987               0.999999984              -0.000086571               0.001355939               0.999999984              -0.000083901               0.001381228               0.999999984              -0.000078771               0.001407883               0.999999984              -0.000070348               0.001434999               0.999999984              -0.000057655               0.001461780               0.999999984              -0.000039913               0.001487404               0.999999984              -0.000016395               0.001511483               0.999999984               0.000013928               0.001533879               0.999999984               0.000052017               0.001554527               0.999999984               0.000098855               0.001573690               0.999999984              -0.000139998               0.001347136               0.999999984              -0.000090361               0.001356116               0.999999984              -0.000067604               0.001357529               0.999999984              -0.000057345               0.001362459               0.999999984              -0.000053086               0.001373251               0.999999984              -0.000051591               0.001389680               0.999999984              -0.000051000               0.001410855               0.999999984              -0.000050202               0.001435768               0.999999984              -0.000048414               0.001463413               0.999999984              -0.000045060               0.001493068               0.999999984              -0.000039487               0.001524149               0.999999984              -0.000031048               0.001555775               0.999999984              -0.000019002               0.001587118               0.999999984              -0.000002434               0.001617536               0.999999984               0.000019904               0.001646791               0.999999984               0.000049435               0.001674445               0.999999984               0.000087868               0.001700234               0.999999984              -0.000070370               0.001368864               0.999999984              -0.000044908               0.001390202               0.999999984              -0.000032791               0.001398847               0.999999984              -0.000027053               0.001408078               0.999999984              -0.000024495               0.001421529               0.999999984              -0.000023433               0.001439790               0.999999984              -0.000022947               0.001462444               0.999999984              -0.000022494               0.001488841               0.999999984              -0.000021603               0.001518287               0.999999984              -0.000019818               0.001550179               0.999999984              -0.000016969               0.001583966               0.999999984              -0.000012866               0.001619017               0.999999984              -0.000006836               0.001654676               0.999999984               0.000001692               0.001690152               0.999999984               0.000013509               0.001724915               0.999999984               0.000029902               0.001758324               0.999999984               0.000052267               0.001789596               0.999999984              -0.000000000               0.001376172               0.999999984              -0.000000000               0.001401779               0.999999984               0.000000000               0.001413030               0.999999984              -0.000000000               0.001423868               0.999999984              -0.000000000               0.001438275               0.999999984               0.000000000               0.001457176               0.999999984              -0.000000000               0.001480392               0.999999984              -0.000000000               0.001507402               0.999999984               0.000000000               0.001537603               0.999999984              -0.000000000               0.001570336               0.999999984               0.000000000               0.001605130               0.999999984               0.000000000               0.001641398               0.999999984               0.000000000               0.001678595               0.999999984               0.000000000               0.001716026               0.999999984               0.000000000               0.001753131               0.999999984               0.000000000               0.001789034               0.999999984              -0.000000000               0.001822508               0.999999984              -0.000740080               0.000000000               0.999999984              -0.000791548              -0.000000000               0.999999984              -0.000814007               0.000000000               0.999999984              -0.000826317               0.000000000               0.999999984              -0.000835674              -0.000000000               0.999999984              -0.000844976              -0.000000000               0.999999984              -0.000855210               0.000000000               0.999999984              -0.000866590               0.000000000               0.999999984              -0.000879020              -0.000000000               0.999999984              -0.000892434               0.000000000               0.999999984              -0.000906641               0.000000000               0.999999984              -0.000921358               0.000000000               0.999999984              -0.000936143               0.000000000               0.999999984              -0.000950596               0.000000000               0.999999984              -0.000964383               0.000000000               0.999999984              -0.000976973              -0.000000000               0.999999984              -0.000987767               0.000000000               0.999999984              -0.000736182              -0.000132742               0.999999984              -0.000783758              -0.000108057               0.999999984              -0.000803702              -0.000097040               0.999999984              -0.000814497              -0.000092928               0.999999984              -0.000822827              -0.000092575               0.999999984              -0.000831388              -0.000094179               0.999999984              -0.000841071              -0.000096683               0.999999984              -0.000851987              -0.000099467               0.999999984              -0.000863959              -0.000102138               0.999999984              -0.000876804              -0.000104550               0.999999984              -0.000890276              -0.000106298               0.999999984              -0.000904050              -0.000106860               0.999999984              -0.000917683              -0.000105882               0.999999984              -0.000930750              -0.000102936               0.999999984              -0.000942925              -0.000097800               0.999999984              -0.000953694              -0.000089496               0.999999984              -0.000962368              -0.000076947               0.999999984              -0.000724217              -0.000264244               0.999999984              -0.000760491              -0.000215376               0.999999984              -0.000773521              -0.000194580               0.999999984              -0.000780201              -0.000187282               0.999999984              -0.000786024              -0.000187204               0.999999984              -0.000792953              -0.000190821               0.999999984              -0.000801306              -0.000195995               0.999999984              -0.000810891              -0.000201620               0.999999984              -0.000821306              -0.000206969               0.999999984              -0.000832196              -0.000211554               0.999999984              -0.000843165              -0.000214803               0.999999984              -0.000853819              -0.000215674               0.999999984              -0.000863704              -0.000213545               0.999999984              -0.000872327              -0.000207952               0.999999984              -0.000879317              -0.000198036               0.999999984              -0.000884281              -0.000182368               0.999999984              -0.000886952              -0.000159431               0.999999984              -0.000704408              -0.000393085               0.999999984              -0.000722969              -0.000321462               0.999999984              -0.000726050              -0.000292855               0.999999984              -0.000727105              -0.000284073               0.999999984              -0.000729750              -0.000285298               0.999999984              -0.000734539              -0.000291526               0.999999984              -0.000741109              -0.000299699               0.999999984              -0.000748748              -0.000308194               0.999999984              -0.000756731              -0.000315982               0.999999984              -0.000764558              -0.000322445               0.999999984              -0.000771730              -0.000326632               0.999999984              -0.000777594              -0.000327425               0.999999984              -0.000781609              -0.000323917               0.999999984              -0.000783400              -0.000315501               0.999999984              -0.000782747              -0.000301428               0.999999984              -0.000779617              -0.000280799               0.999999984              -0.000774380              -0.000252714               0.999999984              -0.000677147              -0.000517918               0.999999984              -0.000672942              -0.000426098               0.999999984              -0.000664886              -0.000392192               0.999999984              -0.000660521              -0.000383691               0.999999984              -0.000660434              -0.000387220               0.999999984              -0.000663460              -0.000396443               0.999999984              -0.000668283              -0.000407633               0.999999984              -0.000673648              -0.000418778               0.999999984              -0.000678647              -0.000428801               0.999999984              -0.000682523              -0.000436646               0.999999984              -0.000684464              -0.000441303               0.999999984              -0.000683857              -0.000441425               0.999999984              -0.000680387              -0.000436324               0.999999984              -0.000673930              -0.000425681               0.999999984              -0.000664725              -0.000409172               0.999999984              -0.000653177              -0.000386856               0.999999984              -0.000639975              -0.000358960               0.999999984              -0.000642789              -0.000637622               0.999999984              -0.000613010              -0.000529215               0.999999984              -0.000594796              -0.000492623               0.999999984              -0.000586571              -0.000485632               0.999999984              -0.000584907              -0.000492032               0.999999984              -0.000586809              -0.000504448               0.999999984              -0.000590032              -0.000518482               0.999999984              -0.000592995              -0.000532060               0.999999984              -0.000594509              -0.000543890               0.999999984              -0.000593538              -0.000552534               0.999999984              -0.000589276              -0.000556798               0.999999984              -0.000581318              -0.000555841               0.999999984              -0.000569722              -0.000549355               0.999999984              -0.000554870              -0.000537395               0.999999984              -0.000537315              -0.000520332               0.999999984              -0.000517712              -0.000498937               0.999999984              -0.000496926              -0.000474176               0.999999984              -0.000602137              -0.000751060               0.999999984              -0.000546423              -0.000630700               0.999999984              -0.000520470              -0.000593660               0.999999984              -0.000510510              -0.000588993               0.999999984              -0.000508697              -0.000598384               0.999999984              -0.000510167              -0.000613704               0.999999984              -0.000512052              -0.000630276               0.999999984              -0.000512420              -0.000645920               0.999999984              -0.000509800              -0.000658900               0.999999984              -0.000503207              -0.000667473               0.999999984              -0.000492069              -0.000670876               0.999999984              -0.000476348              -0.000668631               0.999999984              -0.000456535              -0.000661055               0.999999984              -0.000433312              -0.000648696               0.999999984              -0.000407552              -0.000632254               0.999999984              -0.000379992              -0.000612841               0.999999984              -0.000351336              -0.000591502               0.999999984              -0.000556035              -0.000857081               0.999999984              -0.000476242              -0.000730469               0.999999984              -0.000446007              -0.000694542               0.999999984              -0.000436897              -0.000692231               0.999999984              -0.000436177              -0.000704251               0.999999984              -0.000437780              -0.000721943               0.999999984              -0.000438205              -0.000740676               0.999999984              -0.000435357              -0.000757849               0.999999984              -0.000427776              -0.000771146               0.999999984              -0.000414678              -0.000779130               0.999999984              -0.000395783              -0.000781473               0.999999984              -0.000371596              -0.000778180               0.999999984              -0.000342950              -0.000770116               0.999999984              -0.000310824              -0.000758141               0.999999984              -0.000276150              -0.000743250               0.999999984              -0.000239806              -0.000726423               0.999999984              -0.000202515              -0.000708451               0.999999984              -0.000506012              -0.000953853               0.999999984              -0.000405042              -0.000828403               0.999999984              -0.000375363              -0.000793938               0.999999984              -0.000368824              -0.000793471               0.999999984              -0.000369967              -0.000807496               0.999999984              -0.000371727              -0.000827177               0.999999984              -0.000370213              -0.000847420               0.999999984              -0.000363340              -0.000865349               0.999999984              -0.000349735              -0.000878418               0.999999984              -0.000328848              -0.000885606               0.999999984              -0.000300992              -0.000887065               0.999999984              -0.000267200              -0.000883437               0.999999984              -0.000228594              -0.000875722               0.999999984              -0.000186486              -0.000865234               0.999999984              -0.000142097              -0.000852892               0.999999984              -0.000096667              -0.000839641               0.999999984              -0.000050898              -0.000825918               0.999999984              -0.000454467              -0.001045050               0.999999984              -0.000345929              -0.000937184               0.999999984              -0.000313070              -0.000898654               0.999999984              -0.000305223              -0.000892532               0.999999984              -0.000305888              -0.000901726               0.999999984              -0.000308276              -0.000918300               0.999999984              -0.000308263              -0.000937543               0.999999984              -0.000303803              -0.000956459               0.999999984              -0.000293538              -0.000973017               0.999999984              -0.000276726              -0.000985550               0.999999984              -0.000253174              -0.000993695               0.999999984              -0.000223308              -0.000997433               0.999999984              -0.000187728              -0.000997508               0.999999984              -0.000147536              -0.000994578               0.999999984              -0.000103961              -0.000989773               0.999999984              -0.000058253              -0.000983646               0.999999984              -0.000011920              -0.000977035               0.999999984              -0.000398043              -0.001128059               0.999999984              -0.000289581              -0.001042319               0.999999984              -0.000253755              -0.001005872               0.999999984              -0.000243809              -0.000996631               0.999999984              -0.000243364              -0.001002441               0.999999984              -0.000245524              -0.001016481               0.999999984              -0.000246397              -0.001034659               0.999999984              -0.000243804              -0.001054133               0.999999984              -0.000236251              -0.001073014               0.999999984              -0.000223134              -0.001089761               0.999999984              -0.000203951              -0.001103445               0.999999984              -0.000178318              -0.001113713               0.999999984              -0.000146494              -0.001120734               0.999999984              -0.000109052              -0.001124913               0.999999984              -0.000067056              -0.001127013               0.999999984              -0.000021623              -0.001127737               0.999999984               0.000025759              -0.001127795               0.999999984              -0.000337857              -0.001200935               0.999999984              -0.000236044              -0.001140643               0.999999984              -0.000199056              -0.001110715               0.999999984              -0.000187008              -0.001101666               0.999999984              -0.000184953              -0.001106016               0.999999984              -0.000186229              -0.001118801               0.999999984              -0.000187163              -0.001136465               0.999999984              -0.000185646              -0.001156665               0.999999984              -0.000180232              -0.001177478               0.999999984              -0.000170316              -0.001197691               0.999999984              -0.000155119              -0.001216108               0.999999984              -0.000133880              -0.001232131               0.999999984              -0.000106290              -0.001245535               0.999999984              -0.000072517              -0.001256349               0.999999984              -0.000033034              -0.001264959               0.999999984               0.000011522              -0.001272124               0.999999984               0.000059934              -0.001278541               0.999999984              -0.000274400              -0.001262412               0.999999984              -0.000185322              -0.001228222               0.999999984              -0.000149850              -0.001208029               0.999999984              -0.000136578              -0.001202193               0.999999984              -0.000132861              -0.001207335               0.999999984              -0.000132853              -0.001220281               0.999999984              -0.000133328              -0.001238369               0.999999984              -0.000132300              -0.001259621               0.999999984              -0.000128524              -0.001282530               0.999999984              -0.000121255              -0.001305871               0.999999984              -0.000109593              -0.001328678               0.999999984              -0.000092695              -0.001350111               0.999999984              -0.000069842              -0.001369655               0.999999984              -0.000040624              -0.001387130               0.999999984              -0.000004824              -0.001402476               0.999999984               0.000037802              -0.001416126               0.999999984               0.000086900              -0.001428711               0.999999984              -0.000208224              -0.001311442               0.999999984              -0.000136952              -0.001301235               0.999999984              -0.000106217              -0.001292250               0.999999984              -0.000093414              -0.001291525               0.999999984              -0.000088776              -0.001299149               0.999999984              -0.000087658              -0.001313527               0.999999984              -0.000087479              -0.001332987               0.999999984              -0.000086571              -0.001355939               0.999999984              -0.000083901              -0.001381228               0.999999984              -0.000078771              -0.001407883               0.999999984              -0.000070348              -0.001434999               0.999999984              -0.000057655              -0.001461780               0.999999984              -0.000039913              -0.001487404               0.999999984              -0.000016395              -0.001511483               0.999999984               0.000013928              -0.001533879               0.999999984               0.000052017              -0.001554527               0.999999984               0.000098855              -0.001573690               0.999999984              -0.000139998              -0.001347136               0.999999984              -0.000090361              -0.001356116               0.999999984              -0.000067604              -0.001357529               0.999999984              -0.000057345              -0.001362459               0.999999984              -0.000053086              -0.001373251               0.999999984              -0.000051591              -0.001389680               0.999999984              -0.000051000              -0.001410855               0.999999984              -0.000050202              -0.001435768               0.999999984              -0.000048414              -0.001463413               0.999999984              -0.000045060              -0.001493068               0.999999984              -0.000039487              -0.001524149               0.999999984              -0.000031048              -0.001555775               0.999999984              -0.000019002              -0.001587118               0.999999984              -0.000002434              -0.001617536               0.999999984               0.000019904              -0.001646791               0.999999984               0.000049435              -0.001674445               0.999999984               0.000087868              -0.001700234               0.999999984              -0.000070370              -0.001368864               0.999999984              -0.000044908              -0.001390202               0.999999984              -0.000032791              -0.001398847               0.999999984              -0.000027053              -0.001408078               0.999999984              -0.000024495              -0.001421529               0.999999984              -0.000023433              -0.001439790               0.999999984              -0.000022947              -0.001462444               0.999999984              -0.000022494              -0.001488841               0.999999984              -0.000021603              -0.001518287               0.999999984              -0.000019818              -0.001550179               0.999999984              -0.000016969              -0.001583966               0.999999984              -0.000012866              -0.001619017               0.999999984              -0.000006836              -0.001654676               0.999999984               0.000001692              -0.001690152               0.999999984               0.000013509              -0.001724915               0.999999984               0.000029902              -0.001758324               0.999999984               0.000052267              -0.001789596               0.999999984               0.000000000              -0.001376172               0.999999984               0.000000000              -0.001401779               0.999999984              -0.000000000              -0.001413030               0.999999984              -0.000000000              -0.001423868               0.999999984               0.000000000              -0.001438275               0.999999984              -0.000000000              -0.001457176               0.999999984              -0.000000000              -0.001480392               0.999999984              -0.000000000              -0.001507402               0.999999984              -0.000000000              -0.001537603               0.999999984              -0.000000000              -0.001570336               0.999999984               0.000000000              -0.001605130               0.999999984               0.000000000              -0.001641398               0.999999984              -0.000000000              -0.001678595               0.999999984               0.000000000              -0.001716026               0.999999984               0.000000000              -0.001753131               0.999999984               0.000000000              -0.001789034               0.999999984              -0.000000000              -0.001822508               0.999999984               0.000740080               0.000000000               0.999999984               0.000791548               0.000000000               0.999999984               0.000814007               0.000000000               0.999999984               0.000826317              -0.000000000               0.999999984               0.000835674               0.000000000               0.999999984               0.000844976              -0.000000000               0.999999984               0.000855210              -0.000000000               0.999999984               0.000866590              -0.000000000               0.999999984               0.000879020               0.000000000               0.999999984               0.000892434               0.000000000               0.999999984               0.000906641               0.000000000               0.999999984               0.000921358               0.000000000               0.999999984               0.000936143              -0.000000000               0.999999984               0.000950596               0.000000000               0.999999984               0.000964383              -0.000000000               0.999999984               0.000976973              -0.000000000               0.999999984               0.000987767               0.000000000               0.999999984               0.000736182              -0.000132742               0.999999984               0.000783758              -0.000108057               0.999999984               0.000803702              -0.000097040               0.999999984               0.000814497              -0.000092928               0.999999984               0.000822827              -0.000092575               0.999999984               0.000831388              -0.000094179               0.999999984               0.000841071              -0.000096683               0.999999984               0.000851987              -0.000099467               0.999999984               0.000863959              -0.000102138               0.999999984               0.000876804              -0.000104550               0.999999984               0.000890276              -0.000106298               0.999999984               0.000904050              -0.000106860               0.999999984               0.000917683              -0.000105882               0.999999984               0.000930750              -0.000102936               0.999999984               0.000942925              -0.000097800               0.999999984               0.000953694              -0.000089496               0.999999984               0.000962368              -0.000076947               0.999999984               0.000724217              -0.000264244               0.999999984               0.000760491              -0.000215376               0.999999984               0.000773521              -0.000194580               0.999999984               0.000780201              -0.000187282               0.999999984               0.000786024              -0.000187204               0.999999984               0.000792953              -0.000190821               0.999999984               0.000801306              -0.000195995               0.999999984               0.000810891              -0.000201620               0.999999984               0.000821306              -0.000206969               0.999999984               0.000832196              -0.000211554               0.999999984               0.000843165              -0.000214803               0.999999984               0.000853819              -0.000215674               0.999999984               0.000863704              -0.000213545               0.999999984               0.000872327              -0.000207952               0.999999984               0.000879317              -0.000198036               0.999999984               0.000884281              -0.000182368               0.999999984               0.000886952              -0.000159431               0.999999984               0.000704408              -0.000393085               0.999999984               0.000722969              -0.000321462               0.999999984               0.000726050              -0.000292855               0.999999984               0.000727105              -0.000284073               0.999999984               0.000729750              -0.000285298               0.999999984               0.000734539              -0.000291526               0.999999984               0.000741109              -0.000299699               0.999999984               0.000748748              -0.000308194               0.999999984               0.000756731              -0.000315982               0.999999984               0.000764558              -0.000322445               0.999999984               0.000771730              -0.000326632               0.999999984               0.000777594              -0.000327425               0.999999984               0.000781609              -0.000323917               0.999999984               0.000783400              -0.000315501               0.999999984               0.000782747              -0.000301428               0.999999984               0.000779617              -0.000280799               0.999999984               0.000774380              -0.000252714               0.999999984               0.000677147              -0.000517918               0.999999984               0.000672942              -0.000426098               0.999999984               0.000664886              -0.000392192               0.999999984               0.000660521              -0.000383691               0.999999984               0.000660434              -0.000387220               0.999999984               0.000663460              -0.000396443               0.999999984               0.000668283              -0.000407633               0.999999984               0.000673648              -0.000418778               0.999999984               0.000678647              -0.000428801               0.999999984               0.000682523              -0.000436646               0.999999984               0.000684464              -0.000441303               0.999999984               0.000683857              -0.000441425               0.999999984               0.000680387              -0.000436324               0.999999984               0.000673930              -0.000425681               0.999999984               0.000664725              -0.000409172               0.999999984               0.000653177              -0.000386856               0.999999984               0.000639975              -0.000358960               0.999999984               0.000642789              -0.000637622               0.999999984               0.000613010              -0.000529215               0.999999984               0.000594796              -0.000492623               0.999999984               0.000586571              -0.000485632               0.999999984               0.000584907              -0.000492032               0.999999984               0.000586809              -0.000504448               0.999999984               0.000590032              -0.000518482               0.999999984               0.000592995              -0.000532060               0.999999984               0.000594509              -0.000543890               0.999999984               0.000593538              -0.000552534               0.999999984               0.000589276              -0.000556798               0.999999984               0.000581318              -0.000555841               0.999999984               0.000569722              -0.000549355               0.999999984               0.000554870              -0.000537395               0.999999984               0.000537315              -0.000520332               0.999999984               0.000517712              -0.000498937               0.999999984               0.000496926              -0.000474176               0.999999984               0.000602137              -0.000751060               0.999999984               0.000546423              -0.000630700               0.999999984               0.000520470              -0.000593660               0.999999984               0.000510510              -0.000588993               0.999999984               0.000508697              -0.000598384               0.999999984               0.000510167              -0.000613704               0.999999984               0.000512052              -0.000630276               0.999999984               0.000512420              -0.000645920               0.999999984               0.000509800              -0.000658900               0.999999984               0.000503207              -0.000667473               0.999999984               0.000492069              -0.000670876               0.999999984               0.000476348              -0.000668631               0.999999984               0.000456535              -0.000661055               0.999999984               0.000433312              -0.000648696               0.999999984               0.000407552              -0.000632254               0.999999984               0.000379992              -0.000612841               0.999999984               0.000351336              -0.000591502               0.999999984               0.000556035              -0.000857081               0.999999984               0.000476242              -0.000730469               0.999999984               0.000446007              -0.000694542               0.999999984               0.000436897              -0.000692231               0.999999984               0.000436177              -0.000704251               0.999999984               0.000437780              -0.000721943               0.999999984               0.000438205              -0.000740676               0.999999984               0.000435357              -0.000757849               0.999999984               0.000427776              -0.000771146               0.999999984               0.000414678              -0.000779130               0.999999984               0.000395783              -0.000781473               0.999999984               0.000371596              -0.000778180               0.999999984               0.000342950              -0.000770116               0.999999984               0.000310824              -0.000758141               0.999999984               0.000276150              -0.000743250               0.999999984               0.000239806              -0.000726423               0.999999984               0.000202515              -0.000708451               0.999999984               0.000506012              -0.000953853               0.999999984               0.000405042              -0.000828403               0.999999984               0.000375363              -0.000793938               0.999999984               0.000368824              -0.000793471               0.999999984               0.000369967              -0.000807496               0.999999984               0.000371727              -0.000827177               0.999999984               0.000370213              -0.000847420               0.999999984               0.000363340              -0.000865349               0.999999984               0.000349735              -0.000878418               0.999999984               0.000328848              -0.000885606               0.999999984               0.000300992              -0.000887065               0.999999984               0.000267200              -0.000883437               0.999999984               0.000228594              -0.000875722               0.999999984               0.000186486              -0.000865234               0.999999984               0.000142097              -0.000852892               0.999999984               0.000096667              -0.000839641               0.999999984               0.000050898              -0.000825918               0.999999984               0.000454467              -0.001045050               0.999999984               0.000345929              -0.000937184               0.999999984               0.000313070              -0.000898654               0.999999984               0.000305223              -0.000892532               0.999999984               0.000305888              -0.000901726               0.999999984               0.000308276              -0.000918300               0.999999984               0.000308263              -0.000937543               0.999999984               0.000303803              -0.000956459               0.999999984               0.000293538              -0.000973017               0.999999984               0.000276726              -0.000985550               0.999999984               0.000253174              -0.000993695               0.999999984               0.000223308              -0.000997433               0.999999984               0.000187728              -0.000997508               0.999999984               0.000147536              -0.000994578               0.999999984               0.000103961              -0.000989773               0.999999984               0.000058253              -0.000983646               0.999999984               0.000011920              -0.000977035               0.999999984               0.000398043              -0.001128059               0.999999984               0.000289581              -0.001042319               0.999999984               0.000253755              -0.001005872               0.999999984               0.000243809              -0.000996631               0.999999984               0.000243364              -0.001002441               0.999999984               0.000245524              -0.001016481               0.999999984               0.000246397              -0.001034659               0.999999984               0.000243804              -0.001054133               0.999999984               0.000236251              -0.001073014               0.999999984               0.000223134              -0.001089761               0.999999984               0.000203951              -0.001103445               0.999999984               0.000178318              -0.001113713               0.999999984               0.000146494              -0.001120734               0.999999984               0.000109052              -0.001124913               0.999999984               0.000067056              -0.001127013               0.999999984               0.000021623              -0.001127737               0.999999984              -0.000025759              -0.001127795               0.999999984               0.000337857              -0.001200935               0.999999984               0.000236044              -0.001140643               0.999999984               0.000199056              -0.001110715               0.999999984               0.000187008              -0.001101666               0.999999984               0.000184953              -0.001106016               0.999999984               0.000186229              -0.001118801               0.999999984               0.000187163              -0.001136465               0.999999984               0.000185646              -0.001156665               0.999999984               0.000180232              -0.001177478               0.999999984               0.000170316              -0.001197691               0.999999984               0.000155119              -0.001216108               0.999999984               0.000133880              -0.001232131               0.999999984               0.000106290              -0.001245535               0.999999984               0.000072517              -0.001256349               0.999999984               0.000033034              -0.001264959               0.999999984              -0.000011522              -0.001272124               0.999999984              -0.000059934              -0.001278541               0.999999984               0.000274400              -0.001262412               0.999999984               0.000185322              -0.001228222               0.999999984               0.000149850              -0.001208029               0.999999984               0.000136578              -0.001202193               0.999999984               0.000132861              -0.001207335               0.999999984               0.000132853              -0.001220281               0.999999984               0.000133328              -0.001238369               0.999999984               0.000132300              -0.001259621               0.999999984               0.000128524              -0.001282530               0.999999984               0.000121255              -0.001305871               0.999999984               0.000109593              -0.001328678               0.999999984               0.000092695              -0.001350111               0.999999984               0.000069842              -0.001369655               0.999999984               0.000040624              -0.001387130               0.999999984               0.000004824              -0.001402476               0.999999984              -0.000037802              -0.001416126               0.999999984              -0.000086900              -0.001428711               0.999999984               0.000208224              -0.001311442               0.999999984               0.000136952              -0.001301235               0.999999984               0.000106217              -0.001292250               0.999999984               0.000093414              -0.001291525               0.999999984               0.000088776              -0.001299149               0.999999984               0.000087658              -0.001313527               0.999999984               0.000087479              -0.001332987               0.999999984               0.000086571              -0.001355939               0.999999984               0.000083901              -0.001381228               0.999999984               0.000078771              -0.001407883               0.999999984               0.000070348              -0.001434999               0.999999984               0.000057655              -0.001461780               0.999999984               0.000039913              -0.001487404               0.999999984               0.000016395              -0.001511483               0.999999984              -0.000013928              -0.001533879               0.999999984              -0.000052017              -0.001554527               0.999999984              -0.000098855              -0.001573690               0.999999984               0.000139998              -0.001347136               0.999999984               0.000090361              -0.001356116               0.999999984               0.000067604              -0.001357529               0.999999984               0.000057345              -0.001362459               0.999999984               0.000053086              -0.001373251               0.999999984               0.000051591              -0.001389680               0.999999984               0.000051000              -0.001410855               0.999999984               0.000050202              -0.001435768               0.999999984               0.000048414              -0.001463413               0.999999984               0.000045060              -0.001493068               0.999999984               0.000039487              -0.001524149               0.999999984               0.000031048              -0.001555775               0.999999984               0.000019002              -0.001587118               0.999999984               0.000002434              -0.001617536               0.999999984              -0.000019904              -0.001646791               0.999999984              -0.000049435              -0.001674445               0.999999984              -0.000087868              -0.001700234               0.999999984               0.000070370              -0.001368864               0.999999984               0.000044908              -0.001390202               0.999999984               0.000032791              -0.001398847               0.999999984               0.000027053              -0.001408078               0.999999984               0.000024495              -0.001421529               0.999999984               0.000023433              -0.001439790               0.999999984               0.000022947              -0.001462444               0.999999984               0.000022494              -0.001488841               0.999999984               0.000021603              -0.001518287               0.999999984               0.000019818              -0.001550179               0.999999984               0.000016969              -0.001583966               0.999999984               0.000012866              -0.001619017               0.999999984               0.000006836              -0.001654676               0.999999984              -0.000001692              -0.001690152               0.999999984              -0.000013509              -0.001724915               0.999999984              -0.000029902              -0.001758324               0.999999984              -0.000052267              -0.001789596               0.999999984               0.000000000              -0.001376172               0.999999984               0.000000000              -0.001401779               0.999999984              -0.000000000              -0.001413030               0.999999984              -0.000000000              -0.001423868               0.999999984               0.000000000              -0.001438275               0.999999984              -0.000000000              -0.001457176               0.999999984              -0.000000000              -0.001480392               0.999999984              -0.000000000              -0.001507402               0.999999984              -0.000000000              -0.001537603               0.999999984              -0.000000000              -0.001570336               0.999999984               0.000000000              -0.001605130               0.999999984               0.000000000              -0.001641398               0.999999984              -0.000000000              -0.001678595               0.999999984               0.000000000              -0.001716026               0.999999984               0.000000000              -0.001753131               0.999999984               0.000000000              -0.001789034               0.999999984              -0.000000000              -0.001822508               0.999999984               0.000740080               0.000000000               0.999999984               0.000791548               0.000000000               0.999999984               0.000814007               0.000000000               0.999999984               0.000826317              -0.000000000               0.999999984               0.000835674               0.000000000               0.999999984               0.000844976              -0.000000000               0.999999984               0.000855210              -0.000000000               0.999999984               0.000866590              -0.000000000               0.999999984               0.000879020               0.000000000               0.999999984               0.000892434               0.000000000               0.999999984               0.000906641               0.000000000               0.999999984               0.000921358               0.000000000               0.999999984               0.000936143              -0.000000000               0.999999984               0.000950596               0.000000000               0.999999984               0.000964383              -0.000000000               0.999999984               0.000976973              -0.000000000               0.999999984               0.000987767               0.000000000               0.999999984               0.000736182               0.000132742               0.999999984               0.000783758               0.000108057               0.999999984               0.000803702               0.000097040               0.999999984               0.000814497               0.000092928               0.999999984               0.000822827               0.000092575               0.999999984               0.000831388               0.000094179               0.999999984               0.000841071               0.000096683               0.999999984               0.000851987               0.000099467               0.999999984               0.000863959               0.000102138               0.999999984               0.000876804               0.000104550               0.999999984               0.000890276               0.000106298               0.999999984               0.000904050               0.000106860               0.999999984               0.000917683               0.000105882               0.999999984               0.000930750               0.000102936               0.999999984               0.000942925               0.000097800               0.999999984               0.000953694               0.000089496               0.999999984               0.000962368               0.000076947               0.999999984               0.000724217               0.000264244               0.999999984               0.000760491               0.000215376               0.999999984               0.000773521               0.000194580               0.999999984               0.000780201               0.000187282               0.999999984               0.000786024               0.000187204               0.999999984               0.000792953               0.000190821               0.999999984               0.000801306               0.000195995               0.999999984               0.000810891               0.000201620               0.999999984               0.000821306               0.000206969               0.999999984               0.000832196               0.000211554               0.999999984               0.000843165               0.000214803               0.999999984               0.000853819               0.000215674               0.999999984               0.000863704               0.000213545               0.999999984               0.000872327               0.000207952               0.999999984               0.000879317               0.000198036               0.999999984               0.000884281               0.000182368               0.999999984               0.000886952               0.000159431               0.999999984               0.000704408               0.000393085               0.999999984               0.000722969               0.000321462               0.999999984               0.000726050               0.000292855               0.999999984               0.000727105               0.000284073               0.999999984               0.000729750               0.000285298               0.999999984               0.000734539               0.000291526               0.999999984               0.000741109               0.000299699               0.999999984               0.000748748               0.000308194               0.999999984               0.000756731               0.000315982               0.999999984               0.000764558               0.000322445               0.999999984               0.000771730               0.000326632               0.999999984               0.000777594               0.000327425               0.999999984               0.000781609               0.000323917               0.999999984               0.000783400               0.000315501               0.999999984               0.000782747               0.000301428               0.999999984               0.000779617               0.000280799               0.999999984               0.000774380               0.000252714               0.999999984               0.000677147               0.000517918               0.999999984               0.000672942               0.000426098               0.999999984               0.000664886               0.000392192               0.999999984               0.000660521               0.000383691               0.999999984               0.000660434               0.000387220               0.999999984               0.000663460               0.000396443               0.999999984               0.000668283               0.000407633               0.999999984               0.000673648               0.000418778               0.999999984               0.000678647               0.000428801               0.999999984               0.000682523               0.000436646               0.999999984               0.000684464               0.000441303               0.999999984               0.000683857               0.000441425               0.999999984               0.000680387               0.000436324               0.999999984               0.000673930               0.000425681               0.999999984               0.000664725               0.000409172               0.999999984               0.000653177               0.000386856               0.999999984               0.000639975               0.000358960               0.999999984               0.000642789               0.000637622               0.999999984               0.000613010               0.000529215               0.999999984               0.000594796               0.000492623               0.999999984               0.000586571               0.000485632               0.999999984               0.000584907               0.000492032               0.999999984               0.000586809               0.000504448               0.999999984               0.000590032               0.000518482               0.999999984               0.000592995               0.000532060               0.999999984               0.000594509               0.000543890               0.999999984               0.000593538               0.000552534               0.999999984               0.000589276               0.000556798               0.999999984               0.000581318               0.000555841               0.999999984               0.000569722               0.000549355               0.999999984               0.000554870               0.000537395               0.999999984               0.000537315               0.000520332               0.999999984               0.000517712               0.000498937               0.999999984               0.000496926               0.000474176               0.999999984               0.000602137               0.000751060               0.999999984               0.000546423               0.000630700               0.999999984               0.000520470               0.000593660               0.999999984               0.000510510               0.000588993               0.999999984               0.000508697               0.000598384               0.999999984               0.000510167               0.000613704               0.999999984               0.000512052               0.000630276               0.999999984               0.000512420               0.000645920               0.999999984               0.000509800               0.000658900               0.999999984               0.000503207               0.000667473               0.999999984               0.000492069               0.000670876               0.999999984               0.000476348               0.000668631               0.999999984               0.000456535               0.000661055               0.999999984               0.000433312               0.000648696               0.999999984               0.000407552               0.000632254               0.999999984               0.000379992               0.000612841               0.999999984               0.000351336               0.000591502               0.999999984               0.000556035               0.000857081               0.999999984               0.000476242               0.000730469               0.999999984               0.000446007               0.000694542               0.999999984               0.000436897               0.000692231               0.999999984               0.000436177               0.000704251               0.999999984               0.000437780               0.000721943               0.999999984               0.000438205               0.000740676               0.999999984               0.000435357               0.000757849               0.999999984               0.000427776               0.000771146               0.999999984               0.000414678               0.000779130               0.999999984               0.000395783               0.000781473               0.999999984               0.000371596               0.000778180               0.999999984               0.000342950               0.000770116               0.999999984               0.000310824               0.000758141               0.999999984               0.000276150               0.000743250               0.999999984               0.000239806               0.000726423               0.999999984               0.000202515               0.000708451               0.999999984               0.000506012               0.000953853               0.999999984               0.000405042               0.000828403               0.999999984               0.000375363               0.000793938               0.999999984               0.000368824               0.000793471               0.999999984               0.000369967               0.000807496               0.999999984               0.000371727               0.000827177               0.999999984               0.000370213               0.000847420               0.999999984               0.000363340               0.000865349               0.999999984               0.000349735               0.000878418               0.999999984               0.000328848               0.000885606               0.999999984               0.000300992               0.000887065               0.999999984               0.000267200               0.000883437               0.999999984               0.000228594               0.000875722               0.999999984               0.000186486               0.000865234               0.999999984               0.000142097               0.000852892               0.999999984               0.000096667               0.000839641               0.999999984               0.000050898               0.000825918               0.999999984               0.000454467               0.001045050               0.999999984               0.000345929               0.000937184               0.999999984               0.000313070               0.000898654               0.999999984               0.000305223               0.000892532               0.999999984               0.000305888               0.000901726               0.999999984               0.000308276               0.000918300               0.999999984               0.000308263               0.000937543               0.999999984               0.000303803               0.000956459               0.999999984               0.000293538               0.000973017               0.999999984               0.000276726               0.000985550               0.999999984               0.000253174               0.000993695               0.999999984               0.000223308               0.000997433               0.999999984               0.000187728               0.000997508               0.999999984               0.000147536               0.000994578               0.999999984               0.000103961               0.000989773               0.999999984               0.000058253               0.000983646               0.999999984               0.000011920               0.000977035               0.999999984               0.000398043               0.001128059               0.999999984               0.000289581               0.001042319               0.999999984               0.000253755               0.001005872               0.999999984               0.000243809               0.000996631               0.999999984               0.000243364               0.001002441               0.999999984               0.000245524               0.001016481               0.999999984               0.000246397               0.001034659               0.999999984               0.000243804               0.001054133               0.999999984               0.000236251               0.001073014               0.999999984               0.000223134               0.001089761               0.999999984               0.000203951               0.001103445               0.999999984               0.000178318               0.001113713               0.999999984               0.000146494               0.001120734               0.999999984               0.000109052               0.001124913               0.999999984               0.000067056               0.001127013               0.999999984               0.000021623               0.001127737               0.999999984              -0.000025759               0.001127795               0.999999984               0.000337857               0.001200935               0.999999984               0.000236044               0.001140643               0.999999984               0.000199056               0.001110715               0.999999984               0.000187008               0.001101666               0.999999984               0.000184953               0.001106016               0.999999984               0.000186229               0.001118801               0.999999984               0.000187163               0.001136465               0.999999984               0.000185646               0.001156665               0.999999984               0.000180232               0.001177478               0.999999984               0.000170316               0.001197691               0.999999984               0.000155119               0.001216108               0.999999984               0.000133880               0.001232131               0.999999984               0.000106290               0.001245535               0.999999984               0.000072517               0.001256349               0.999999984               0.000033034               0.001264959               0.999999984              -0.000011522               0.001272124               0.999999984              -0.000059934               0.001278541               0.999999984               0.000274400               0.001262412               0.999999984               0.000185322               0.001228222               0.999999984               0.000149850               0.001208029               0.999999984               0.000136578               0.001202193               0.999999984               0.000132861               0.001207335               0.999999984               0.000132853               0.001220281               0.999999984               0.000133328               0.001238369               0.999999984               0.000132300               0.001259621               0.999999984               0.000128524               0.001282530               0.999999984               0.000121255               0.001305871               0.999999984               0.000109593               0.001328678               0.999999984               0.000092695               0.001350111               0.999999984               0.000069842               0.001369655               0.999999984               0.000040624               0.001387130               0.999999984               0.000004824               0.001402476               0.999999984              -0.000037802               0.001416126               0.999999984              -0.000086900               0.001428711               0.999999984               0.000208224               0.001311442               0.999999984               0.000136952               0.001301235               0.999999984               0.000106217               0.001292250               0.999999984               0.000093414               0.001291525               0.999999984               0.000088776               0.001299149               0.999999984               0.000087658               0.001313527               0.999999984               0.000087479               0.001332987               0.999999984               0.000086571               0.001355939               0.999999984               0.000083901               0.001381228               0.999999984               0.000078771               0.001407883               0.999999984               0.000070348               0.001434999               0.999999984               0.000057655               0.001461780               0.999999984               0.000039913               0.001487404               0.999999984               0.000016395               0.001511483               0.999999984              -0.000013928               0.001533879               0.999999984              -0.000052017               0.001554527               0.999999984              -0.000098855               0.001573690               0.999999984               0.000139998               0.001347136               0.999999984               0.000090361               0.001356116               0.999999984               0.000067604               0.001357529               0.999999984               0.000057345               0.001362459               0.999999984               0.000053086               0.001373251               0.999999984               0.000051591               0.001389680               0.999999984               0.000051000               0.001410855               0.999999984               0.000050202               0.001435768               0.999999984               0.000048414               0.001463413               0.999999984               0.000045060               0.001493068               0.999999984               0.000039487               0.001524149               0.999999984               0.000031048               0.001555775               0.999999984               0.000019002               0.001587118               0.999999984               0.000002434               0.001617536               0.999999984              -0.000019904               0.001646791               0.999999984              -0.000049435               0.001674445               0.999999984              -0.000087868               0.001700234               0.999999984               0.000070370               0.001368864               0.999999984               0.000044908               0.001390202               0.999999984               0.000032791               0.001398847               0.999999984               0.000027053               0.001408078               0.999999984               0.000024495               0.001421529               0.999999984               0.000023433               0.001439790               0.999999984               0.000022947               0.001462444               0.999999984               0.000022494               0.001488841               0.999999984               0.000021603               0.001518287               0.999999984               0.000019818               0.001550179               0.999999984               0.000016969               0.001583966               0.999999984               0.000012866               0.001619017               0.999999984               0.000006836               0.001654676               0.999999984              -0.000001692               0.001690152               0.999999984              -0.000013509               0.001724915               0.999999984              -0.000029902               0.001758324               0.999999984              -0.000052267               0.001789596               0.999999984              -0.000000000               0.001376172               0.999999984              -0.000000000               0.001401779               0.999999984               0.000000000               0.001413030               0.999999984              -0.000000000               0.001423868               0.999999984              -0.000000000               0.001438275               0.999999984               0.000000000               0.001457176               0.999999984              -0.000000000               0.001480392               0.999999984              -0.000000000               0.001507402               0.999999984               0.000000000               0.001537603               0.999999984              -0.000000000               0.001570336               0.999999984               0.000000000               0.001605130               0.999999984               0.000000000               0.001641398               0.999999984               0.000000000               0.001678595               0.999999984               0.000000000               0.001716026               0.999999984               0.000000000               0.001753131               0.999999984               0.000000000               0.001789034               0.999999984              -0.000000000               0.001822508               0.999999984 </DataArray>
<DataArray type="Float64"                                    Name="stress"                                                      NumberOfComponents="10" format="ascii">
              0.002223429               0.024256004              -0.000000000              -0.002198209               0.008817990               0.006619781               0.000000000               0.000000000               0.000000000               0.000000000               0.002191955               0.018917953               0.000000000              -0.001542757               0.006820174               0.005277417               0.000000000               0.000000000               0.000000000               0.000000000               0.002880781               0.014557934               0.000000000              -0.000739447               0.005099078               0.004359631               0.000000000               0.000000000               0.000000000               0.000000000               0.002766455               0.012090504              -0.000000000              -0.000473891               0.004188092               0.003714200               0.000000000               0.000000000               0.000000000               0.000000000               0.002406393               0.010546973              -0.000000000              -0.000415973               0.003654280               0.003238307               0.000000000               0.000000000               0.000000000               0.000000000               0.001994492               0.009488087               0.000000000              -0.000438075               0.003308689               0.002870614               0.000000000               0.000000000               0.000000000               0.000000000               0.001608848               0.008699697               0.000000000              -0.000484143               0.003061251               0.002577108               0.000000000               0.000000000               0.000000000               0.000000000               0.001272902               0.008069583              -0.000000000              -0.000531358               0.002866954               0.002335595               0.000000000               0.000000000               0.000000000               0.000000000               0.000980977               0.007533699               0.000000000              -0.000573845               0.002702489               0.002128645               0.000000000               0.000000000               0.000000000               0.000000000               0.000726421               0.007056819               0.000000000              -0.000609693               0.002555480               0.001945787               0.000000000               0.000000000               0.000000000               0.000000000               0.000509300               0.006605979              -0.000000000              -0.000634758               0.002413557               0.001778799               0.000000000               0.000000000               0.000000000               0.000000000               0.000333874               0.006153094              -0.000000000              -0.000643932               0.002265655               0.001621722               0.000000000               0.000000000               0.000000000               0.000000000               0.000200542               0.005680360               0.000000000              -0.000634840               0.002105048               0.001470208               0.000000000               0.000000000               0.000000000               0.000000000               0.000097245               0.005170543               0.000000000              -0.000609849               0.001926780               0.001316931               0.000000000               0.000000000               0.000000000               0.000000000               0.000028088               0.004614665              -0.000000000              -0.000566299               0.001726972               0.001160674               0.000000000               0.000000000               0.000000000               0.000000000               0.000001234               0.003985501              -0.000000000              -0.000497723               0.001494395               0.000996671               0.000000000               0.000000000               0.000000000               0.000000000              -0.000052859               0.003501843               0.000000000              -0.000457551               0.001319787               0.000862235               0.000000000               0.000000000               0.000000000               0.000000000               0.002307951               0.023756081              -0.001661941              -0.002104024               0.008619956               0.006515932               0.000000000               0.000000000               0.000000000               0.000000000               0.002149904               0.018587346              -0.000827435              -0.001517201               0.006701453               0.005184253               0.000000000               0.000000000               0.000000000               0.000000000               0.002701509               0.014412669              -0.000000036              -0.000788516               0.005067014               0.004278498               0.000000000               0.000000000               0.000000000               0.000000000               0.002531279               0.012038793               0.000349458              -0.000555618               0.004198097               0.003642479               0.000000000               0.000000000               0.000000000               0.000000000               0.002158236               0.010541796               0.000492373              -0.000508385               0.003683359               0.003174974               0.000000000               0.000000000               0.000000000               0.000000000               0.001750932               0.009504414               0.000537326              -0.000531451               0.003345257               0.002813806               0.000000000               0.000000000               0.000000000               0.000000000               0.001377623               0.008722915               0.000537532              -0.000573754               0.003098861               0.002525106               0.000000000               0.000000000               0.000000000               0.000000000               0.001058830               0.008094150               0.000518833              -0.000614706               0.002902925               0.002288219               0.000000000               0.000000000               0.000000000               0.000000000               0.000788691               0.007557709               0.000495346              -0.000648953               0.002735529               0.002086576               0.000000000               0.000000000               0.000000000               0.000000000               0.000558234               0.007076034               0.000469821              -0.000675165               0.002583709               0.001908545               0.000000000               0.000000000               0.000000000               0.000000000               0.000365959               0.006620556               0.000435948              -0.000690333               0.002436941               0.001746608               0.000000000               0.000000000               0.000000000               0.000000000               0.000213997               0.006164342               0.000394692              -0.000690292               0.002284858               0.001594565               0.000000000               0.000000000               0.000000000               0.000000000               0.000104181               0.005693283               0.000348476              -0.000672591               0.002121939               0.001449348               0.000000000               0.000000000               0.000000000               0.000000000               0.000026459               0.005195344               0.000297748              -0.000639494               0.001944929               0.001305435               0.000000000               0.000000000               0.000000000               0.000000000              -0.000019718               0.004655587               0.000230391              -0.000589341               0.001748294               0.001158953               0.000000000               0.000000000               0.000000000               0.000000000              -0.000023871               0.004055646               0.000130534              -0.000515906               0.001523837               0.001007931               0.000000000               0.000000000               0.000000000               0.000000000              -0.000063973               0.003602000               0.000083623              -0.000474239               0.001358734               0.000884495               0.000000000               0.000000000               0.000000000               0.000000000               0.002502375               0.022308826              -0.003080237              -0.001850209               0.008052937               0.006202728               0.000000000               0.000000000               0.000000000               0.000000000               0.001999101               0.017643093              -0.001529114              -0.001455721               0.006366212               0.004910491               0.000000000               0.000000000               0.000000000               0.000000000               0.002177534               0.013991019              -0.000007352              -0.000932300               0.004974393               0.004042093               0.000000000               0.000000000               0.000000000               0.000000000               0.001863555               0.011880221               0.000613244              -0.000786193               0.004222098               0.003435906               0.000000000               0.000000000               0.000000000               0.000000000               0.001458610               0.010510495               0.000857990              -0.000766831               0.003759074               0.002992242               0.000000000               0.000000000               0.000000000               0.000000000               0.001075575               0.009533240               0.000929845              -0.000788313               0.003440486               0.002652173               0.000000000               0.000000000               0.000000000               0.000000000               0.000753686               0.008777542               0.000925768              -0.000814559               0.003197338               0.002382779               0.000000000               0.000000000               0.000000000               0.000000000               0.000497326               0.008155712               0.000893423              -0.000832965               0.002996198               0.002163233               0.000000000               0.000000000               0.000000000               0.000000000               0.000294465               0.007615891               0.000853549              -0.000841560               0.002819125               0.001977565               0.000000000               0.000000000               0.000000000               0.000000000               0.000133617               0.007124308               0.000809836              -0.000840430               0.002654889               0.001814459               0.000000000               0.000000000               0.000000000               0.000000000               0.000012375               0.006656691               0.000751682              -0.000827444               0.002494689               0.001667246               0.000000000               0.000000000               0.000000000               0.000000000              -0.000069920               0.006195227               0.000679457              -0.000800622               0.002331929               0.001531307               0.000000000               0.000000000               0.000000000               0.000000000              -0.000112673               0.005729418               0.000601965              -0.000758428               0.002162596               0.001404168               0.000000000               0.000000000               0.000000000               0.000000000              -0.000122832               0.005253060               0.000513570              -0.000702693               0.001985234               0.001282541               0.000000000               0.000000000               0.000000000               0.000000000              -0.000105766               0.004759568               0.000393704              -0.000634607               0.001798042               0.001163436               0.000000000               0.000000000               0.000000000               0.000000000              -0.000061668               0.004253641               0.000222724              -0.000554829               0.001602809               0.001047980               0.000000000               0.000000000               0.000000000               0.000000000              -0.000073278               0.003898082               0.000139623              -0.000514738               0.001470927               0.000956189               0.000000000               0.000000000               0.000000000               0.000000000               0.002681765               0.020094504              -0.004080989              -0.001506150               0.007200150               0.005694001               0.000000000               0.000000000               0.000000000               0.000000000               0.001700083               0.016227417              -0.002029831              -0.001390893               0.005872716               0.004481822               0.000000000               0.000000000               0.000000000               0.000000000               0.001366176               0.013358876              -0.000044198              -0.001157541               0.004838761               0.003681220               0.000000000               0.000000000               0.000000000               0.000000000               0.000889221               0.011622375               0.000721299              -0.001119336               0.004247198               0.003127862               0.000000000               0.000000000               0.000000000               0.000000000               0.000474767               0.010428679               0.001007727              -0.001125545               0.003851373               0.002725828               0.000000000               0.000000000               0.000000000               0.000000000               0.000153530               0.009530452               0.001087026              -0.001133730               0.003554696               0.002420965               0.000000000               0.000000000               0.000000000               0.000000000              -0.000078090               0.008807000               0.001077447              -0.001130156               0.003312356               0.002182200               0.000000000               0.000000000               0.000000000               0.000000000              -0.000232724               0.008194307               0.001037584              -0.001111557               0.003101927               0.001990370               0.000000000               0.000000000               0.000000000               0.000000000              -0.000332240               0.007653690               0.000989684              -0.001081299               0.002911637               0.001830339               0.000000000               0.000000000               0.000000000               0.000000000              -0.000392906               0.007153274               0.000936029              -0.001041497               0.002731566               0.001690069               0.000000000               0.000000000               0.000000000               0.000000000              -0.000412905               0.006675555               0.000866519              -0.000989282               0.002554923               0.001565641               0.000000000               0.000000000               0.000000000               0.000000000              -0.000393141               0.006212230               0.000780217              -0.000923954               0.002378707               0.001454753               0.000000000               0.000000000               0.000000000               0.000000000              -0.000341803               0.005760775               0.000683706              -0.000848271               0.002202996               0.001354725               0.000000000               0.000000000               0.000000000               0.000000000              -0.000268817               0.005323234               0.000571490              -0.000766209               0.002029797               0.001263588               0.000000000               0.000000000               0.000000000               0.000000000              -0.000180847               0.004911948               0.000427557              -0.000681810               0.001864570               0.001182760               0.000000000               0.000000000               0.000000000               0.000000000              -0.000089705               0.004551478               0.000237625              -0.000602573               0.001718002               0.001115429               0.000000000               0.000000000               0.000000000               0.000000000              -0.000068941               0.004336266               0.000142543              -0.000567885               0.001634703               0.001066818               0.000000000               0.000000000               0.000000000               0.000000000               0.002709470               0.017394637              -0.004571207              -0.001158279               0.006184246               0.005025967               0.000000000               0.000000000               0.000000000               0.000000000               0.001230232               0.014533660              -0.002306107              -0.001355368               0.005296294               0.003940926               0.000000000               0.000000000               0.000000000               0.000000000               0.000363325               0.012600890              -0.000147083              -0.001438861               0.004679875               0.003241014               0.000000000               0.000000000               0.000000000               0.000000000              -0.000224404               0.011267057               0.000632884              -0.001492530               0.004253158               0.002760628               0.000000000               0.000000000               0.000000000               0.000000000              -0.000590385               0.010257460               0.000910069              -0.001503573               0.003920310               0.002416737               0.000000000               0.000000000               0.000000000               0.000000000              -0.000800278               0.009444572               0.000984152              -0.001480672               0.003641716               0.002161044               0.000000000               0.000000000               0.000000000               0.000000000              -0.000903174               0.008756598               0.000975758              -0.001433262               0.003396591               0.001963329               0.000000000               0.000000000               0.000000000               0.000000000              -0.000928728               0.008160440               0.000941854              -0.001368325               0.003176228               0.001807903               0.000000000               0.000000000               0.000000000               0.000000000              -0.000902772               0.007626412               0.000898594              -0.001291838               0.002972724               0.001680886               0.000000000               0.000000000               0.000000000               0.000000000              -0.000837579               0.007123471               0.000847953              -0.001204523               0.002775974               0.001571451               0.000000000               0.000000000               0.000000000               0.000000000              -0.000737849               0.006641060               0.000781747              -0.001106823               0.002582606               0.001475782               0.000000000               0.000000000               0.000000000               0.000000000              -0.000615031               0.006183685               0.000696688              -0.001003595               0.002395739               0.001392144               0.000000000               0.000000000               0.000000000               0.000000000              -0.000478378               0.005763132               0.000598540              -0.000899781               0.002220952               0.001321171               0.000000000               0.000000000               0.000000000               0.000000000              -0.000339606               0.005389610               0.000483004              -0.000801052               0.002063536               0.001262484               0.000000000               0.000000000               0.000000000               0.000000000              -0.000208315               0.005080071               0.000345533              -0.000713125               0.001931048               0.001217923               0.000000000               0.000000000               0.000000000               0.000000000              -0.000095627               0.004857210               0.000185300              -0.000643010               0.001833390               0.001190381               0.000000000               0.000000000               0.000000000               0.000000000              -0.000055260               0.004754161               0.000105120              -0.000614991               0.001789702               0.001174710               0.000000000               0.000000000               0.000000000               0.000000000               0.002460314               0.014489333              -0.004572861              -0.000888551               0.005125912               0.004237361               0.000000000               0.000000000               0.000000000               0.000000000               0.000590581               0.012737867              -0.002396379              -0.001370764               0.004702834               0.003332070               0.000000000               0.000000000               0.000000000               0.000000000              -0.000711209               0.011774012              -0.000346710              -0.001738450               0.004504115               0.002765664               0.000000000               0.000000000               0.000000000               0.000000000              -0.001306493               0.010823608               0.000355222              -0.001842881               0.004222127               0.002379246               0.000000000               0.000000000               0.000000000               0.000000000              -0.001550873               0.009985781               0.000604928              -0.001829796               0.003938492               0.002108697               0.000000000               0.000000000               0.000000000               0.000000000              -0.001607869               0.009254720               0.000680206              -0.001759786               0.003671471               0.001911685               0.000000000               0.000000000               0.000000000               0.000000000              -0.001559592               0.008609580               0.000686291              -0.001661040               0.003423511               0.001762471               0.000000000               0.000000000               0.000000000               0.000000000              -0.001444101               0.008039006               0.000672392              -0.001546410               0.003195112               0.001648702               0.000000000               0.000000000               0.000000000               0.000000000              -0.001286806               0.007511453               0.000647038              -0.001421481               0.002977619               0.001556139               0.000000000               0.000000000               0.000000000               0.000000000              -0.001099444               0.007005309               0.000609117              -0.001287952               0.002764397               0.001476445               0.000000000               0.000000000               0.000000000               0.000000000              -0.000892001               0.006526146               0.000555497              -0.001150266               0.002558782               0.001408516               0.000000000               0.000000000               0.000000000               0.000000000              -0.000683509               0.006090254               0.000485315              -0.001017595               0.002369263               0.001351667               0.000000000               0.000000000               0.000000000               0.000000000              -0.000489389               0.005713312               0.000401724              -0.000897683               0.002203646               0.001305963               0.000000000               0.000000000               0.000000000               0.000000000              -0.000318922               0.005405422               0.000305227              -0.000795271               0.002066880               0.001271608               0.000000000               0.000000000               0.000000000               0.000000000              -0.000175946               0.005176891               0.000201632              -0.000713089               0.001963309               0.001250220               0.000000000               0.000000000               0.000000000               0.000000000              -0.000070888               0.005032816               0.000098971              -0.000655683               0.001896150               0.001240466               0.000000000               0.000000000               0.000000000               0.000000000              -0.000035606               0.004975127               0.000051975              -0.000635241               0.001870106               0.001234865               0.000000000               0.000000000               0.000000000               0.000000000               0.001868316               0.011619792              -0.004174739              -0.000751857               0.004123843               0.003371986               0.000000000               0.000000000               0.000000000               0.000000000              -0.000184438               0.010988213              -0.002355377              -0.001442689               0.004143597               0.002700908               0.000000000               0.000000000               0.000000000               0.000000000              -0.001733877               0.010922730              -0.000641250              -0.002015540               0.004312720               0.002297180               0.000000000               0.000000000               0.000000000               0.000000000              -0.002216554               0.010304320              -0.000064242              -0.002119242               0.004141153               0.002021911               0.000000000               0.000000000               0.000000000               0.000000000              -0.002282017               0.009613799               0.000163155              -0.002057476               0.003890393               0.001832917               0.000000000               0.000000000               0.000000000               0.000000000              -0.002166297               0.008955623               0.000257650              -0.001931809               0.003629114               0.001697305               0.000000000               0.000000000               0.000000000               0.000000000              -0.001965320               0.008358446               0.000297316              -0.001781796               0.003380053               0.001598257               0.000000000               0.000000000               0.000000000               0.000000000              -0.001716336               0.007813498               0.000317560              -0.001620309               0.003144576               0.001524267               0.000000000               0.000000000               0.000000000               0.000000000              -0.001445258               0.007288799               0.000319856              -0.001453068               0.002913931               0.001460863               0.000000000               0.000000000               0.000000000               0.000000000              -0.001163279               0.006787275               0.000306156              -0.001284636               0.002690614               0.001405978               0.000000000               0.000000000               0.000000000               0.000000000              -0.000883466               0.006330009               0.000277458              -0.001122548               0.002484165               0.001361617               0.000000000               0.000000000               0.000000000               0.000000000              -0.000628816               0.005930861               0.000235561              -0.000977161               0.002302654               0.001325493               0.000000000               0.000000000               0.000000000               0.000000000              -0.000412945               0.005603859               0.000185590              -0.000855335               0.002153046               0.001297711               0.000000000               0.000000000               0.000000000               0.000000000              -0.000243581               0.005352811               0.000128712              -0.000760442               0.002037733               0.001277291               0.000000000               0.000000000               0.000000000               0.000000000              -0.000120818               0.005176307               0.000074141              -0.000692343               0.001956199               0.001263856               0.000000000               0.000000000               0.000000000               0.000000000              -0.000043220               0.005064539               0.000031111              -0.000649273               0.001904587               0.001255314               0.000000000               0.000000000               0.000000000               0.000000000              -0.000025525               0.005012515               0.000017935              -0.000636135               0.001882866               0.001246732               0.000000000               0.000000000               0.000000000               0.000000000               0.000966626               0.008969902              -0.003480310              -0.000758754               0.003242854               0.002484100               0.000000000               0.000000000               0.000000000               0.000000000              -0.001043097               0.009389764              -0.002235792              -0.001564879               0.003651516               0.002086637               0.000000000               0.000000000               0.000000000               0.000000000              -0.002601945               0.010061431              -0.001022684              -0.002233403               0.004098244               0.001864841               0.000000000               0.000000000               0.000000000               0.000000000              -0.002872173               0.009702710              -0.000563976              -0.002289898               0.003997504               0.001707606               0.000000000               0.000000000               0.000000000               0.000000000              -0.002735466               0.009138169              -0.000331866              -0.002168066               0.003768715               0.001600649               0.000000000               0.000000000               0.000000000               0.000000000              -0.002450109               0.008557250              -0.000195597              -0.001988442               0.003515202               0.001526760               0.000000000               0.000000000               0.000000000               0.000000000              -0.002111698               0.008005797              -0.000102885              -0.001792607               0.003266108               0.001473501               0.000000000               0.000000000               0.000000000               0.000000000              -0.001756003               0.007478566              -0.000038223              -0.001593318               0.003023936               0.001430618               0.000000000               0.000000000               0.000000000               0.000000000              -0.001401762               0.006964096               0.000000750              -0.001396169               0.002786732               0.001390562               0.000000000               0.000000000               0.000000000               0.000000000              -0.001059467               0.006487821               0.000023994              -0.001208275               0.002565343               0.001357069               0.000000000               0.000000000               0.000000000               0.000000000              -0.000748487               0.006070882               0.000033301              -0.001039540               0.002370121               0.001330580               0.000000000               0.000000000               0.000000000               0.000000000              -0.000488405               0.005726098               0.000031262              -0.000898912               0.002208318               0.001309406               0.000000000               0.000000000               0.000000000               0.000000000              -0.000288183               0.005456341               0.000026172              -0.000790109               0.002082132               0.001292022               0.000000000               0.000000000               0.000000000               0.000000000              -0.000146959               0.005260962               0.000017466              -0.000712728               0.001991212               0.001278484               0.000000000               0.000000000               0.000000000               0.000000000              -0.000060926               0.005130422               0.000009826              -0.000664149               0.001931506               0.001267358               0.000000000               0.000000000               0.000000000               0.000000000              -0.000019254               0.005049864               0.000005257              -0.000638452               0.001896088               0.001257637               0.000000000               0.000000000               0.000000000               0.000000000              -0.000016007               0.005011555               0.000007839              -0.000632446               0.001881317               0.001248871               0.000000000               0.000000000               0.000000000               0.000000000              -0.000112375               0.006731552              -0.002620659              -0.000883584               0.002538356               0.001654771               0.000000000               0.000000000               0.000000000               0.000000000              -0.001867215               0.007967159              -0.002092526              -0.001696097               0.003221058               0.001524961               0.000000000               0.000000000               0.000000000               0.000000000              -0.003257273               0.009219213              -0.001472067              -0.002373873               0.003864331               0.001490458               0.000000000               0.000000000               0.000000000               0.000000000              -0.003302326               0.009125060              -0.001093576              -0.002378999               0.003834656               0.001455657               0.000000000               0.000000000               0.000000000               0.000000000              -0.003002094               0.008710318              -0.000834063              -0.002214569               0.003641600               0.001427031               0.000000000               0.000000000               0.000000000               0.000000000              -0.002585306               0.008225141              -0.000643600              -0.001997627               0.003407562               0.001409935               0.000000000               0.000000000               0.000000000               0.000000000              -0.002143151               0.007730247              -0.000494242              -0.001769958               0.003166709               0.001396751               0.000000000               0.000000000               0.000000000               0.000000000              -0.001711192               0.007231039              -0.000377755              -0.001545573               0.002925513               0.001379940               0.000000000               0.000000000               0.000000000               0.000000000              -0.001299697               0.006742971              -0.000291283              -0.001330254               0.002691053               0.001360798               0.000000000               0.000000000               0.000000000               0.000000000              -0.000921066               0.006299950              -0.000222209              -0.001132891               0.002477593               0.001344702               0.000000000               0.000000000               0.000000000               0.000000000              -0.000596174               0.005920926              -0.000167097              -0.000963679               0.002294848               0.001331170               0.000000000               0.000000000               0.000000000               0.000000000              -0.000340531               0.005612783              -0.000121673              -0.000829295               0.002147340               0.001318046               0.000000000               0.000000000               0.000000000               0.000000000              -0.000159360               0.005379241              -0.000079322              -0.000732163               0.002037117               0.001304953               0.000000000               0.000000000               0.000000000               0.000000000              -0.000049449               0.005213101              -0.000042023              -0.000670179               0.001961076               0.001290897               0.000000000               0.000000000               0.000000000               0.000000000              -0.000000726               0.005104602              -0.000013938              -0.000638346               0.001914299               0.001275953               0.000000000               0.000000000               0.000000000               0.000000000               0.000005402               0.005038963               0.000002580              -0.000627843               0.001888919               0.001261076               0.000000000               0.000000000               0.000000000               0.000000000               0.000001100               0.005015272               0.000007685              -0.000626495               0.001880572               0.001254077               0.000000000               0.000000000               0.000000000               0.000000000              -0.001382459               0.004673552              -0.001712322              -0.001102614               0.001925373               0.000822759               0.000000000               0.000000000               0.000000000               0.000000000              -0.002555412               0.006356328              -0.001928010              -0.001752817               0.002703027               0.000950210               0.000000000               0.000000000               0.000000000               0.000000000              -0.003631772               0.008019349              -0.001938574              -0.002364328               0.003461198               0.001096871               0.000000000               0.000000000               0.000000000               0.000000000              -0.003551053               0.008295835              -0.001655017              -0.002368619               0.003554790               0.001186171               0.000000000               0.000000000               0.000000000               0.000000000              -0.003184241               0.008137028              -0.001379065              -0.002211214               0.003449386               0.001238173               0.000000000               0.000000000               0.000000000               0.000000000              -0.002731846               0.007838348              -0.001139759              -0.002004231               0.003280833               0.001276602               0.000000000               0.000000000               0.000000000               0.000000000              -0.002262142               0.007487009              -0.000936040              -0.001784175               0.003090370               0.001306194               0.000000000               0.000000000               0.000000000               0.000000000              -0.001809850               0.007107435              -0.000764157              -0.001567119               0.002891494               0.001324375               0.000000000               0.000000000               0.000000000               0.000000000              -0.001387321               0.006712682              -0.000622072              -0.001359327               0.002690647               0.001331320               0.000000000               0.000000000               0.000000000               0.000000000              -0.000995378               0.006332709              -0.000504356              -0.001164853               0.002499166               0.001334313               0.000000000               0.000000000               0.000000000               0.000000000              -0.000648916               0.005988860              -0.000401325              -0.000991949               0.002326916               0.001334968               0.000000000               0.000000000               0.000000000               0.000000000              -0.000370029               0.005691525              -0.000303706              -0.000850200               0.002180556               0.001330356               0.000000000               0.000000000               0.000000000               0.000000000              -0.000166159               0.005449274              -0.000210602              -0.000743467               0.002064229               0.001320762               0.000000000               0.000000000               0.000000000               0.000000000              -0.000036381               0.005264984              -0.000126712              -0.000671764               0.001978898               0.001307134               0.000000000               0.000000000               0.000000000               0.000000000               0.000029342               0.005135130              -0.000058452              -0.000630887               0.001921988               0.001291102               0.000000000               0.000000000               0.000000000               0.000000000               0.000043359               0.005050243              -0.000015127              -0.000615019               0.001888404               0.001273385               0.000000000               0.000000000               0.000000000               0.000000000               0.000038884               0.005021423              -0.000000886              -0.000613095               0.001878156               0.001265061               0.000000000               0.000000000               0.000000000               0.000000000              -0.003021550               0.002823179              -0.000813786              -0.001485976               0.001436375              -0.000049601               0.000000000               0.000000000               0.000000000               0.000000000              -0.003339679               0.004751125              -0.001690830              -0.001846266               0.002199114               0.000352848               0.000000000               0.000000000               0.000000000               0.000000000              -0.003916161               0.006632693              -0.002303676              -0.002297642               0.002976756               0.000679114               0.000000000               0.000000000               0.000000000               0.000000000              -0.003713711               0.007258844              -0.002185061              -0.002299992               0.003186254               0.000886262               0.000000000               0.000000000               0.000000000               0.000000000              -0.003304923               0.007393041              -0.001931372              -0.002163471               0.003185479               0.001022008               0.000000000               0.000000000               0.000000000               0.000000000              -0.002845700               0.007321850              -0.001669212              -0.001982364               0.003101380               0.001119016               0.000000000               0.000000000               0.000000000               0.000000000              -0.002377907               0.007149572              -0.001426940              -0.001785408               0.002978303               0.001192895               0.000000000               0.000000000               0.000000000               0.000000000              -0.001923572               0.006920098              -0.001210576              -0.001586348               0.002835459               0.001249111               0.000000000               0.000000000               0.000000000               0.000000000              -0.001494876               0.006648606              -0.001022232              -0.001391651               0.002680064               0.001288412               0.000000000               0.000000000               0.000000000               0.000000000              -0.001090365               0.006357674              -0.000862823              -0.001203593               0.002520401               0.001316808               0.000000000               0.000000000               0.000000000               0.000000000              -0.000720152               0.006065544              -0.000713915              -0.001028248               0.002364577               0.001336329               0.000000000               0.000000000               0.000000000               0.000000000              -0.000403286               0.005792565              -0.000567282              -0.000875301               0.002222603               0.001347302               0.000000000               0.000000000               0.000000000               0.000000000              -0.000153766               0.005547279              -0.000424022              -0.000751070               0.002099431               0.001348361               0.000000000               0.000000000               0.000000000               0.000000000               0.000022771               0.005342501              -0.000289216              -0.000659272               0.002000573               0.001341301               0.000000000               0.000000000               0.000000000               0.000000000               0.000125349               0.005184433              -0.000166818              -0.000601047               0.001928476               0.001327429               0.000000000               0.000000000               0.000000000               0.000000000               0.000156960               0.005074781              -0.000068247              -0.000575486               0.001883405               0.001307919               0.000000000               0.000000000               0.000000000               0.000000000               0.000146287               0.005027401              -0.000024021              -0.000573566               0.001866972               0.001293406               0.000000000               0.000000000               0.000000000               0.000000000              -0.004923322               0.001301910              -0.000003247              -0.002008982               0.001103623              -0.000905359               0.000000000               0.000000000               0.000000000               0.000000000              -0.004261510               0.003235763              -0.001366172              -0.002002533               0.001746086              -0.000256447               0.000000000               0.000000000               0.000000000               0.000000000              -0.004137554               0.005069399              -0.002458219              -0.002185253               0.002418199               0.000232946               0.000000000               0.000000000               0.000000000               0.000000000              -0.003734233               0.005940845              -0.002540564              -0.002142939               0.002694574               0.000551635               0.000000000               0.000000000               0.000000000               0.000000000              -0.003270972               0.006347310              -0.002354835              -0.002020024               0.002789090               0.000769066               0.000000000               0.000000000               0.000000000               0.000000000              -0.002807156               0.006511752              -0.002106674              -0.001866649               0.002792778               0.000926129               0.000000000               0.000000000               0.000000000               0.000000000              -0.002353031               0.006536894              -0.001855729              -0.001699495               0.002745441               0.001045946               0.000000000               0.000000000               0.000000000               0.000000000              -0.001912280               0.006474146              -0.001621076              -0.001526370               0.002666817               0.001140447               0.000000000               0.000000000               0.000000000               0.000000000              -0.001485178               0.006352393              -0.001412952              -0.001350988               0.002567772               0.001216784               0.000000000               0.000000000               0.000000000               0.000000000              -0.001077772               0.006185803              -0.001228405              -0.001177388               0.002454376               0.001276989               0.000000000               0.000000000               0.000000000               0.000000000              -0.000697749               0.005986207              -0.001049740              -0.001009930               0.002332025               0.001322096               0.000000000               0.000000000               0.000000000               0.000000000              -0.000352130               0.005777319              -0.000869433              -0.000854212               0.002210491               0.001356279               0.000000000               0.000000000               0.000000000               0.000000000              -0.000058255               0.005569229              -0.000688423              -0.000717998               0.002095724               0.001377726               0.000000000               0.000000000               0.000000000               0.000000000               0.000169873               0.005374298              -0.000508975              -0.000608083               0.001994109               0.001386026               0.000000000               0.000000000               0.000000000               0.000000000               0.000320727               0.005211961              -0.000328601              -0.000531221               0.001914377               0.001383155               0.000000000               0.000000000               0.000000000               0.000000000               0.000382208               0.005091722              -0.000155413              -0.000493136               0.001861602               0.001368466               0.000000000               0.000000000               0.000000000               0.000000000               0.000375620               0.005033766              -0.000069498              -0.000488362               0.001840693               0.001352331               0.000000000               0.000000000               0.000000000               0.000000000              -0.006955896               0.000190554               0.000602513              -0.002632278               0.000940938              -0.001691340               0.000000000               0.000000000               0.000000000               0.000000000              -0.005272379               0.001896983              -0.001002643              -0.002214262               0.001370405              -0.000843857               0.000000000               0.000000000               0.000000000               0.000000000              -0.004327334               0.003469316              -0.002374726              -0.002056411               0.001841896              -0.000214516               0.000000000               0.000000000               0.000000000               0.000000000              -0.003643603               0.004459110              -0.002632160              -0.001923736               0.002127599               0.000203863               0.000000000               0.000000000               0.000000000               0.000000000              -0.003092217               0.005073254              -0.002538430              -0.001793735               0.002288978               0.000495244               0.000000000               0.000000000               0.000000000               0.000000000              -0.002614082               0.005446732              -0.002337069              -0.001661119               0.002369265               0.000708146               0.000000000               0.000000000               0.000000000               0.000000000              -0.002172474               0.005663391              -0.002111142              -0.001522599               0.002395310               0.000872711               0.000000000               0.000000000               0.000000000               0.000000000              -0.001750203               0.005775142              -0.001889755              -0.001378216               0.002384433               0.001006217               0.000000000               0.000000000               0.000000000               0.000000000              -0.001337268               0.005815339              -0.001688571              -0.001228391               0.002347890               0.001119499               0.000000000               0.000000000               0.000000000               0.000000000              -0.000936202               0.005797264              -0.001503240              -0.001075732               0.002290979               0.001215247               0.000000000               0.000000000               0.000000000               0.000000000              -0.000549867               0.005729354              -0.001321022              -0.000922368               0.002217221               0.001294853               0.000000000               0.000000000               0.000000000               0.000000000              -0.000184022               0.005621772              -0.001134139              -0.000771728               0.002131148               0.001359419               0.000000000               0.000000000               0.000000000               0.000000000               0.000152637               0.005490858              -0.000939144              -0.000629117               0.002039973               0.001410856               0.000000000               0.000000000               0.000000000               0.000000000               0.000443319               0.005348955              -0.000732904              -0.000502374               0.001950425               0.001448051               0.000000000               0.000000000               0.000000000               0.000000000               0.000666075               0.005212337              -0.000506465              -0.000401763               0.001871350               0.001469586               0.000000000               0.000000000               0.000000000               0.000000000               0.000798663               0.005097214              -0.000259003              -0.000337652               0.001811605               0.001473953               0.000000000               0.000000000               0.000000000               0.000000000               0.000833341               0.005041573              -0.000130532              -0.000317693               0.001786405               0.001468712               0.000000000               0.000000000               0.000000000               0.000000000              -0.008911629              -0.000520808               0.000904713              -0.003276758               0.000918643              -0.002358114               0.000000000               0.000000000               0.000000000               0.000000000              -0.006279134               0.000811050              -0.000654142              -0.002456054               0.001089027              -0.001367027               0.000000000               0.000000000               0.000000000               0.000000000              -0.004500567               0.001980765              -0.002045572              -0.001935306               0.001305347              -0.000629959               0.000000000               0.000000000               0.000000000               0.000000000              -0.003488759               0.002966036              -0.002401427              -0.001679036               0.001548345              -0.000130691               0.000000000               0.000000000               0.000000000               0.000000000              -0.002809371               0.003708337              -0.002391633              -0.001517053               0.001741783               0.000224730               0.000000000               0.000000000               0.000000000               0.000000000              -0.002291617               0.004248089              -0.002253840              -0.001390365               0.001879469               0.000489104               0.000000000               0.000000000               0.000000000               0.000000000              -0.001852935               0.004634115              -0.002076390              -0.001274113               0.001969393               0.000695280               0.000000000               0.000000000               0.000000000               0.000000000              -0.001448789               0.004908940              -0.001894908              -0.001156912               0.002021933               0.000865022               0.000000000               0.000000000               0.000000000               0.000000000              -0.001057469               0.005105859              -0.001724327              -0.001034781               0.002046863               0.001012081               0.000000000               0.000000000               0.000000000               0.000000000              -0.000671653               0.005239871              -0.001563964              -0.000906852               0.002048890               0.001142038               0.000000000               0.000000000               0.000000000               0.000000000              -0.000287462               0.005314947              -0.001404314              -0.000772165               0.002029019               0.001256854               0.000000000               0.000000000               0.000000000               0.000000000               0.000093744               0.005327818              -0.001238921              -0.000630822               0.001986195               0.001355373               0.000000000               0.000000000               0.000000000               0.000000000               0.000470265               0.005292994              -0.001062410              -0.000485274               0.001926072               0.001440797               0.000000000               0.000000000               0.000000000               0.000000000               0.000834844               0.005235972              -0.000861272              -0.000341430               0.001859116               0.001517687               0.000000000               0.000000000               0.000000000               0.000000000               0.001166846               0.005164460              -0.000622352              -0.000207990               0.001790799               0.001582809               0.000000000               0.000000000               0.000000000               0.000000000               0.001441938               0.005084075              -0.000335283              -0.000094783               0.001726269               0.001631486               0.000000000               0.000000000               0.000000000               0.000000000               0.001591898               0.005054245              -0.000184734              -0.000034819               0.001696338               0.001661519               0.000000000               0.000000000               0.000000000               0.000000000              -0.010551653              -0.000911389               0.000862761              -0.003842944               0.000977178              -0.002865766               0.000000000               0.000000000               0.000000000               0.000000000              -0.007148372               0.000021467              -0.000366155              -0.002683321               0.000901590              -0.001781731               0.000000000               0.000000000               0.000000000               0.000000000              -0.004645510               0.000766986              -0.001494882              -0.001837938               0.000868301              -0.000969636               0.000000000               0.000000000               0.000000000               0.000000000              -0.003317849               0.001668625              -0.001835362              -0.001452770               0.001040457              -0.000412313               0.000000000               0.000000000               0.000000000               0.000000000              -0.002501926               0.002464572              -0.001874513              -0.001246292               0.001236945              -0.000009347               0.000000000               0.000000000               0.000000000               0.000000000              -0.001931708               0.003113330              -0.001797589              -0.001113555               0.001408950               0.000295395               0.000000000               0.000000000               0.000000000               0.000000000              -0.001481584               0.003629685              -0.001679527              -0.001009303               0.001546317               0.000537014               0.000000000               0.000000000               0.000000000               0.000000000              -0.001086107               0.004037015              -0.001553145              -0.000911916               0.001649630               0.000737714               0.000000000               0.000000000               0.000000000               0.000000000              -0.000713481               0.004361535              -0.001430062              -0.000812746               0.001724746               0.000911999               0.000000000               0.000000000               0.000000000               0.000000000              -0.000346330               0.004626422              -0.001311557              -0.000708175               0.001778183               0.001070008               0.000000000               0.000000000               0.000000000               0.000000000               0.000029395               0.004829400              -0.001195347              -0.000592651               0.001807334               0.001214683               0.000000000               0.000000000               0.000000000               0.000000000               0.000422811               0.004961507              -0.001076463              -0.000461634               0.001807697               0.001346063               0.000000000               0.000000000               0.000000000               0.000000000               0.000834743               0.005031651              -0.000946451              -0.000315928               0.001782509               0.001466582               0.000000000               0.000000000               0.000000000               0.000000000               0.001271079               0.005067593              -0.000789546              -0.000156795               0.001741445               0.001584651               0.000000000               0.000000000               0.000000000               0.000000000               0.001730665               0.005076637              -0.000588542               0.000014419               0.001687389               0.001701808               0.000000000               0.000000000               0.000000000               0.000000000               0.002198942               0.005049983              -0.000327079               0.000193353               0.001618860               0.001812213               0.000000000               0.000000000               0.000000000               0.000000000               0.002523285               0.005061354              -0.000191209               0.000313560               0.001582581               0.001896141               0.000000000               0.000000000               0.000000000               0.000000000              -0.011652830              -0.001087502               0.000518825              -0.004233871               0.001048783              -0.003185088               0.000000000               0.000000000               0.000000000               0.000000000              -0.007744795              -0.000455928              -0.000157179              -0.002847305               0.000797120              -0.002050185               0.000000000               0.000000000               0.000000000               0.000000000              -0.004746478              -0.000030088              -0.000787432              -0.001776167               0.000582022              -0.001194145               0.000000000               0.000000000               0.000000000               0.000000000              -0.003184316               0.000781497              -0.000993809              -0.001291804               0.000691095              -0.000600709               0.000000000               0.000000000               0.000000000               0.000000000              -0.002261701               0.001587885              -0.001030323              -0.001046621               0.000878162              -0.000168459               0.000000000               0.000000000               0.000000000               0.000000000              -0.001646249               0.002293154              -0.000998294              -0.000903986               0.001065705               0.000161720               0.000000000               0.000000000               0.000000000               0.000000000              -0.001182208               0.002886690              -0.000941693              -0.000804163               0.001230274               0.000426112               0.000000000               0.000000000               0.000000000               0.000000000              -0.000791150               0.003380712              -0.000878258              -0.000719269               0.001366649               0.000647380               0.000000000               0.000000000               0.000000000               0.000000000              -0.000429643               0.003793383              -0.000813434              -0.000635288               0.001476211               0.000840923               0.000000000               0.000000000               0.000000000               0.000000000              -0.000071127               0.004143325              -0.000750479              -0.000544587               0.001562624               0.001018036               0.000000000               0.000000000               0.000000000               0.000000000               0.000300488               0.004432917              -0.000692088              -0.000441431               0.001624768               0.001183337               0.000000000               0.000000000               0.000000000               0.000000000               0.000696439               0.004659062              -0.000631374              -0.000321218               0.001660077               0.001338860               0.000000000               0.000000000               0.000000000               0.000000000               0.001127660               0.004820056              -0.000562161              -0.000179634               0.001666547               0.001486913               0.000000000               0.000000000               0.000000000               0.000000000               0.001612806               0.004931644              -0.000478572              -0.000011654               0.001647749               0.001636096               0.000000000               0.000000000               0.000000000               0.000000000               0.002172461               0.005004319              -0.000364677               0.000189131               0.001605046               0.001794177               0.000000000               0.000000000               0.000000000               0.000000000               0.002820285               0.005024256              -0.000205542               0.000429571               0.001531545               0.001961116               0.000000000               0.000000000               0.000000000               0.000000000               0.003320000               0.005073392              -0.000123430               0.000610820               0.001487507               0.002098327               0.000000000               0.000000000               0.000000000               0.000000000              -0.012042553              -0.001135640               0.000000000              -0.004373999               0.001079446              -0.003294554               0.000000000               0.000000000               0.000000000               0.000000000              -0.007958017              -0.000615256               0.000000000              -0.002907347               0.000764025              -0.002143322               0.000000000               0.000000000               0.000000000               0.000000000              -0.004783453              -0.000307431              -0.000000000              -0.001755365               0.000482641              -0.001272724               0.000000000               0.000000000               0.000000000               0.000000000              -0.003134677               0.000464851              -0.000000000              -0.001233609               0.000566149              -0.000667460               0.000000000               0.000000000               0.000000000               0.000000000              -0.002171310               0.001268236               0.000000000              -0.000972769               0.000746997              -0.000225773               0.000000000               0.000000000               0.000000000               0.000000000              -0.001536055               0.001991888               0.000000000              -0.000825005               0.000938957               0.000113953               0.000000000               0.000000000               0.000000000               0.000000000              -0.001065332               0.002613555              -0.000000000              -0.000726192               0.001113240               0.000387048               0.000000000               0.000000000               0.000000000               0.000000000              -0.000676569               0.003139723               0.000000000              -0.000646177               0.001261956               0.000615779               0.000000000               0.000000000               0.000000000               0.000000000              -0.000319552               0.003582637               0.000000000              -0.000567660               0.001383420               0.000815760               0.000000000               0.000000000               0.000000000               0.000000000               0.000039605               0.003961321               0.000000000              -0.000480312               0.001480531               0.001000219               0.000000000               0.000000000               0.000000000               0.000000000               0.000411062               0.004280976               0.000000000              -0.000380973               0.001553969               0.001172996               0.000000000               0.000000000               0.000000000               0.000000000               0.000803050               0.004539683              -0.000000000              -0.000266316               0.001601984               0.001335669               0.000000000               0.000000000               0.000000000               0.000000000               0.001238649               0.004737609              -0.000000000              -0.000127708               0.001621756               0.001494049               0.000000000               0.000000000               0.000000000               0.000000000               0.001741370               0.004884882               0.000000000               0.000042403               0.001614143               0.001656546               0.000000000               0.000000000               0.000000000               0.000000000               0.002338399               0.004985736               0.000000000               0.000253680               0.001577335               0.001831015               0.000000000               0.000000000               0.000000000               0.000000000               0.003060344               0.005018998              -0.000000000               0.000520249               0.001499566               0.002019815               0.000000000               0.000000000               0.000000000               0.000000000               0.003637274               0.005079166              -0.000000000               0.000729075               0.001450013               0.002179088               0.000000000               0.000000000               0.000000000               0.000000000               0.000000000               0.000000000               0.000000000               0.000000000               0.000000000               0.000000000               0.000000000               0.000000000               0.000000000               0.000000000               0.000000000               0.000000000               0.000000000               0.000000000               0.000000000               0.000000000               0.000000000               0.000000000               0.000000000               0.000000000               0.000000000               0.000000000               0.000000000               0.000000000               0.000000000               0.000000000               0.000000000               0.000000000               0.000000000               0.000000000               0.000000000               0.000000000               0.000000000               0.000000000               0.000000000               0.000000000               0.000000000               0.000000000               0.000000000               0.000000000               0.000000000               0.000000000               0.000000000               0.000000000               0.000000000               0.000000000               0.000000000               0.000000000               0.000000000               0.000000000               0.000000000               0.000000000               0.000000000               0.000000000               0.000000000               0.000000000               0.000000000               0.000000000               0.000000000               0.000000000               0.000000000               0.000000000               0.000000000               0.000000000               0.000000000               0.000000000               0.000000000               0.000000000               0.000000000               0.000000000               0.000000000               0.000000000               0.000000000               0.000000000               0.000000000               0.000000000               0.000000000               0.000000000               0.000000000               0.000000000               0.000000000               0.000000000               0.000000000               0.000000000               0.000000000               0.000000000               0.000000000               0.000000000               0.000000000               0.000000000               0.000000000               0.000000000               0.000000000               0.000000000               0.000000000               0.000000000               0.000000000               0.000000000               0.000000000               0.000000000               0.000000000               0.000000000               0.000000000               0.000000000               0.000000000               0.000000000               0.000000000               0.000000000               0.000000000               0.000000000               0.000000000               0.000000000               0.000000000               0.000000000               0.000000000               0.000000000               0.000000000               0.000000000               0.000000000               0.000000000               0.000000000               0.000000000               0.000000000               0.000000000               0.000000000               0.000000000               0.000000000               0.000000000               0.000000000               0.000000000               0.000000000               0.000000000               0.000000000               0.000000000               0.000000000               0.000000000               0.000000000               0.000000000               0.000000000               0.000000000               0.000000000               0.000000000               0.000000000               0.000000000               0.000000000               0.000000000               0.000000000               0.000000000               0.000000000               0.000000000               0.000000000               0.000000000               0.000000000               0.000000000               0.000000000               0.000000000               0.000000000               0.000000000               0.000000000               0.000000000               0.000000000               0.000000000               0.000000000               0.000000000               0.000000000               0.000000000               0.000000000               0.000000000               0.000000000               0.000000000               0.002307951               0.023756081               0.001661941              -0.002104024               0.008619956               0.006515932               0.000000000               0.000000000               0.000000000               0.000000000               0.002149904               0.018587346               0.000827435              -0.001517201               0.006701453               0.005184253               0.000000000               0.000000000               0.000000000               0.000000000               0.002701509               0.014412669               0.000000036              -0.000788516               0.005067014               0.004278498               0.000000000               0.000000000               0.000000000               0.000000000               0.002531279               0.012038793              -0.000349458              -0.000555618               0.004198097               0.003642479               0.000000000               0.000000000               0.000000000               0.000000000               0.002158236               0.010541796              -0.000492373              -0.000508385               0.003683359               0.003174974               0.000000000               0.000000000               0.000000000               0.000000000               0.001750932               0.009504414              -0.000537326              -0.000531451               0.003345257               0.002813806               0.000000000               0.000000000               0.000000000               0.000000000               0.001377623               0.008722915              -0.000537532              -0.000573754               0.003098861               0.002525106               0.000000000               0.000000000               0.000000000               0.000000000               0.001058830               0.008094150              -0.000518833              -0.000614706               0.002902925               0.002288219               0.000000000               0.000000000               0.000000000               0.000000000               0.000788691               0.007557709              -0.000495346              -0.000648953               0.002735529               0.002086576               0.000000000               0.000000000               0.000000000               0.000000000               0.000558234               0.007076034              -0.000469821              -0.000675165               0.002583709               0.001908545               0.000000000               0.000000000               0.000000000               0.000000000               0.000365959               0.006620556              -0.000435948              -0.000690333               0.002436941               0.001746608               0.000000000               0.000000000               0.000000000               0.000000000               0.000213997               0.006164342              -0.000394692              -0.000690292               0.002284858               0.001594565               0.000000000               0.000000000               0.000000000               0.000000000               0.000104181               0.005693283              -0.000348476              -0.000672591               0.002121939               0.001449348               0.000000000               0.000000000               0.000000000               0.000000000               0.000026459               0.005195344              -0.000297748              -0.000639494               0.001944929               0.001305435               0.000000000               0.000000000               0.000000000               0.000000000              -0.000019718               0.004655587              -0.000230391              -0.000589341               0.001748294               0.001158953               0.000000000               0.000000000               0.000000000               0.000000000              -0.000023871               0.004055646              -0.000130534              -0.000515906               0.001523837               0.001007931               0.000000000               0.000000000               0.000000000               0.000000000              -0.000063973               0.003602000              -0.000083623              -0.000474239               0.001358734               0.000884495               0.000000000               0.000000000               0.000000000               0.000000000               0.002502375               0.022308826               0.003080237              -0.001850209               0.008052937               0.006202728               0.000000000               0.000000000               0.000000000               0.000000000               0.001999101               0.017643093               0.001529114              -0.001455721               0.006366212               0.004910491               0.000000000               0.000000000               0.000000000               0.000000000               0.002177534               0.013991019               0.000007352              -0.000932300               0.004974393               0.004042093               0.000000000               0.000000000               0.000000000               0.000000000               0.001863555               0.011880221              -0.000613244              -0.000786193               0.004222098               0.003435906               0.000000000               0.000000000               0.000000000               0.000000000               0.001458610               0.010510495              -0.000857990              -0.000766831               0.003759074               0.002992242               0.000000000               0.000000000               0.000000000               0.000000000               0.001075575               0.009533240              -0.000929845              -0.000788313               0.003440486               0.002652173               0.000000000               0.000000000               0.000000000               0.000000000               0.000753686               0.008777542              -0.000925768              -0.000814559               0.003197338               0.002382779               0.000000000               0.000000000               0.000000000               0.000000000               0.000497326               0.008155712              -0.000893423              -0.000832965               0.002996198               0.002163233               0.000000000               0.000000000               0.000000000               0.000000000               0.000294465               0.007615891              -0.000853549              -0.000841560               0.002819125               0.001977565               0.000000000               0.000000000               0.000000000               0.000000000               0.000133617               0.007124308              -0.000809836              -0.000840430               0.002654889               0.001814459               0.000000000               0.000000000               0.000000000               0.000000000               0.000012375               0.006656691              -0.000751682              -0.000827444               0.002494689               0.001667246               0.000000000               0.000000000               0.000000000               0.000000000              -0.000069920               0.006195227              -0.000679457              -0.000800622               0.002331929               0.001531307               0.000000000               0.000000000               0.000000000               0.000000000              -0.000112673               0.005729418              -0.000601965              -0.000758428               0.002162596               0.001404168               0.000000000               0.000000000               0.000000000               0.000000000              -0.000122832               0.005253060              -0.000513570              -0.000702693               0.001985234               0.001282541               0.000000000               0.000000000               0.000000000               0.000000000              -0.000105766               0.004759568              -0.000393704              -0.000634607               0.001798042               0.001163436               0.000000000               0.000000000               0.000000000               0.000000000              -0.000061668               0.004253641              -0.000222724              -0.000554829               0.001602809               0.001047980               0.000000000               0.000000000               0.000000000               0.000000000              -0.000073278               0.003898082              -0.000139623              -0.000514738               0.001470927               0.000956189               0.000000000               0.000000000               0.000000000               0.000000000               0.002681765               0.020094504               0.004080989              -0.001506150               0.007200150               0.005694001               0.000000000               0.000000000               0.000000000               0.000000000               0.001700083               0.016227417               0.002029831              -0.001390893               0.005872716               0.004481822               0.000000000               0.000000000               0.000000000               0.000000000               0.001366176               0.013358876               0.000044198              -0.001157541               0.004838761               0.003681220               0.000000000               0.000000000               0.000000000               0.000000000               0.000889221               0.011622375              -0.000721299              -0.001119336               0.004247198               0.003127862               0.000000000               0.000000000               0.000000000               0.000000000               0.000474767               0.010428679              -0.001007727              -0.001125545               0.003851373               0.002725828               0.000000000               0.000000000               0.000000000               0.000000000               0.000153530               0.009530452              -0.001087026              -0.001133730               0.003554696               0.002420965               0.000000000               0.000000000               0.000000000               0.000000000              -0.000078090               0.008807000              -0.001077447              -0.001130156               0.003312356               0.002182200               0.000000000               0.000000000               0.000000000               0.000000000              -0.000232724               0.008194307              -0.001037584              -0.001111557               0.003101927               0.001990370               0.000000000               0.000000000               0.000000000               0.000000000              -0.000332240               0.007653690              -0.000989684              -0.001081299               0.002911637               0.001830339               0.000000000               0.000000000               0.000000000               0.000000000              -0.000392906               0.007153274              -0.000936029              -0.001041497               0.002731566               0.001690069               0.000000000               0.000000000               0.000000000               0.000000000              -0.000412905               0.006675555              -0.000866519              -0.000989282               0.002554923               0.001565641               0.000000000               0.000000000               0.000000000               0.000000000              -0.000393141               0.006212230              -0.000780217              -0.000923954               0.002378707               0.001454753               0.000000000               0.000000000               0.000000000               0.000000000              -0.000341803               0.005760775              -0.000683706              -0.000848271               0.002202996               0.001354725               0.000000000               0.000000000               0.000000000               0.000000000              -0.000268817               0.005323234              -0.000571490              -0.000766209               0.002029797               0.001263588               0.000000000               0.000000000               0.000000000               0.000000000              -0.000180847               0.004911948              -0.000427557              -0.000681810               0.001864570               0.001182760               0.000000000               0.000000000               0.000000000               0.000000000              -0.000089705               0.004551478              -0.000237625              -0.000602573               0.001718002               0.001115429               0.000000000               0.000000000               0.000000000               0.000000000              -0.000068941               0.004336266              -0.000142543              -0.000567885               0.001634703               0.001066818               0.000000000               0.000000000               0.000000000               0.000000000               0.002709470               0.017394637               0.004571207              -0.001158279               0.006184246               0.005025967               0.000000000               0.000000000               0.000000000               0.000000000               0.001230232               0.014533660               0.002306107              -0.001355368               0.005296294               0.003940926               0.000000000               0.000000000               0.000000000               0.000000000               0.000363325               0.012600890               0.000147083              -0.001438861               0.004679875               0.003241014               0.000000000               0.000000000               0.000000000               0.000000000              -0.000224404               0.011267057              -0.000632884              -0.001492530               0.004253158               0.002760628               0.000000000               0.000000000               0.000000000               0.000000000              -0.000590385               0.010257460              -0.000910069              -0.001503573               0.003920310               0.002416737               0.000000000               0.000000000               0.000000000               0.000000000              -0.000800278               0.009444572              -0.000984152              -0.001480672               0.003641716               0.002161044               0.000000000               0.000000000               0.000000000               0.000000000              -0.000903174               0.008756598              -0.000975758              -0.001433262               0.003396591               0.001963329               0.000000000               0.000000000               0.000000000               0.000000000              -0.000928728               0.008160440              -0.000941854              -0.001368325               0.003176228               0.001807903               0.000000000               0.000000000               0.000000000               0.000000000              -0.000902772               0.007626412              -0.000898594              -0.001291838               0.002972724               0.001680886               0.000000000               0.000000000               0.000000000               0.000000000              -0.000837579               0.007123471              -0.000847953              -0.001204523               0.002775974               0.001571451               0.000000000               0.000000000               0.000000000               0.000000000              -0.000737849               0.006641060              -0.000781747              -0.001106823               0.002582606               0.001475782               0.000000000               0.000000000               0.000000000               0.000000000              -0.000615031               0.006183685              -0.000696688              -0.001003595               0.002395739               0.001392144               0.000000000               0.000000000               0.000000000               0.000000000              -0.000478378               0.005763132              -0.000598540              -0.000899781               0.002220952               0.001321171               0.000000000               0.000000000               0.000000000               0.000000000              -0.000339606               0.005389610              -0.000483004              -0.000801052               0.002063536               0.001262484               0.000000000               0.000000000               0.000000000               0.000000000              -0.000208315               0.005080071              -0.000345533              -0.000713125               0.001931048               0.001217923               0.000000000               0.000000000               0.000000000               0.000000000              -0.000095627               0.004857210              -0.000185300              -0.000643010               0.001833390               0.001190381               0.000000000               0.000000000               0.000000000               0.000000000              -0.000055260               0.004754161              -0.000105120              -0.000614991               0.001789702               0.001174710               0.000000000               0.000000000               0.000000000               0.000000000               0.002460314               0.014489333               0.004572861              -0.000888551               0.005125912               0.004237361               0.000000000               0.000000000               0.000000000               0.000000000               0.000590581               0.012737867               0.002396379              -0.001370764               0.004702834               0.003332070               0.000000000               0.000000000               0.000000000               0.000000000              -0.000711209               0.011774012               0.000346710              -0.001738450               0.004504115               0.002765664               0.000000000               0.000000000               0.000000000               0.000000000              -0.001306493               0.010823608              -0.000355222              -0.001842881               0.004222127               0.002379246               0.000000000               0.000000000               0.000000000               0.000000000              -0.001550873               0.009985781              -0.000604928              -0.001829796               0.003938492               0.002108697               0.000000000               0.000000000               0.000000000               0.000000000              -0.001607869               0.009254720              -0.000680206              -0.001759786               0.003671471               0.001911685               0.000000000               0.000000000               0.000000000               0.000000000              -0.001559592               0.008609580              -0.000686291              -0.001661040               0.003423511               0.001762471               0.000000000               0.000000000               0.000000000               0.000000000              -0.001444101               0.008039006              -0.000672392              -0.001546410               0.003195112               0.001648702               0.000000000               0.000000000               0.000000000               0.000000000              -0.001286806               0.007511453              -0.000647038              -0.001421481               0.002977619               0.001556139               0.000000000               0.000000000               0.000000000               0.000000000              -0.001099444               0.007005309              -0.000609117              -0.001287952               0.002764397               0.001476445               0.000000000               0.000000000               0.000000000               0.000000000              -0.000892001               0.006526146              -0.000555497              -0.001150266               0.002558782               0.001408516               0.000000000               0.000000000               0.000000000               0.000000000              -0.000683509               0.006090254              -0.000485315              -0.001017595               0.002369263               0.001351667               0.000000000               0.000000000               0.000000000               0.000000000              -0.000489389               0.005713312              -0.000401724              -0.000897683               0.002203646               0.001305963               0.000000000               0.000000000               0.000000000               0.000000000              -0.000318922               0.005405422              -0.000305227              -0.000795271               0.002066880               0.001271608               0.000000000               0.000000000               0.000000000               0.000000000              -0.000175946               0.005176891              -0.000201632              -0.000713089               0.001963309               0.001250220               0.000000000               0.000000000               0.000000000               0.000000000              -0.000070888               0.005032816              -0.000098971              -0.000655683               0.001896150               0.001240466               0.000000000               0.000000000               0.000000000               0.000000000              -0.000035606               0.004975127              -0.000051975              -0.000635241               0.001870106               0.001234865               0.000000000               0.000000000               0.000000000               0.000000000               0.001868316               0.011619792               0.004174739              -0.000751857               0.004123843               0.003371986               0.000000000               0.000000000               0.000000000               0.000000000              -0.000184438               0.010988213               0.002355377              -0.001442689               0.004143597               0.002700908               0.000000000               0.000000000               0.000000000               0.000000000              -0.001733877               0.010922730               0.000641250              -0.002015540               0.004312720               0.002297180               0.000000000               0.000000000               0.000000000               0.000000000              -0.002216554               0.010304320               0.000064242              -0.002119242               0.004141153               0.002021911               0.000000000               0.000000000               0.000000000               0.000000000              -0.002282017               0.009613799              -0.000163155              -0.002057476               0.003890393               0.001832917               0.000000000               0.000000000               0.000000000               0.000000000              -0.002166297               0.008955623              -0.000257650              -0.001931809               0.003629114               0.001697305               0.000000000               0.000000000               0.000000000               0.000000000              -0.001965320               0.008358446              -0.000297316              -0.001781796               0.003380053               0.001598257               0.000000000               0.000000000               0.000000000               0.000000000              -0.001716336               0.007813498              -0.000317560              -0.001620309               0.003144576               0.001524267               0.000000000               0.000000000               0.000000000               0.000000000              -0.001445258               0.007288799              -0.000319856              -0.001453068               0.002913931               0.001460863               0.000000000               0.000000000               0.000000000               0.000000000              -0.001163279               0.006787275              -0.000306156              -0.001284636               0.002690614               0.001405978               0.000000000               0.000000000               0.000000000               0.000000000              -0.000883466               0.006330009              -0.000277458              -0.001122548               0.002484165               0.001361617               0.000000000               0.000000000               0.000000000               0.000000000              -0.000628816               0.005930861              -0.000235561              -0.000977161               0.002302654               0.001325493               0.000000000               0.000000000               0.000000000               0.000000000              -0.000412945               0.005603859              -0.000185590              -0.000855335               0.002153046               0.001297711               0.000000000               0.000000000               0.000000000               0.000000000              -0.000243581               0.005352811              -0.000128712              -0.000760442               0.002037733               0.001277291               0.000000000               0.000000000               0.000000000               0.000000000              -0.000120818               0.005176307              -0.000074141              -0.000692343               0.001956199               0.001263856               0.000000000               0.000000000               0.000000000               0.000000000              -0.000043220               0.005064539              -0.000031111              -0.000649273               0.001904587               0.001255314               0.000000000               0.000000000               0.000000000               0.000000000              -0.000025525               0.005012515              -0.000017935              -0.000636135               0.001882866               0.001246732               0.000000000               0.000000000               0.000000000               0.000000000               0.000966626               0.008969902               0.003480310              -0.000758754               0.003242854               0.002484100               0.000000000               0.000000000               0.000000000               0.000000000              -0.001043097               0.009389764               0.002235792              -0.001564879               0.003651516               0.002086637               0.000000000               0.000000000               0.000000000               0.000000000              -0.002601945               0.010061431               0.001022684              -0.002233403               0.004098244               0.001864841               0.000000000               0.000000000               0.000000000               0.000000000              -0.002872173               0.009702710               0.000563976              -0.002289898               0.003997504               0.001707606               0.000000000               0.000000000               0.000000000               0.000000000              -0.002735466               0.009138169               0.000331866              -0.002168066               0.003768715               0.001600649               0.000000000               0.000000000               0.000000000               0.000000000              -0.002450109               0.008557250               0.000195597              -0.001988442               0.003515202               0.001526760               0.000000000               0.000000000               0.000000000               0.000000000              -0.002111698               0.008005797               0.000102885              -0.001792607               0.003266108               0.001473501               0.000000000               0.000000000               0.000000000               0.000000000              -0.001756003               0.007478566               0.000038223              -0.001593318               0.003023936               0.001430618               0.000000000               0.000000000               0.000000000               0.000000000              -0.001401762               0.006964096              -0.000000750              -0.001396169               0.002786732               0.001390562               0.000000000               0.000000000               0.000000000               0.000000000              -0.001059467               0.006487821              -0.000023994              -0.001208275               0.002565343               0.001357069               0.000000000               0.000000000               0.000000000               0.000000000              -0.000748487               0.006070882              -0.000033301              -0.001039540               0.002370121               0.001330580               0.000000000               0.000000000               0.000000000               0.000000000              -0.000488405               0.005726098              -0.000031262              -0.000898912               0.002208318               0.001309406               0.000000000               0.000000000               0.000000000               0.000000000              -0.000288183               0.005456341              -0.000026172              -0.000790109               0.002082132               0.001292022               0.000000000               0.000000000               0.000000000               0.000000000              -0.000146959               0.005260962              -0.000017466              -0.000712728               0.001991212               0.001278484               0.000000000               0.000000000               0.000000000               0.000000000              -0.000060926               0.005130422              -0.000009826              -0.000664149               0.001931506               0.001267358               0.000000000               0.000000000               0.000000000               0.000000000              -0.000019254               0.005049864              -0.000005257              -0.000638452               0.001896088               0.001257637               0.000000000               0.000000000               0.000000000               0.000000000              -0.000016007               0.005011555              -0.000007839              -0.000632446               0.001881317               0.001248871               0.000000000               0.000000000               0.000000000               0.000000000              -0.000112375               0.006731552               0.002620659              -0.000883584               0.002538356               0.001654771               0.000000000               0.000000000               0.000000000               0.000000000              -0.001867215               0.007967159               0.002092526              -0.001696097               0.003221058               0.001524961               0.000000000               0.000000000               0.000000000               0.000000000              -0.003257273               0.009219213               0.001472067              -0.002373873               0.003864331               0.001490458               0.000000000               0.000000000               0.000000000               0.000000000              -0.003302326               0.009125060               0.001093576              -0.002378999               0.003834656               0.001455657               0.000000000               0.000000000               0.000000000               0.000000000              -0.003002094               0.008710318               0.000834063              -0.002214569               0.003641600               0.001427031               0.000000000               0.000000000               0.000000000               0.000000000              -0.002585306               0.008225141               0.000643600              -0.001997627               0.003407562               0.001409935               0.000000000               0.000000000               0.000000000               0.000000000              -0.002143151               0.007730247               0.000494242              -0.001769958               0.003166709               0.001396751               0.000000000               0.000000000               0.000000000               0.000000000              -0.001711192               0.007231039               0.000377755              -0.001545573               0.002925513               0.001379940               0.000000000               0.000000000               0.000000000               0.000000000              -0.001299697               0.006742971               0.000291283              -0.001330254               0.002691053               0.001360798               0.000000000               0.000000000               0.000000000               0.000000000              -0.000921066               0.006299950               0.000222209              -0.001132891               0.002477593               0.001344702               0.000000000               0.000000000               0.000000000               0.000000000              -0.000596174               0.005920926               0.000167097              -0.000963679               0.002294848               0.001331170               0.000000000               0.000000000               0.000000000               0.000000000              -0.000340531               0.005612783               0.000121673              -0.000829295               0.002147340               0.001318046               0.000000000               0.000000000               0.000000000               0.000000000              -0.000159360               0.005379241               0.000079322              -0.000732163               0.002037117               0.001304953               0.000000000               0.000000000               0.000000000               0.000000000              -0.000049449               0.005213101               0.000042023              -0.000670179               0.001961076               0.001290897               0.000000000               0.000000000               0.000000000               0.000000000              -0.000000726               0.005104602               0.000013938              -0.000638346               0.001914299               0.001275953               0.000000000               0.000000000               0.000000000               0.000000000               0.000005402               0.005038963              -0.000002580              -0.000627843               0.001888919               0.001261076               0.000000000               0.000000000               0.000000000               0.000000000               0.000001100               0.005015272              -0.000007685              -0.000626495               0.001880572               0.001254077               0.000000000               0.000000000               0.000000000               0.000000000              -0.001382459               0.004673552               0.001712322              -0.001102614               0.001925373               0.000822759               0.000000000               0.000000000               0.000000000               0.000000000              -0.002555412               0.006356328               0.001928010              -0.001752817               0.002703027               0.000950210               0.000000000               0.000000000               0.000000000               0.000000000              -0.003631772               0.008019349               0.001938574              -0.002364328               0.003461198               0.001096871               0.000000000               0.000000000               0.000000000               0.000000000              -0.003551053               0.008295835               0.001655017              -0.002368619               0.003554790               0.001186171               0.000000000               0.000000000               0.000000000               0.000000000              -0.003184241               0.008137028               0.001379065              -0.002211214               0.003449386               0.001238173               0.000000000               0.000000000               0.000000000               0.000000000              -0.002731846               0.007838348               0.001139759              -0.002004231               0.003280833               0.001276602               0.000000000               0.000000000               0.000000000               0.000000000              -0.002262142               0.007487009               0.000936040              -0.001784175               0.003090370               0.001306194               0.000000000               0.000000000               0.000000000               0.000000000              -0.001809850               0.007107435               0.000764157              -0.001567119               0.002891494               0.001324375               0.000000000               0.000000000               0.000000000               0.000000000              -0.001387321               0.006712682               0.000622072              -0.001359327               0.002690647               0.001331320               0.000000000               0.000000000               0.000000000               0.000000000              -0.000995378               0.006332709               0.000504356              -0.001164853               0.002499166               0.001334313               0.000000000               0.000000000               0.000000000               0.000000000              -0.000648916               0.005988860               0.000401325              -0.000991949               0.002326916               0.001334968               0.000000000               0.000000000               0.000000000               0.000000000              -0.000370029               0.005691525               0.000303706              -0.000850200               0.002180556               0.001330356               0.000000000               0.000000000               0.000000000               0.000000000              -0.000166159               0.005449274               0.000210602              -0.000743467               0.002064229               0.001320762               0.000000000               0.000000000               0.000000000               0.000000000              -0.000036381               0.005264984               0.000126712              -0.000671764               0.001978898               0.001307134               0.000000000               0.000000000               0.000000000               0.000000000               0.000029342               0.005135130               0.000058452              -0.000630887               0.001921988               0.001291102               0.000000000               0.000000000               0.000000000               0.000000000               0.000043359               0.005050243               0.000015127              -0.000615019               0.001888404               0.001273385               0.000000000               0.000000000               0.000000000               0.000000000               0.000038884               0.005021423               0.000000886              -0.000613095               0.001878156               0.001265061               0.000000000               0.000000000               0.000000000               0.000000000              -0.003021550               0.002823179               0.000813786              -0.001485976               0.001436375              -0.000049601               0.000000000               0.000000000               0.000000000               0.000000000              -0.003339679               0.004751125               0.001690830              -0.001846266               0.002199114               0.000352848               0.000000000               0.000000000               0.000000000               0.000000000              -0.003916161               0.006632693               0.002303676              -0.002297642               0.002976756               0.000679114               0.000000000               0.000000000               0.000000000               0.000000000              -0.003713711               0.007258844               0.002185061              -0.002299992               0.003186254               0.000886262               0.000000000               0.000000000               0.000000000               0.000000000              -0.003304923               0.007393041               0.001931372              -0.002163471               0.003185479               0.001022008               0.000000000               0.000000000               0.000000000               0.000000000              -0.002845700               0.007321850               0.001669212              -0.001982364               0.003101380               0.001119016               0.000000000               0.000000000               0.000000000               0.000000000              -0.002377907               0.007149572               0.001426940              -0.001785408               0.002978303               0.001192895               0.000000000               0.000000000               0.000000000               0.000000000              -0.001923572               0.006920098               0.001210576              -0.001586348               0.002835459               0.001249111               0.000000000               0.000000000               0.000000000               0.000000000              -0.001494876               0.006648606               0.001022232              -0.001391651               0.002680064               0.001288412               0.000000000               0.000000000               0.000000000               0.000000000              -0.001090365               0.006357674               0.000862823              -0.001203593               0.002520401               0.001316808               0.000000000               0.000000000               0.000000000               0.000000000              -0.000720152               0.006065544               0.000713915              -0.001028248               0.002364577               0.001336329               0.000000000               0.000000000               0.000000000               0.000000000              -0.000403286               0.005792565               0.000567282              -0.000875301               0.002222603               0.001347302               0.000000000               0.000000000               0.000000000               0.000000000              -0.000153766               0.005547279               0.000424022              -0.000751070               0.002099431               0.001348361               0.000000000               0.000000000               0.000000000               0.000000000               0.000022771               0.005342501               0.000289216              -0.000659272               0.002000573               0.001341301               0.000000000               0.000000000               0.000000000               0.000000000               0.000125349               0.005184433               0.000166818              -0.000601047               0.001928476               0.001327429               0.000000000               0.000000000               0.000000000               0.000000000               0.000156960               0.005074781               0.000068247              -0.000575486               0.001883405               0.001307919               0.000000000               0.000000000               0.000000000               0.000000000               0.000146287               0.005027401               0.000024021              -0.000573566               0.001866972               0.001293406               0.000000000               0.000000000               0.000000000               0.000000000              -0.004923322               0.001301910               0.000003247              -0.002008982               0.001103623              -0.000905359               0.000000000               0.000000000               0.000000000               0.000000000              -0.004261510               0.003235763               0.001366172              -0.002002533               0.001746086              -0.000256447               0.000000000               0.000000000               0.000000000               0.000000000              -0.004137554               0.005069399               0.002458219              -0.002185253               0.002418199               0.000232946               0.000000000               0.000000000               0.000000000               0.000000000              -0.003734233               0.005940845               0.002540564              -0.002142939               0.002694574               0.000551635               0.000000000               0.000000000               0.000000000               0.000000000              -0.003270972               0.006347310               0.002354835              -0.002020024               0.002789090               0.000769066               0.000000000               0.000000000               0.000000000               0.000000000              -0.002807156               0.006511752               0.002106674              -0.001866649               0.002792778               0.000926129               0.000000000               0.000000000               0.000000000               0.000000000              -0.002353031               0.006536894               0.001855729              -0.001699495               0.002745441               0.001045946               0.000000000               0.000000000               0.000000000               0.000000000              -0.001912280               0.006474146               0.001621076              -0.001526370               0.002666817               0.001140447               0.000000000               0.000000000               0.000000000               0.000000000              -0.001485178               0.006352393               0.001412952              -0.001350988               0.002567772               0.001216784               0.000000000               0.000000000               0.000000000               0.000000000              -0.001077772               0.006185803               0.001228405              -0.001177388               0.002454376               0.001276989               0.000000000               0.000000000               0.000000000               0.000000000              -0.000697749               0.005986207               0.001049740              -0.001009930               0.002332025               0.001322096               0.000000000               0.000000000               0.000000000               0.000000000              -0.000352130               0.005777319               0.000869433              -0.000854212               0.002210491               0.001356279               0.000000000               0.000000000               0.000000000               0.000000000              -0.000058255               0.005569229               0.000688423              -0.000717998               0.002095724               0.001377726               0.000000000               0.000000000               0.000000000               0.000000000               0.000169873               0.005374298               0.000508975              -0.000608083               0.001994109               0.001386026               0.000000000               0.000000000               0.000000000               0.000000000               0.000320727               0.005211961               0.000328601              -0.000531221               0.001914377               0.001383155               0.000000000               0.000000000               0.000000000               0.000000000               0.000382208               0.005091722               0.000155413              -0.000493136               0.001861602               0.001368466               0.000000000               0.000000000               0.000000000               0.000000000               0.000375620               0.005033766               0.000069498              -0.000488362               0.001840693               0.001352331               0.000000000               0.000000000               0.000000000               0.000000000              -0.006955896               0.000190554              -0.000602513              -0.002632278               0.000940938              -0.001691340               0.000000000               0.000000000               0.000000000               0.000000000              -0.005272379               0.001896983               0.001002643              -0.002214262               0.001370405              -0.000843857               0.000000000               0.000000000               0.000000000               0.000000000              -0.004327334               0.003469316               0.002374726              -0.002056411               0.001841896              -0.000214516               0.000000000               0.000000000               0.000000000               0.000000000              -0.003643603               0.004459110               0.002632160              -0.001923736               0.002127599               0.000203863               0.000000000               0.000000000               0.000000000               0.000000000              -0.003092217               0.005073254               0.002538430              -0.001793735               0.002288978               0.000495244               0.000000000               0.000000000               0.000000000               0.000000000              -0.002614082               0.005446732               0.002337069              -0.001661119               0.002369265               0.000708146               0.000000000               0.000000000               0.000000000               0.000000000              -0.002172474               0.005663391               0.002111142              -0.001522599               0.002395310               0.000872711               0.000000000               0.000000000               0.000000000               0.000000000              -0.001750203               0.005775142               0.001889755              -0.001378216               0.002384433               0.001006217               0.000000000               0.000000000               0.000000000               0.000000000              -0.001337268               0.005815339               0.001688571              -0.001228391               0.002347890               0.001119499               0.000000000               0.000000000               0.000000000               0.000000000              -0.000936202               0.005797264               0.001503240              -0.001075732               0.002290979               0.001215247               0.000000000               0.000000000               0.000000000               0.000000000              -0.000549867               0.005729354               0.001321022              -0.000922368               0.002217221               0.001294853               0.000000000               0.000000000               0.000000000               0.000000000              -0.000184022               0.005621772               0.001134139              -0.000771728               0.002131148               0.001359419               0.000000000               0.000000000               0.000000000               0.000000000               0.000152637               0.005490858               0.000939144              -0.000629117               0.002039973               0.001410856               0.000000000               0.000000000               0.000000000               0.000000000               0.000443319               0.005348955               0.000732904              -0.000502374               0.001950425               0.001448051               0.000000000               0.000000000               0.000000000               0.000000000               0.000666075               0.005212337               0.000506465              -0.000401763               0.001871350               0.001469586               0.000000000               0.000000000               0.000000000               0.000000000               0.000798663               0.005097214               0.000259003              -0.000337652               0.001811605               0.001473953               0.000000000               0.000000000               0.000000000               0.000000000               0.000833341               0.005041573               0.000130532              -0.000317693               0.001786405               0.001468712               0.000000000               0.000000000               0.000000000               0.000000000              -0.008911629              -0.000520808              -0.000904713              -0.003276758               0.000918643              -0.002358114               0.000000000               0.000000000               0.000000000               0.000000000              -0.006279134               0.000811050               0.000654142              -0.002456054               0.001089027              -0.001367027               0.000000000               0.000000000               0.000000000               0.000000000              -0.004500567               0.001980765               0.002045572              -0.001935306               0.001305347              -0.000629959               0.000000000               0.000000000               0.000000000               0.000000000              -0.003488759               0.002966036               0.002401427              -0.001679036               0.001548345              -0.000130691               0.000000000               0.000000000               0.000000000               0.000000000              -0.002809371               0.003708337               0.002391633              -0.001517053               0.001741783               0.000224730               0.000000000               0.000000000               0.000000000               0.000000000              -0.002291617               0.004248089               0.002253840              -0.001390365               0.001879469               0.000489104               0.000000000               0.000000000               0.000000000               0.000000000              -0.001852935               0.004634115               0.002076390              -0.001274113               0.001969393               0.000695280               0.000000000               0.000000000               0.000000000               0.000000000              -0.001448789               0.004908940               0.001894908              -0.001156912               0.002021933               0.000865022               0.000000000               0.000000000               0.000000000               0.000000000              -0.001057469               0.005105859               0.001724327              -0.001034781               0.002046863               0.001012081               0.000000000               0.000000000               0.000000000               0.000000000              -0.000671653               0.005239871               0.001563964              -0.000906852               0.002048890               0.001142038               0.000000000               0.000000000               0.000000000               0.000000000              -0.000287462               0.005314947               0.001404314              -0.000772165               0.002029019               0.001256854               0.000000000               0.000000000               0.000000000               0.000000000               0.000093744               0.005327818               0.001238921              -0.000630822               0.001986195               0.001355373               0.000000000               0.000000000               0.000000000               0.000000000               0.000470265               0.005292994               0.001062410              -0.000485274               0.001926072               0.001440797               0.000000000               0.000000000               0.000000000               0.000000000               0.000834844               0.005235972               0.000861272              -0.000341430               0.001859116               0.001517687               0.000000000               0.000000000               0.000000000               0.000000000               0.001166846               0.005164460               0.000622352              -0.000207990               0.001790799               0.001582809               0.000000000               0.000000000               0.000000000               0.000000000               0.001441938               0.005084075               0.000335283              -0.000094783               0.001726269               0.001631486               0.000000000               0.000000000               0.000000000               0.000000000               0.001591898               0.005054245               0.000184734              -0.000034819               0.001696338               0.001661519               0.000000000               0.000000000               0.000000000               0.000000000              -0.010551653              -0.000911389              -0.000862761              -0.003842944               0.000977178              -0.002865766               0.000000000               0.000000000               0.000000000               0.000000000              -0.007148372               0.000021467               0.000366155              -0.002683321               0.000901590              -0.001781731               0.000000000               0.000000000               0.000000000               0.000000000              -0.004645510               0.000766986               0.001494882              -0.001837938               0.000868301              -0.000969636               0.000000000               0.000000000               0.000000000               0.000000000              -0.003317849               0.001668625               0.001835362              -0.001452770               0.001040457              -0.000412313               0.000000000               0.000000000               0.000000000               0.000000000              -0.002501926               0.002464572               0.001874513              -0.001246292               0.001236945              -0.000009347               0.000000000               0.000000000               0.000000000               0.000000000              -0.001931708               0.003113330               0.001797589              -0.001113555               0.001408950               0.000295395               0.000000000               0.000000000               0.000000000               0.000000000              -0.001481584               0.003629685               0.001679527              -0.001009303               0.001546317               0.000537014               0.000000000               0.000000000               0.000000000               0.000000000              -0.001086107               0.004037015               0.001553145              -0.000911916               0.001649630               0.000737714               0.000000000               0.000000000               0.000000000               0.000000000              -0.000713481               0.004361535               0.001430062              -0.000812746               0.001724746               0.000911999               0.000000000               0.000000000               0.000000000               0.000000000              -0.000346330               0.004626422               0.001311557              -0.000708175               0.001778183               0.001070008               0.000000000               0.000000000               0.000000000               0.000000000               0.000029395               0.004829400               0.001195347              -0.000592651               0.001807334               0.001214683               0.000000000               0.000000000               0.000000000               0.000000000               0.000422811               0.004961507               0.001076463              -0.000461634               0.001807697               0.001346063               0.000000000               0.000000000               0.000000000               0.000000000               0.000834743               0.005031651               0.000946451              -0.000315928               0.001782509               0.001466582               0.000000000               0.000000000               0.000000000               0.000000000               0.001271079               0.005067593               0.000789546              -0.000156795               0.001741445               0.001584651               0.000000000               0.000000000               0.000000000               0.000000000               0.001730665               0.005076637               0.000588542               0.000014419               0.001687389               0.001701808               0.000000000               0.000000000               0.000000000               0.000000000               0.002198942               0.005049983               0.000327079               0.000193353               0.001618860               0.001812213               0.000000000               0.000000000               0.000000000               0.000000000               0.002523285               0.005061354               0.000191209               0.000313560               0.001582581               0.001896141               0.000000000               0.000000000               0.000000000               0.000000000              -0.011652830              -0.001087502              -0.000518825              -0.004233871               0.001048783              -0.003185088               0.000000000               0.000000000               0.000000000               0.000000000              -0.007744795              -0.000455928               0.000157179              -0.002847305               0.000797120              -0.002050185               0.000000000               0.000000000               0.000000000               0.000000000              -0.004746478              -0.000030088               0.000787432              -0.001776167               0.000582022              -0.001194145               0.000000000               0.000000000               0.000000000               0.000000000              -0.003184316               0.000781497               0.000993809              -0.001291804               0.000691095              -0.000600709               0.000000000               0.000000000               0.000000000               0.000000000              -0.002261701               0.001587885               0.001030323              -0.001046621               0.000878162              -0.000168459               0.000000000               0.000000000               0.000000000               0.000000000              -0.001646249               0.002293154               0.000998294              -0.000903986               0.001065705               0.000161720               0.000000000               0.000000000               0.000000000               0.000000000              -0.001182208               0.002886690               0.000941693              -0.000804163               0.001230274               0.000426112               0.000000000               0.000000000               0.000000000               0.000000000              -0.000791150               0.003380712               0.000878258              -0.000719269               0.001366649               0.000647380               0.000000000               0.000000000               0.000000000               0.000000000              -0.000429643               0.003793383               0.000813434              -0.000635288               0.001476211               0.000840923               0.000000000               0.000000000               0.000000000               0.000000000              -0.000071127               0.004143325               0.000750479              -0.000544587               0.001562624               0.001018036               0.000000000               0.000000000               0.000000000               0.000000000               0.000300488               0.004432917               0.000692088              -0.000441431               0.001624768               0.001183337               0.000000000               0.000000000               0.000000000               0.000000000               0.000696439               0.004659062               0.000631374              -0.000321218               0.001660077               0.001338860               0.000000000               0.000000000               0.000000000               0.000000000               0.001127660               0.004820056               0.000562161              -0.000179634               0.001666547               0.001486913               0.000000000               0.000000000               0.000000000               0.000000000               0.001612806               0.004931644               0.000478572              -0.000011654               0.001647749               0.001636096               0.000000000               0.000000000               0.000000000               0.000000000               0.002172461               0.005004319               0.000364677               0.000189131               0.001605046               0.001794177               0.000000000               0.000000000               0.000000000               0.000000000               0.002820285               0.005024256               0.000205542               0.000429571               0.001531545               0.001961116               0.000000000               0.000000000               0.000000000               0.000000000               0.003320000               0.005073392               0.000123430               0.000610820               0.001487507               0.002098327               0.000000000               0.000000000               0.000000000               0.000000000              -0.012042553              -0.001135640              -0.000000000              -0.004373999               0.001079446              -0.003294554               0.000000000               0.000000000               0.000000000               0.000000000              -0.007958017              -0.000615256               0.000000000              -0.002907347               0.000764025              -0.002143322               0.000000000               0.000000000               0.000000000               0.000000000              -0.004783453              -0.000307431               0.000000000              -0.001755365               0.000482641              -0.001272724               0.000000000               0.000000000               0.000000000               0.000000000              -0.003134677               0.000464851              -0.000000000              -0.001233609               0.000566149              -0.000667460               0.000000000               0.000000000               0.000000000               0.000000000              -0.002171310               0.001268236              -0.000000000              -0.000972769               0.000746997              -0.000225773               0.000000000               0.000000000               0.000000000               0.000000000              -0.001536055               0.001991888               0.000000000              -0.000825005               0.000938957               0.000113953               0.000000000               0.000000000               0.000000000               0.000000000              -0.001065332               0.002613555               0.000000000              -0.000726192               0.001113240               0.000387048               0.000000000               0.000000000               0.000000000               0.000000000              -0.000676569               0.003139723               0.000000000              -0.000646177               0.001261956               0.000615779               0.000000000               0.000000000               0.000000000               0.000000000              -0.000319552               0.003582637               0.000000000              -0.000567660               0.001383420               0.000815760               0.000000000               0.000000000               0.000000000               0.000000000               0.000039605               0.003961321               0.000000000              -0.000480312               0.001480531               0.001000219               0.000000000               0.000000000               0.000000000               0.000000000               0.000411062               0.004280976               0.000000000              -0.000380973               0.001553969               0.001172996               0.000000000               0.000000000               0.000000000               0.000000000               0.000803050               0.004539683               0.000000000              -0.000266316               0.001601984               0.001335669               0.000000000               0.000000000               0.000000000               0.000000000               0.001238649               0.004737609               0.000000000              -0.000127708               0.001621756               0.001494049               0.000000000               0.000000000               0.000000000               0.000000000               0.001741370               0.004884882               0.000000000               0.000042403               0.001614143               0.001656546               0.000000000               0.000000000               0.000000000               0.000000000               0.002338399               0.004985736               0.000000000               0.000253680               0.001577335               0.001831015               0.000000000               0.000000000               0.000000000               0.000000000               0.003060344               0.005018998               0.000000000               0.000520249               0.001499566               0.002019815               0.000000000               0.000000000               0.000000000               0.000000000               0.003637274               0.005079166               0.000000000               0.000729075               0.001450013               0.002179088               0.000000000               0.000000000               0.000000000               0.000000000               0.002223429               0.024256004               0.000000000              -0.002198209               0.008817990               0.006619781               0.000000000               0.000000000               0.000000000               0.000000000               0.002191955               0.018917953              -0.000000000              -0.001542757               0.006820174               0.005277417               0.000000000               0.000000000               0.000000000               0.000000000               0.002880781               0.014557934               0.000000000              -0.000739447               0.005099078               0.004359631               0.000000000               0.000000000               0.000000000               0.000000000               0.002766455               0.012090504               0.000000000              -0.000473891               0.004188092               0.003714200               0.000000000               0.000000000               0.000000000               0.000000000               0.002406393               0.010546973               0.000000000              -0.000415973               0.003654280               0.003238307               0.000000000               0.000000000               0.000000000               0.000000000               0.001994492               0.009488087               0.000000000              -0.000438075               0.003308689               0.002870614               0.000000000               0.000000000               0.000000000               0.000000000               0.001608848               0.008699697              -0.000000000              -0.000484143               0.003061251               0.002577108               0.000000000               0.000000000               0.000000000               0.000000000               0.001272902               0.008069583              -0.000000000              -0.000531358               0.002866954               0.002335595               0.000000000               0.000000000               0.000000000               0.000000000               0.000980977               0.007533699              -0.000000000              -0.000573845               0.002702489               0.002128645               0.000000000               0.000000000               0.000000000               0.000000000               0.000726421               0.007056819               0.000000000              -0.000609693               0.002555480               0.001945787               0.000000000               0.000000000               0.000000000               0.000000000               0.000509300               0.006605979               0.000000000              -0.000634758               0.002413557               0.001778799               0.000000000               0.000000000               0.000000000               0.000000000               0.000333874               0.006153094               0.000000000              -0.000643932               0.002265655               0.001621722               0.000000000               0.000000000               0.000000000               0.000000000               0.000200542               0.005680360              -0.000000000              -0.000634840               0.002105048               0.001470208               0.000000000               0.000000000               0.000000000               0.000000000               0.000097245               0.005170543              -0.000000000              -0.000609849               0.001926780               0.001316931               0.000000000               0.000000000               0.000000000               0.000000000               0.000028088               0.004614665               0.000000000              -0.000566299               0.001726972               0.001160674               0.000000000               0.000000000               0.000000000               0.000000000               0.000001234               0.003985501              -0.000000000              -0.000497723               0.001494395               0.000996671               0.000000000               0.000000000               0.000000000               0.000000000              -0.000052859               0.003501843               0.000000000              -0.000457551               0.001319787               0.000862235               0.000000000               0.000000000               0.000000000               0.000000000               0.002307951               0.023756081              -0.001661941              -0.002104024               0.008619956               0.006515932               0.000000000               0.000000000               0.000000000               0.000000000               0.002149904               0.018587346              -0.000827435              -0.001517201               0.006701453               0.005184253               0.000000000               0.000000000               0.000000000               0.000000000               0.002701509               0.014412669              -0.000000036              -0.000788516               0.005067014               0.004278498               0.000000000               0.000000000               0.000000000               0.000000000               0.002531279               0.012038793               0.000349458              -0.000555618               0.004198097               0.003642479               0.000000000               0.000000000               0.000000000               0.000000000               0.002158236               0.010541796               0.000492373              -0.000508385               0.003683359               0.003174974               0.000000000               0.000000000               0.000000000               0.000000000               0.001750932               0.009504414               0.000537326              -0.000531451               0.003345257               0.002813806               0.000000000               0.000000000               0.000000000               0.000000000               0.001377623               0.008722915               0.000537532              -0.000573754               0.003098861               0.002525106               0.000000000               0.000000000               0.000000000               0.000000000               0.001058830               0.008094150               0.000518833              -0.000614706               0.002902925               0.002288219               0.000000000               0.000000000               0.000000000               0.000000000               0.000788691               0.007557709               0.000495346              -0.000648953               0.002735529               0.002086576               0.000000000               0.000000000               0.000000000               0.000000000               0.000558234               0.007076034               0.000469821              -0.000675165               0.002583709               0.001908545               0.000000000               0.000000000               0.000000000               0.000000000               0.000365959               0.006620556               0.000435948              -0.000690333               0.002436941               0.001746608               0.000000000               0.000000000               0.000000000               0.000000000               0.000213997               0.006164342               0.000394692              -0.000690292               0.002284858               0.001594565               0.000000000               0.000000000               0.000000000               0.000000000               0.000104181               0.005693283               0.000348476              -0.000672591               0.002121939               0.001449348               0.000000000               0.000000000               0.000000000               0.000000000               0.000026459               0.005195344               0.000297748              -0.000639494               0.001944929               0.001305435               0.000000000               0.000000000               0.000000000               0.000000000              -0.000019718               0.004655587               0.000230391              -0.000589341               0.001748294               0.001158953               0.000000000               0.000000000               0.000000000               0.000000000              -0.000023871               0.004055646               0.000130534              -0.000515906               0.001523837               0.001007931               0.000000000               0.000000000               0.000000000               0.000000000              -0.000063973               0.003602000               0.000083623              -0.000474239               0.001358734               0.000884495               0.000000000               0.000000000               0.000000000               0.000000000               0.002502375               0.022308826              -0.003080237              -0.001850209               0.008052937               0.006202728               0.000000000               0.000000000               0.000000000               0.000000000               0.001999101               0.017643093              -0.001529114              -0.001455721               0.006366212               0.004910491               0.000000000               0.000000000               0.000000000               0.000000000               0.002177534               0.013991019              -0.000007352              -0.000932300               0.004974393               0.004042093               0.000000000               0.000000000               0.000000000               0.000000000               0.001863555               0.011880221               0.000613244              -0.000786193               0.004222098               0.003435906               0.000000000               0.000000000               0.000000000               0.000000000               0.001458610               0.010510495               0.000857990              -0.000766831               0.003759074               0.002992242               0.000000000               0.000000000               0.000000000               0.000000000               0.001075575               0.009533240               0.000929845              -0.000788313               0.003440486               0.002652173               0.000000000               0.000000000               0.000000000               0.000000000               0.000753686               0.008777542               0.000925768              -0.000814559               0.003197338               0.002382779               0.000000000               0.000000000               0.000000000               0.000000000               0.000497326               0.008155712               0.000893423              -0.000832965               0.002996198               0.002163233               0.000000000               0.000000000               0.000000000               0.000000000               0.000294465               0.007615891               0.000853549              -0.000841560               0.002819125               0.001977565               0.000000000               0.000000000               0.000000000               0.000000000               0.000133617               0.007124308               0.000809836              -0.000840430               0.002654889               0.001814459               0.000000000               0.000000000               0.000000000               0.000000000               0.000012375               0.006656691               0.000751682              -0.000827444               0.002494689               0.001667246               0.000000000               0.000000000               0.000000000               0.000000000              -0.000069920               0.006195227               0.000679457              -0.000800622               0.002331929               0.001531307               0.000000000               0.000000000               0.000000000               0.000000000              -0.000112673               0.005729418               0.000601965              -0.000758428               0.002162596               0.001404168               0.000000000               0.000000000               0.000000000               0.000000000              -0.000122832               0.005253060               0.000513570              -0.000702693               0.001985234               0.001282541               0.000000000               0.000000000               0.000000000               0.000000000              -0.000105766               0.004759568               0.000393704              -0.000634607               0.001798042               0.001163436               0.000000000               0.000000000               0.000000000               0.000000000              -0.000061668               0.004253641               0.000222724              -0.000554829               0.001602809               0.001047980               0.000000000               0.000000000               0.000000000               0.000000000              -0.000073278               0.003898082               0.000139623              -0.000514738               0.001470927               0.000956189               0.000000000               0.000000000               0.000000000               0.000000000               0.002681765               0.020094504              -0.004080989              -0.001506150               0.007200150               0.005694001               0.000000000               0.000000000               0.000000000               0.000000000               0.001700083               0.016227417              -0.002029831              -0.001390893               0.005872716               0.004481822               0.000000000               0.000000000               0.000000000               0.000000000               0.001366176               0.013358876              -0.000044198              -0.001157541               0.004838761               0.003681220               0.000000000               0.000000000               0.000000000               0.000000000               0.000889221               0.011622375               0.000721299              -0.001119336               0.004247198               0.003127862               0.000000000               0.000000000               0.000000000               0.000000000               0.000474767               0.010428679               0.001007727              -0.001125545               0.003851373               0.002725828               0.000000000               0.000000000               0.000000000               0.000000000               0.000153530               0.009530452               0.001087026              -0.001133730               0.003554696               0.002420965               0.000000000               0.000000000               0.000000000               0.000000000              -0.000078090               0.008807000               0.001077447              -0.001130156               0.003312356               0.002182200               0.000000000               0.000000000               0.000000000               0.000000000              -0.000232724               0.008194307               0.001037584              -0.001111557               0.003101927               0.001990370               0.000000000               0.000000000               0.000000000               0.000000000              -0.000332240               0.007653690               0.000989684              -0.001081299               0.002911637               0.001830339               0.000000000               0.000000000               0.000000000               0.000000000              -0.000392906               0.007153274               0.000936029              -0.001041497               0.002731566               0.001690069               0.000000000               0.000000000               0.000000000               0.000000000              -0.000412905               0.006675555               0.000866519              -0.000989282               0.002554923               0.001565641               0.000000000               0.000000000               0.000000000               0.000000000              -0.000393141               0.006212230               0.000780217              -0.000923954               0.002378707               0.001454753               0.000000000               0.000000000               0.000000000               0.000000000              -0.000341803               0.005760775               0.000683706              -0.000848271               0.002202996               0.001354725               0.000000000               0.000000000               0.000000000               0.000000000              -0.000268817               0.005323234               0.000571490              -0.000766209               0.002029797               0.001263588               0.000000000               0.000000000               0.000000000               0.000000000              -0.000180847               0.004911948               0.000427557              -0.000681810               0.001864570               0.001182760               0.000000000               0.000000000               0.000000000               0.000000000              -0.000089705               0.004551478               0.000237625              -0.000602573               0.001718002               0.001115429               0.000000000               0.000000000               0.000000000               0.000000000              -0.000068941               0.004336266               0.000142543              -0.000567885               0.001634703               0.001066818               0.000000000               0.000000000               0.000000000               0.000000000               0.002709470               0.017394637              -0.004571207              -0.001158279               0.006184246               0.005025967               0.000000000               0.000000000               0.000000000               0.000000000               0.001230232               0.014533660              -0.002306107              -0.001355368               0.005296294               0.003940926               0.000000000               0.000000000               0.000000000               0.000000000               0.000363325               0.012600890              -0.000147083              -0.001438861               0.004679875               0.003241014               0.000000000               0.000000000               0.000000000               0.000000000              -0.000224404               0.011267057               0.000632884              -0.001492530               0.004253158               0.002760628               0.000000000               0.000000000               0.000000000               0.000000000              -0.000590385               0.010257460               0.000910069              -0.001503573               0.003920310               0.002416737               0.000000000               0.000000000               0.000000000               0.000000000              -0.000800278               0.009444572               0.000984152              -0.001480672               0.003641716               0.002161044               0.000000000               0.000000000               0.000000000               0.000000000              -0.000903174               0.008756598               0.000975758              -0.001433262               0.003396591               0.001963329               0.000000000               0.000000000               0.000000000               0.000000000              -0.000928728               0.008160440               0.000941854              -0.001368325               0.003176228               0.001807903               0.000000000               0.000000000               0.000000000               0.000000000              -0.000902772               0.007626412               0.000898594              -0.001291838               0.002972724               0.001680886               0.000000000               0.000000000               0.000000000               0.000000000              -0.000837579               0.007123471               0.000847953              -0.001204523               0.002775974               0.001571451               0.000000000               0.000000000               0.000000000               0.000000000              -0.000737849               0.006641060               0.000781747              -0.001106823               0.002582606               0.001475782               0.000000000               0.000000000               0.000000000               0.000000000              -0.000615031               0.006183685               0.000696688              -0.001003595               0.002395739               0.001392144               0.000000000               0.000000000               0.000000000               0.000000000              -0.000478378               0.005763132               0.000598540              -0.000899781               0.002220952               0.001321171               0.000000000               0.000000000               0.000000000               0.000000000              -0.000339606               0.005389610               0.000483004              -0.000801052               0.002063536               0.001262484               0.000000000               0.000000000               0.000000000               0.000000000              -0.000208315               0.005080071               0.000345533              -0.000713125               0.001931048               0.001217923               0.000000000               0.000000000               0.000000000               0.000000000              -0.000095627               0.004857210               0.000185300              -0.000643010               0.001833390               0.001190381               0.000000000               0.000000000               0.000000000               0.000000000              -0.000055260               0.004754161               0.000105120              -0.000614991               0.001789702               0.001174710               0.000000000               0.000000000               0.000000000               0.000000000               0.002460314               0.014489333              -0.004572861              -0.000888551               0.005125912               0.004237361               0.000000000               0.000000000               0.000000000               0.000000000               0.000590581               0.012737867              -0.002396379              -0.001370764               0.004702834               0.003332070               0.000000000               0.000000000               0.000000000               0.000000000              -0.000711209               0.011774012              -0.000346710              -0.001738450               0.004504115               0.002765664               0.000000000               0.000000000               0.000000000               0.000000000              -0.001306493               0.010823608               0.000355222              -0.001842881               0.004222127               0.002379246               0.000000000               0.000000000               0.000000000               0.000000000              -0.001550873               0.009985781               0.000604928              -0.001829796               0.003938492               0.002108697               0.000000000               0.000000000               0.000000000               0.000000000              -0.001607869               0.009254720               0.000680206              -0.001759786               0.003671471               0.001911685               0.000000000               0.000000000               0.000000000               0.000000000              -0.001559592               0.008609580               0.000686291              -0.001661040               0.003423511               0.001762471               0.000000000               0.000000000               0.000000000               0.000000000              -0.001444101               0.008039006               0.000672392              -0.001546410               0.003195112               0.001648702               0.000000000               0.000000000               0.000000000               0.000000000              -0.001286806               0.007511453               0.000647038              -0.001421481               0.002977619               0.001556139               0.000000000               0.000000000               0.000000000               0.000000000              -0.001099444               0.007005309               0.000609117              -0.001287952               0.002764397               0.001476445               0.000000000               0.000000000               0.000000000               0.000000000              -0.000892001               0.006526146               0.000555497              -0.001150266               0.002558782               0.001408516               0.000000000               0.000000000               0.000000000               0.000000000              -0.000683509               0.006090254               0.000485315              -0.001017595               0.002369263               0.001351667               0.000000000               0.000000000               0.000000000               0.000000000              -0.000489389               0.005713312               0.000401724              -0.000897683               0.002203646               0.001305963               0.000000000               0.000000000               0.000000000               0.000000000              -0.000318922               0.005405422               0.000305227              -0.000795271               0.002066880               0.001271608               0.000000000               0.000000000               0.000000000               0.000000000              -0.000175946               0.005176891               0.000201632              -0.000713089               0.001963309               0.001250220               0.000000000               0.000000000               0.000000000               0.000000000              -0.000070888               0.005032816               0.000098971              -0.000655683               0.001896150               0.001240466               0.000000000               0.000000000               0.000000000               0.000000000              -0.000035606               0.004975127               0.000051975              -0.000635241               0.001870106               0.001234865               0.000000000               0.000000000               0.000000000               0.000000000               0.001868316               0.011619792              -0.004174739              -0.000751857               0.004123843               0.003371986               0.000000000               0.000000000               0.000000000               0.000000000              -0.000184438               0.010988213              -0.002355377              -0.001442689               0.004143597               0.002700908               0.000000000               0.000000000               0.000000000               0.000000000              -0.001733877               0.010922730              -0.000641250              -0.002015540               0.004312720               0.002297180               0.000000000               0.000000000               0.000000000               0.000000000              -0.002216554               0.010304320              -0.000064242              -0.002119242               0.004141153               0.002021911               0.000000000               0.000000000               0.000000000               0.000000000              -0.002282017               0.009613799               0.000163155              -0.002057476               0.003890393               0.001832917               0.000000000               0.000000000               0.000000000               0.000000000              -0.002166297               0.008955623               0.000257650              -0.001931809               0.003629114               0.001697305               0.000000000               0.000000000               0.000000000               0.000000000              -0.001965320               0.008358446               0.000297316              -0.001781796               0.003380053               0.001598257               0.000000000               0.000000000               0.000000000               0.000000000              -0.001716336               0.007813498               0.000317560              -0.001620309               0.003144576               0.001524267               0.000000000               0.000000000               0.000000000               0.000000000              -0.001445258               0.007288799               0.000319856              -0.001453068               0.002913931               0.001460863               0.000000000               0.000000000               0.000000000               0.000000000              -0.001163279               0.006787275               0.000306156              -0.001284636               0.002690614               0.001405978               0.000000000               0.000000000               0.000000000               0.000000000              -0.000883466               0.006330009               0.000277458              -0.001122548               0.002484165               0.001361617               0.000000000               0.000000000               0.000000000               0.000000000              -0.000628816               0.005930861               0.000235561              -0.000977161               0.002302654               0.001325493               0.000000000               0.000000000               0.000000000               0.000000000              -0.000412945               0.005603859               0.000185590              -0.000855335               0.002153046               0.001297711               0.000000000               0.000000000               0.000000000               0.000000000              -0.000243581               0.005352811               0.000128712              -0.000760442               0.002037733               0.001277291               0.000000000               0.000000000               0.000000000               0.000000000              -0.000120818               0.005176307               0.000074141              -0.000692343               0.001956199               0.001263856               0.000000000               0.000000000               0.000000000               0.000000000              -0.000043220               0.005064539               0.000031111              -0.000649273               0.001904587               0.001255314               0.000000000               0.000000000               0.000000000               0.000000000              -0.000025525               0.005012515               0.000017935              -0.000636135               0.001882866               0.001246732               0.000000000               0.000000000               0.000000000               0.000000000               0.000966626               0.008969902              -0.003480310              -0.000758754               0.003242854               0.002484100               0.000000000               0.000000000               0.000000000               0.000000000              -0.001043097               0.009389764              -0.002235792              -0.001564879               0.003651516               0.002086637               0.000000000               0.000000000               0.000000000               0.000000000              -0.002601945               0.010061431              -0.001022684              -0.002233403               0.004098244               0.001864841               0.000000000               0.000000000               0.000000000               0.000000000              -0.002872173               0.009702710              -0.000563976              -0.002289898               0.003997504               0.001707606               0.000000000               0.000000000               0.000000000               0.000000000              -0.002735466               0.009138169              -0.000331866              -0.002168066               0.003768715               0.001600649               0.000000000               0.000000000               0.000000000               0.000000000              -0.002450109               0.008557250              -0.000195597              -0.001988442               0.003515202               0.001526760               0.000000000               0.000000000               0.000000000               0.000000000              -0.002111698               0.008005797              -0.000102885              -0.001792607               0.003266108               0.001473501               0.000000000               0.000000000               0.000000000               0.000000000              -0.001756003               0.007478566              -0.000038223              -0.001593318               0.003023936               0.001430618               0.000000000               0.000000000               0.000000000               0.000000000              -0.001401762               0.006964096               0.000000750              -0.001396169               0.002786732               0.001390562               0.000000000               0.000000000               0.000000000               0.000000000              -0.001059467               0.006487821               0.000023994              -0.001208275               0.002565343               0.001357069               0.000000000               0.000000000               0.000000000               0.000000000              -0.000748487               0.006070882               0.000033301              -0.001039540               0.002370121               0.001330580               0.000000000               0.000000000               0.000000000               0.000000000              -0.000488405               0.005726098               0.000031262              -0.000898912               0.002208318               0.001309406               0.000000000               0.000000000               0.000000000               0.000000000              -0.000288183               0.005456341               0.000026172              -0.000790109               0.002082132               0.001292022               0.000000000               0.000000000               0.000000000               0.000000000              -0.000146959               0.005260962               0.000017466              -0.000712728               0.001991212               0.001278484               0.000000000               0.000000000               0.000000000               0.000000000              -0.000060926               0.005130422               0.000009826              -0.000664149               0.001931506               0.001267358               0.000000000               0.000000000               0.000000000               0.000000000              -0.000019254               0.005049864               0.000005257              -0.000638452               0.001896088               0.001257637               0.000000000               0.000000000               0.000000000               0.000000000              -0.000016007               0.005011555               0.000007839              -0.000632446               0.001881317               0.001248871               0.000000000               0.000000000               0.000000000               0.000000000              -0.000112375               0.006731552              -0.002620659              -0.000883584               0.002538356               0.001654771               0.000000000               0.000000000               0.000000000               0.000000000              -0.001867215               0.007967159              -0.002092526              -0.001696097               0.003221058               0.001524961               0.000000000               0.000000000               0.000000000               0.000000000              -0.003257273               0.009219213              -0.001472067              -0.002373873               0.003864331               0.001490458               0.000000000               0.000000000               0.000000000               0.000000000              -0.003302326               0.009125060              -0.001093576              -0.002378999               0.003834656               0.001455657               0.000000000               0.000000000               0.000000000               0.000000000              -0.003002094               0.008710318              -0.000834063              -0.002214569               0.003641600               0.001427031               0.000000000               0.000000000               0.000000000               0.000000000              -0.002585306               0.008225141              -0.000643600              -0.001997627               0.003407562               0.001409935               0.000000000               0.000000000               0.000000000               0.000000000              -0.002143151               0.007730247              -0.000494242              -0.001769958               0.003166709               0.001396751               0.000000000               0.000000000               0.000000000               0.000000000              -0.001711192               0.007231039              -0.000377755              -0.001545573               0.002925513               0.001379940               0.000000000               0.000000000               0.000000000               0.000000000              -0.001299697               0.006742971              -0.000291283              -0.001330254               0.002691053               0.001360798               0.000000000               0.000000000               0.000000000               0.000000000              -0.000921066               0.006299950              -0.000222209              -0.001132891               0.002477593               0.001344702               0.000000000               0.000000000               0.000000000               0.000000000              -0.000596174               0.005920926              -0.000167097              -0.000963679               0.002294848               0.001331170               0.000000000               0.000000000               0.000000000               0.000000000              -0.000340531               0.005612783              -0.000121673              -0.000829295               0.002147340               0.001318046               0.000000000               0.000000000               0.000000000               0.000000000              -0.000159360               0.005379241              -0.000079322              -0.000732163               0.002037117               0.001304953               0.000000000               0.000000000               0.000000000               0.000000000              -0.000049449               0.005213101              -0.000042023              -0.000670179               0.001961076               0.001290897               0.000000000               0.000000000               0.000000000               0.000000000              -0.000000726               0.005104602              -0.000013938              -0.000638346               0.001914299               0.001275953               0.000000000               0.000000000               0.000000000               0.000000000               0.000005402               0.005038963               0.000002580              -0.000627843               0.001888919               0.001261076               0.000000000               0.000000000               0.000000000               0.000000000               0.000001100               0.005015272               0.000007685              -0.000626495               0.001880572               0.001254077               0.000000000               0.000000000               0.000000000               0.000000000              -0.001382459               0.004673552              -0.001712322              -0.001102614               0.001925373               0.000822759               0.000000000               0.000000000               0.000000000               0.000000000              -0.002555412               0.006356328              -0.001928010              -0.001752817               0.002703027               0.000950210               0.000000000               0.000000000               0.000000000               0.000000000              -0.003631772               0.008019349              -0.001938574              -0.002364328               0.003461198               0.001096871               0.000000000               0.000000000               0.000000000               0.000000000              -0.003551053               0.008295835              -0.001655017              -0.002368619               0.003554790               0.001186171               0.000000000               0.000000000               0.000000000               0.000000000              -0.003184241               0.008137028              -0.001379065              -0.002211214               0.003449386               0.001238173               0.000000000               0.000000000               0.000000000               0.000000000              -0.002731846               0.007838348              -0.001139759              -0.002004231               0.003280833               0.001276602               0.000000000               0.000000000               0.000000000               0.000000000              -0.002262142               0.007487009              -0.000936040              -0.001784175               0.003090370               0.001306194               0.000000000               0.000000000               0.000000000               0.000000000              -0.001809850               0.007107435              -0.000764157              -0.001567119               0.002891494               0.001324375               0.000000000               0.000000000               0.000000000               0.000000000              -0.001387321               0.006712682              -0.000622072              -0.001359327               0.002690647               0.001331320               0.000000000               0.000000000               0.000000000               0.000000000              -0.000995378               0.006332709              -0.000504356              -0.001164853               0.002499166               0.001334313               0.000000000               0.000000000               0.000000000               0.000000000              -0.000648916               0.005988860              -0.000401325              -0.000991949               0.002326916               0.001334968               0.000000000               0.000000000               0.000000000               0.000000000              -0.000370029               0.005691525              -0.000303706              -0.000850200               0.002180556               0.001330356               0.000000000               0.000000000               0.000000000               0.000000000              -0.000166159               0.005449274              -0.000210602              -0.000743467               0.002064229               0.001320762               0.000000000               0.000000000               0.000000000               0.000000000              -0.000036381               0.005264984              -0.000126712              -0.000671764               0.001978898               0.001307134               0.000000000               0.000000000               0.000000000               0.000000000               0.000029342               0.005135130              -0.000058452              -0.000630887               0.001921988               0.001291102               0.000000000               0.000000000               0.000000000               0.000000000               0.000043359               0.005050243              -0.000015127              -0.000615019               0.001888404               0.001273385               0.000000000               0.000000000               0.000000000               0.000000000               0.000038884               0.005021423              -0.000000886              -0.000613095               0.001878156               0.001265061               0.000000000               0.000000000               0.000000000               0.000000000              -0.003021550               0.002823179              -0.000813786              -0.001485976               0.001436375              -0.000049601               0.000000000               0.000000000               0.000000000               0.000000000              -0.003339679               0.004751125              -0.001690830              -0.001846266               0.002199114               0.000352848               0.000000000               0.000000000               0.000000000               0.000000000              -0.003916161               0.006632693              -0.002303676              -0.002297642               0.002976756               0.000679114               0.000000000               0.000000000               0.000000000               0.000000000              -0.003713711               0.007258844              -0.002185061              -0.002299992               0.003186254               0.000886262               0.000000000               0.000000000               0.000000000               0.000000000              -0.003304923               0.007393041              -0.001931372              -0.002163471               0.003185479               0.001022008               0.000000000               0.000000000               0.000000000               0.000000000              -0.002845700               0.007321850              -0.001669212              -0.001982364               0.003101380               0.001119016               0.000000000               0.000000000               0.000000000               0.000000000              -0.002377907               0.007149572              -0.001426940              -0.001785408               0.002978303               0.001192895               0.000000000               0.000000000               0.000000000               0.000000000              -0.001923572               0.006920098              -0.001210576              -0.001586348               0.002835459               0.001249111               0.000000000               0.000000000               0.000000000               0.000000000              -0.001494876               0.006648606              -0.001022232              -0.001391651               0.002680064               0.001288412               0.000000000               0.000000000               0.000000000               0.000000000              -0.001090365               0.006357674              -0.000862823              -0.001203593               0.002520401               0.001316808               0.000000000               0.000000000               0.000000000               0.000000000              -0.000720152               0.006065544              -0.000713915              -0.001028248               0.002364577               0.001336329               0.000000000               0.000000000               0.000000000               0.000000000              -0.000403286               0.005792565              -0.000567282              -0.000875301               0.002222603               0.001347302               0.000000000               0.000000000               0.000000000               0.000000000              -0.000153766               0.005547279              -0.000424022              -0.000751070               0.002099431               0.001348361               0.000000000               0.000000000               0.000000000               0.000000000               0.000022771               0.005342501              -0.000289216              -0.000659272               0.002000573               0.001341301               0.000000000               0.000000000               0.000000000               0.000000000               0.000125349               0.005184433              -0.000166818              -0.000601047               0.001928476               0.001327429               0.000000000               0.000000000               0.000000000               0.000000000               0.000156960               0.005074781              -0.000068247              -0.000575486               0.001883405               0.001307919               0.000000000               0.000000000               0.000000000               0.000000000               0.000146287               0.005027401              -0.000024021              -0.000573566               0.001866972               0.001293406               0.000000000               0.000000000               0.000000000               0.000000000              -0.004923322               0.001301910              -0.000003247              -0.002008982               0.001103623              -0.000905359               0.000000000               0.000000000               0.000000000               0.000000000              -0.004261510               0.003235763              -0.001366172              -0.002002533               0.001746086              -0.000256447               0.000000000               0.000000000               0.000000000               0.000000000              -0.004137554               0.005069399              -0.002458219              -0.002185253               0.002418199               0.000232946               0.000000000               0.000000000               0.000000000               0.000000000              -0.003734233               0.005940845              -0.002540564              -0.002142939               0.002694574               0.000551635               0.000000000               0.000000000               0.000000000               0.000000000              -0.003270972               0.006347310              -0.002354835              -0.002020024               0.002789090               0.000769066               0.000000000               0.000000000               0.000000000               0.000000000              -0.002807156               0.006511752              -0.002106674              -0.001866649               0.002792778               0.000926129               0.000000000               0.000000000               0.000000000               0.000000000              -0.002353031               0.006536894              -0.001855729              -0.001699495               0.002745441               0.001045946               0.000000000               0.000000000               0.000000000               0.000000000              -0.001912280               0.006474146              -0.001621076              -0.001526370               0.002666817               0.001140447               0.000000000               0.000000000               0.000000000               0.000000000              -0.001485178               0.006352393              -0.001412952              -0.001350988               0.002567772               0.001216784               0.000000000               0.000000000               0.000000000               0.000000000              -0.001077772               0.006185803              -0.001228405              -0.001177388               0.002454376               0.001276989               0.000000000               0.000000000               0.000000000               0.000000000              -0.000697749               0.005986207              -0.001049740              -0.001009930               0.002332025               0.001322096               0.000000000               0.000000000               0.000000000               0.000000000              -0.000352130               0.005777319              -0.000869433              -0.000854212               0.002210491               0.001356279               0.000000000               0.000000000               0.000000000               0.000000000              -0.000058255               0.005569229              -0.000688423              -0.000717998               0.002095724               0.001377726               0.000000000               0.000000000               0.000000000               0.000000000               0.000169873               0.005374298              -0.000508975              -0.000608083               0.001994109               0.001386026               0.000000000               0.000000000               0.000000000               0.000000000               0.000320727               0.005211961              -0.000328601              -0.000531221               0.001914377               0.001383155               0.000000000               0.000000000               0.000000000               0.000000000               0.000382208               0.005091722              -0.000155413              -0.000493136               0.001861602               0.001368466               0.000000000               0.000000000               0.000000000               0.000000000               0.000375620               0.005033766              -0.000069498              -0.000488362               0.001840693               0.001352331               0.000000000               0.000000000               0.000000000               0.000000000              -0.006955896               0.000190554               0.000602513              -0.002632278               0.000940938              -0.001691340               0.000000000               0.000000000               0.000000000               0.000000000              -0.005272379               0.001896983              -0.001002643              -0.002214262               0.001370405              -0.000843857               0.000000000               0.000000000               0.000000000               0.000000000              -0.004327334               0.003469316              -0.002374726              -0.002056411               0.001841896              -0.000214516               0.000000000               0.000000000               0.000000000               0.000000000              -0.003643603               0.004459110              -0.002632160              -0.001923736               0.002127599               0.000203863               0.000000000               0.000000000               0.000000000               0.000000000              -0.003092217               0.005073254              -0.002538430              -0.001793735               0.002288978               0.000495244               0.000000000               0.000000000               0.000000000               0.000000000              -0.002614082               0.005446732              -0.002337069              -0.001661119               0.002369265               0.000708146               0.000000000               0.000000000               0.000000000               0.000000000              -0.002172474               0.005663391              -0.002111142              -0.001522599               0.002395310               0.000872711               0.000000000               0.000000000               0.000000000               0.000000000              -0.001750203               0.005775142              -0.001889755              -0.001378216               0.002384433               0.001006217               0.000000000               0.000000000               0.000000000               0.000000000              -0.001337268               0.005815339              -0.001688571              -0.001228391               0.002347890               0.001119499               0.000000000               0.000000000               0.000000000               0.000000000              -0.000936202               0.005797264              -0.001503240              -0.001075732               0.002290979               0.001215247               0.000000000               0.000000000               0.000000000               0.000000000              -0.000549867               0.005729354              -0.001321022              -0.000922368               0.002217221               0.001294853               0.000000000               0.000000000               0.000000000               0.000000000              -0.000184022               0.005621772              -0.001134139              -0.000771728               0.002131148               0.001359419               0.000000000               0.000000000               0.000000000               0.000000000               0.000152637               0.005490858              -0.000939144              -0.000629117               0.002039973               0.001410856               0.000000000               0.000000000               0.000000000               0.000000000               0.000443319               0.005348955              -0.000732904              -0.000502374               0.001950425               0.001448051               0.000000000               0.000000000               0.000000000               0.000000000               0.000666075               0.005212337              -0.000506465              -0.000401763               0.001871350               0.001469586               0.000000000               0.000000000               0.000000000               0.000000000               0.000798663               0.005097214              -0.000259003              -0.000337652               0.001811605               0.001473953               0.000000000               0.000000000               0.000000000               0.000000000               0.000833341               0.005041573              -0.000130532              -0.000317693               0.001786405               0.001468712               0.000000000               0.000000000               0.000000000               0.000000000              -0.008911629              -0.000520808               0.000904713              -0.003276758               0.000918643              -0.002358114               0.000000000               0.000000000               0.000000000               0.000000000              -0.006279134               0.000811050              -0.000654142              -0.002456054               0.001089027              -0.001367027               0.000000000               0.000000000               0.000000000               0.000000000              -0.004500567               0.001980765              -0.002045572              -0.001935306               0.001305347              -0.000629959               0.000000000               0.000000000               0.000000000               0.000000000              -0.003488759               0.002966036              -0.002401427              -0.001679036               0.001548345              -0.000130691               0.000000000               0.000000000               0.000000000               0.000000000              -0.002809371               0.003708337              -0.002391633              -0.001517053               0.001741783               0.000224730               0.000000000               0.000000000               0.000000000               0.000000000              -0.002291617               0.004248089              -0.002253840              -0.001390365               0.001879469               0.000489104               0.000000000               0.000000000               0.000000000               0.000000000              -0.001852935               0.004634115              -0.002076390              -0.001274113               0.001969393               0.000695280               0.000000000               0.000000000               0.000000000               0.000000000              -0.001448789               0.004908940              -0.001894908              -0.001156912               0.002021933               0.000865022               0.000000000               0.000000000               0.000000000               0.000000000              -0.001057469               0.005105859              -0.001724327              -0.001034781               0.002046863               0.001012081               0.000000000               0.000000000               0.000000000               0.000000000              -0.000671653               0.005239871              -0.001563964              -0.000906852               0.002048890               0.001142038               0.000000000               0.000000000               0.000000000               0.000000000              -0.000287462               0.005314947              -0.001404314              -0.000772165               0.002029019               0.001256854               0.000000000               0.000000000               0.000000000               0.000000000               0.000093744               0.005327818              -0.001238921              -0.000630822               0.001986195               0.001355373               0.000000000               0.000000000               0.000000000               0.000000000               0.000470265               0.005292994              -0.001062410              -0.000485274               0.001926072               0.001440797               0.000000000               0.000000000               0.000000000               0.000000000               0.000834844               0.005235972              -0.000861272              -0.000341430               0.001859116               0.001517687               0.000000000               0.000000000               0.000000000               0.000000000               0.001166846               0.005164460              -0.000622352              -0.000207990               0.001790799               0.001582809               0.000000000               0.000000000               0.000000000               0.000000000               0.001441938               0.005084075              -0.000335283              -0.000094783               0.001726269               0.001631486               0.000000000               0.000000000               0.000000000               0.000000000               0.001591898               0.005054245              -0.000184734              -0.000034819               0.001696338               0.001661519               0.000000000               0.000000000               0.000000000               0.000000000              -0.010551653              -0.000911389               0.000862761              -0.003842944               0.000977178              -0.002865766               0.000000000               0.000000000               0.000000000               0.000000000              -0.007148372               0.000021467              -0.000366155              -0.002683321               0.000901590              -0.001781731               0.000000000               0.000000000               0.000000000               0.000000000              -0.004645510               0.000766986              -0.001494882              -0.001837938               0.000868301              -0.000969636               0.000000000               0.000000000               0.000000000               0.000000000              -0.003317849               0.001668625              -0.001835362              -0.001452770               0.001040457              -0.000412313               0.000000000               0.000000000               0.000000000               0.000000000              -0.002501926               0.002464572              -0.001874513              -0.001246292               0.001236945              -0.000009347               0.000000000               0.000000000               0.000000000               0.000000000              -0.001931708               0.003113330              -0.001797589              -0.001113555               0.001408950               0.000295395               0.000000000               0.000000000               0.000000000               0.000000000              -0.001481584               0.003629685              -0.001679527              -0.001009303               0.001546317               0.000537014               0.000000000               0.000000000               0.000000000               0.000000000              -0.001086107               0.004037015              -0.001553145              -0.000911916               0.001649630               0.000737714               0.000000000               0.000000000               0.000000000               0.000000000              -0.000713481               0.004361535              -0.001430062              -0.000812746               0.001724746               0.000911999               0.000000000               0.000000000               0.000000000               0.000000000              -0.000346330               0.004626422              -0.001311557              -0.000708175               0.001778183               0.001070008               0.000000000               0.000000000               0.000000000               0.000000000               0.000029395               0.004829400              -0.001195347              -0.000592651               0.001807334               0.001214683               0.000000000               0.000000000               0.000000000               0.000000000               0.000422811               0.004961507              -0.001076463              -0.000461634               0.001807697               0.001346063               0.000000000               0.000000000               0.000000000               0.000000000               0.000834743               0.005031651              -0.000946451              -0.000315928               0.001782509               0.001466582               0.000000000               0.000000000               0.000000000               0.000000000               0.001271079               0.005067593              -0.000789546              -0.000156795               0.001741445               0.001584651               0.000000000               0.000000000               0.000000000               0.000000000               0.001730665               0.005076637              -0.000588542               0.000014419               0.001687389               0.001701808               0.000000000               0.000000000               0.000000000               0.000000000               0.002198942               0.005049983              -0.000327079               0.000193353               0.001618860               0.001812213               0.000000000               0.000000000               0.000000000               0.000000000               0.002523285               0.005061354              -0.000191209               0.000313560               0.001582581               0.001896141               0.000000000               0.000000000               0.000000000               0.000000000              -0.011652830              -0.001087502               0.000518825              -0.004233871               0.001048783              -0.003185088               0.000000000               0.000000000               0.000000000               0.000000000              -0.007744795              -0.000455928              -0.000157179              -0.002847305               0.000797120              -0.002050185               0.000000000               0.000000000               0.000000000               0.000000000              -0.004746478              -0.000030088              -0.000787432              -0.001776167               0.000582022              -0.001194145               0.000000000               0.000000000               0.000000000               0.000000000              -0.003184316               0.000781497              -0.000993809              -0.001291804               0.000691095              -0.000600709               0.000000000               0.000000000               0.000000000               0.000000000              -0.002261701               0.001587885              -0.001030323              -0.001046621               0.000878162              -0.000168459               0.000000000               0.000000000               0.000000000               0.000000000              -0.001646249               0.002293154              -0.000998294              -0.000903986               0.001065705               0.000161720               0.000000000               0.000000000               0.000000000               0.000000000              -0.001182208               0.002886690              -0.000941693              -0.000804163               0.001230274               0.000426112               0.000000000               0.000000000               0.000000000               0.000000000              -0.000791150               0.003380712              -0.000878258              -0.000719269               0.001366649               0.000647380               0.000000000               0.000000000               0.000000000               0.000000000              -0.000429643               0.003793383              -0.000813434              -0.000635288               0.001476211               0.000840923               0.000000000               0.000000000               0.000000000               0.000000000              -0.000071127               0.004143325              -0.000750479              -0.000544587               0.001562624               0.001018036               0.000000000               0.000000000               0.000000000               0.000000000               0.000300488               0.004432917              -0.000692088              -0.000441431               0.001624768               0.001183337               0.000000000               0.000000000               0.000000000               0.000000000               0.000696439               0.004659062              -0.000631374              -0.000321218               0.001660077               0.001338860               0.000000000               0.000000000               0.000000000               0.000000000               0.001127660               0.004820056              -0.000562161              -0.000179634               0.001666547               0.001486913               0.000000000               0.000000000               0.000000000               0.000000000               0.001612806               0.004931644              -0.000478572              -0.000011654               0.001647749               0.001636096               0.000000000               0.000000000               0.000000000               0.000000000               0.002172461               0.005004319              -0.000364677               0.000189131               0.001605046               0.001794177               0.000000000               0.000000000               0.000000000               0.000000000               0.002820285               0.005024256              -0.000205542               0.000429571               0.001531545               0.001961116               0.000000000               0.000000000               0.000000000               0.000000000               0.003320000               0.005073392              -0.000123430               0.000610820               0.001487507               0.002098327               0.000000000               0.000000000               0.000000000               0.000000000               0.000000000               0.000000000               0.000000000               0.000000000               0.000000000               0.000000000               0.000000000               0.000000000               0.000000000               0.000000000               0.000000000               0.000000000               0.000000000               0.000000000               0.000000000               0.000000000               0.000000000               0.000000000               0.000000000               0.000000000               0.000000000               0.000000000               0.000000000               0.000000000               0.000000000               0.000000000               0.000000000               0.000000000               0.000000000               0.000000000               0.000000000               0.000000000               0.000000000               0.000000000               0.000000000               0.000000000               0.000000000               0.000000000               0.000000000               0.000000000               0.000000000               0.000000000               0.000000000               0.000000000               0.000000000               0.000000000               0.000000000               0.000000000               0.000000000               0.000000000               0.000000000               0.000000000               0.000000000               0.000000000               0.000000000               0.000000000               0.000000000               0.000000000               0.000000000               0.000000000               0.000000000               0.000000000               0.000000000               0.000000000               0.000000000               0.000000000               0.000000000               0.000000000               0.000000000               0.000000000               0.000000000               0.000000000               0.000000000               0.000000000               0.000000000               0.000000000               0.000000000               0.000000000               0.000000000               0.000000000               0.000000000               0.000000000               0.000000000               0.000000000               0.000000000               0.000000000               0.000000000               0.000000000               0.000000000               0.000000000               0.000000000               0.000000000               0.000000000               0.000000000               0.000000000               0.000000000               0.000000000               0.000000000               0.000000000               0.000000000               0.000000000               0.000000000               0.000000000               0.000000000               0.000000000               0.000000000               0.000000000               0.000000000               0.000000000               0.000000000               0.000000000               0.000000000               0.000000000               0.000000000               0.000000000               0.000000000               0.000000000               0.000000000               0.000000000               0.000000000               0.000000000               0.000000000               0.000000000               0.000000000               0.000000000               0.000000000               0.000000000               0.000000000               0.000000000               0.000000000               0.000000000               0.000000000               0.000000000               0.000000000               0.000000000               0.000000000               0.000000000               0.000000000               0.000000000               0.000000000               0.000000000               0.000000000               0.000000000               0.000000000               0.000000000               0.000000000               0.000000000               0.000000000               0.000000000               0.000000000               0.000000000               0.000000000               0.000000000               0.000000000               0.000000000               0.000000000               0.000000000               0.000000000               0.000000000               0.000000000               0.000000000               0.000000000               0.000000000               0.000000000               0.000000000               0.000000000               0.000000000               0.000000000               0.000000000               0.000000000               0.000000000               0.000000000               0.000000000               0.000000000               0.000000000               0.000000000               0.000000000               0.000000000               0.000000000               0.000000000               0.000000000               0.000000000               0.000000000               0.000000000               0.000000000               0.000000000               0.000000000               0.000000000               0.000000000               0.000000000               0.000000000               0.000000000               0.000000000               0.000000000               0.000000000               0.000000000               0.000000000               0.000000000               0.000000000               0.000000000               0.000000000               0.000000000               0.000000000               0.000000000               0.000000000               0.000000000               0.000000000               0.000000000               0.000000000               0.000000000               0.000000000               0.000000000               0.000000000               0.000000000               0.000000000               0.000000000               0.000000000               0.000000000               0.000000000               0.000000000               0.000000000               0.000000000               0.000000000               0.000000000               0.000000000               0.000000000               0.000000000               0.000000000               0.000000000               0.000000000               0.000000000               0.000000000               0.000000000               0.000000000               0.000000000               0.000000000               0.000000000               0.000000000               0.000000000               0.000000000               0.000000000               0.000000000               0.000000000               0.000000000               0.000000000               0.000000000               0.000000000               0.000000000               0.000000000               0.000000000               0.000000000               0.000000000               0.000000000               0.000000000               0.000000000               0.000000000               0.000000000               0.000000000               0.000000000               0.000000000               0.000000000               0.000000000               0.000000000               0.000000000               0.000000000               0.000000000               0.000000000               0.000000000               0.000000000               0.000000000               0.000000000               0.000000000               0.000000000               0.000000000               0.000000000               0.000000000               0.000000000               0.000000000               0.000000000               0.000000000               0.000000000               0.000000000               0.000000000               0.000000000               0.000000000               0.000000000               0.000000000               0.000000000               0.000000000               0.000000000               0.000000000               0.000000000               0.000000000               0.000000000               0.000000000               0.000000000               0.000000000               0.000000000               0.000000000               0.000000000               0.000000000               0.000000000               0.000000000               0.000000000               0.000000000               0.000000000               0.000000000               0.000000000               0.000000000               0.000000000               0.000000000               0.000000000               0.000000000               0.000000000               0.000000000               0.000000000               0.000000000               0.000000000               0.000000000               0.000000000               0.000000000               0.000000000               0.000000000               0.000000000               0.000000000               0.000000000               0.000000000               0.000000000               0.000000000               0.000000000               0.000000000               0.000000000               0.000000000               0.000000000               0.000000000               0.000000000               0.000000000               0.000000000               0.000000000               0.000000000               0.002307951               0.023756081               0.001661941              -0.002104024               0.008619956               0.006515932               0.000000000               0.000000000               0.000000000               0.000000000               0.002149904               0.018587346               0.000827435              -0.001517201               0.006701453               0.005184253               0.000000000               0.000000000               0.000000000               0.000000000               0.002701509               0.014412669               0.000000036              -0.000788516               0.005067014               0.004278498               0.000000000               0.000000000               0.000000000               0.000000000               0.002531279               0.012038793              -0.000349458              -0.000555618               0.004198097               0.003642479               0.000000000               0.000000000               0.000000000               0.000000000               0.002158236               0.010541796              -0.000492373              -0.000508385               0.003683359               0.003174974               0.000000000               0.000000000               0.000000000               0.000000000               0.001750932               0.009504414              -0.000537326              -0.000531451               0.003345257               0.002813806               0.000000000               0.000000000               0.000000000               0.000000000               0.001377623               0.008722915              -0.000537532              -0.000573754               0.003098861               0.002525106               0.000000000               0.000000000               0.000000000               0.000000000               0.001058830               0.008094150              -0.000518833              -0.000614706               0.002902925               0.002288219               0.000000000               0.000000000               0.000000000               0.000000000               0.000788691               0.007557709              -0.000495346              -0.000648953               0.002735529               0.002086576               0.000000000               0.000000000               0.000000000               0.000000000               0.000558234               0.007076034              -0.000469821              -0.000675165               0.002583709               0.001908545               0.000000000               0.000000000               0.000000000               0.000000000               0.000365959               0.006620556              -0.000435948              -0.000690333               0.002436941               0.001746608               0.000000000               0.000000000               0.000000000               0.000000000               0.000213997               0.006164342              -0.000394692              -0.000690292               0.002284858               0.001594565               0.000000000               0.000000000               0.000000000               0.000000000               0.000104181               0.005693283              -0.000348476              -0.000672591               0.002121939               0.001449348               0.000000000               0.000000000               0.000000000               0.000000000               0.000026459               0.005195344              -0.000297748              -0.000639494               0.001944929               0.001305435               0.000000000               0.000000000               0.000000000               0.000000000              -0.000019718               0.004655587              -0.000230391              -0.000589341               0.001748294               0.001158953               0.000000000               0.000000000               0.000000000               0.000000000              -0.000023871               0.004055646              -0.000130534              -0.000515906               0.001523837               0.001007931               0.000000000               0.000000000               0.000000000               0.000000000              -0.000063973               0.003602000              -0.000083623              -0.000474239               0.001358734               0.000884495               0.000000000               0.000000000               0.000000000               0.000000000               0.002502375               0.022308826               0.003080237              -0.001850209               0.008052937               0.006202728               0.000000000               0.000000000               0.000000000               0.000000000               0.001999101               0.017643093               0.001529114              -0.001455721               0.006366212               0.004910491               0.000000000               0.000000000               0.000000000               0.000000000               0.002177534               0.013991019               0.000007352              -0.000932300               0.004974393               0.004042093               0.000000000               0.000000000               0.000000000               0.000000000               0.001863555               0.011880221              -0.000613244              -0.000786193               0.004222098               0.003435906               0.000000000               0.000000000               0.000000000               0.000000000               0.001458610               0.010510495              -0.000857990              -0.000766831               0.003759074               0.002992242               0.000000000               0.000000000               0.000000000               0.000000000               0.001075575               0.009533240              -0.000929845              -0.000788313               0.003440486               0.002652173               0.000000000               0.000000000               0.000000000               0.000000000               0.000753686               0.008777542              -0.000925768              -0.000814559               0.003197338               0.002382779               0.000000000               0.000000000               0.000000000               0.000000000               0.000497326               0.008155712              -0.000893423              -0.000832965               0.002996198               0.002163233               0.000000000               0.000000000               0.000000000               0.000000000               0.000294465               0.007615891              -0.000853549              -0.000841560               0.002819125               0.001977565               0.000000000               0.000000000               0.000000000               0.000000000               0.000133617               0.007124308              -0.000809836              -0.000840430               0.002654889               0.001814459               0.000000000               0.000000000               0.000000000               0.000000000               0.000012375               0.006656691              -0.000751682              -0.000827444               0.002494689               0.001667246               0.000000000               0.000000000               0.000000000               0.000000000              -0.000069920               0.006195227              -0.000679457              -0.000800622               0.002331929               0.001531307               0.000000000               0.000000000               0.000000000               0.000000000              -0.000112673               0.005729418              -0.000601965              -0.000758428               0.002162596               0.001404168               0.000000000               0.000000000               0.000000000               0.000000000              -0.000122832               0.005253060              -0.000513570              -0.000702693               0.001985234               0.001282541               0.000000000               0.000000000               0.000000000               0.000000000              -0.000105766               0.004759568              -0.000393704              -0.000634607               0.001798042               0.001163436               0.000000000               0.000000000               0.000000000               0.000000000              -0.000061668               0.004253641              -0.000222724              -0.000554829               0.001602809               0.001047980               0.000000000               0.000000000               0.000000000               0.000000000              -0.000073278               0.003898082              -0.000139623              -0.000514738               0.001470927               0.000956189               0.000000000               0.000000000               0.000000000               0.000000000               0.002681765               0.020094504               0.004080989              -0.001506150               0.007200150               0.005694001               0.000000000               0.000000000               0.000000000               0.000000000               0.001700083               0.016227417               0.002029831              -0.001390893               0.005872716               0.004481822               0.000000000               0.000000000               0.000000000               0.000000000               0.001366176               0.013358876               0.000044198              -0.001157541               0.004838761               0.003681220               0.000000000               0.000000000               0.000000000               0.000000000               0.000889221               0.011622375              -0.000721299              -0.001119336               0.004247198               0.003127862               0.000000000               0.000000000               0.000000000               0.000000000               0.000474767               0.010428679              -0.001007727              -0.001125545               0.003851373               0.002725828               0.000000000               0.000000000               0.000000000               0.000000000               0.000153530               0.009530452              -0.001087026              -0.001133730               0.003554696               0.002420965               0.000000000               0.000000000               0.000000000               0.000000000              -0.000078090               0.008807000              -0.001077447              -0.001130156               0.003312356               0.002182200               0.000000000               0.000000000               0.000000000               0.000000000              -0.000232724               0.008194307              -0.001037584              -0.001111557               0.003101927               0.001990370               0.000000000               0.000000000               0.000000000               0.000000000              -0.000332240               0.007653690              -0.000989684              -0.001081299               0.002911637               0.001830339               0.000000000               0.000000000               0.000000000               0.000000000              -0.000392906               0.007153274              -0.000936029              -0.001041497               0.002731566               0.001690069               0.000000000               0.000000000               0.000000000               0.000000000              -0.000412905               0.006675555              -0.000866519              -0.000989282               0.002554923               0.001565641               0.000000000               0.000000000               0.000000000               0.000000000              -0.000393141               0.006212230              -0.000780217              -0.000923954               0.002378707               0.001454753               0.000000000               0.000000000               0.000000000               0.000000000              -0.000341803               0.005760775              -0.000683706              -0.000848271               0.002202996               0.001354725               0.000000000               0.000000000               0.000000000               0.000000000              -0.000268817               0.005323234              -0.000571490              -0.000766209               0.002029797               0.001263588               0.000000000               0.000000000               0.000000000               0.000000000              -0.000180847               0.004911948              -0.000427557              -0.000681810               0.001864570               0.001182760               0.000000000               0.000000000               0.000000000               0.000000000              -0.000089705               0.004551478              -0.000237625              -0.000602573               0.001718002               0.001115429               0.000000000               0.000000000               0.000000000               0.000000000              -0.000068941               0.004336266              -0.000142543              -0.000567885               0.001634703               0.001066818               0.000000000               0.000000000               0.000000000               0.000000000               0.002709470               0.017394637               0.004571207              -0.001158279               0.006184246               0.005025967               0.000000000               0.000000000               0.000000000               0.000000000               0.001230232               0.014533660               0.002306107              -0.001355368               0.005296294               0.003940926               0.000000000               0.000000000               0.000000000               0.000000000               0.000363325               0.012600890               0.000147083              -0.001438861               0.004679875               0.003241014               0.000000000               0.000000000               0.000000000               0.000000000              -0.000224404               0.011267057              -0.000632884              -0.001492530               0.004253158               0.002760628               0.000000000               0.000000000               0.000000000               0.000000000              -0.000590385               0.010257460              -0.000910069              -0.001503573               0.003920310               0.002416737               0.000000000               0.000000000               0.000000000               0.000000000              -0.000800278               0.009444572              -0.000984152              -0.001480672               0.003641716               0.002161044               0.000000000               0.000000000               0.000000000               0.000000000              -0.000903174               0.008756598              -0.000975758              -0.001433262               0.003396591               0.001963329               0.000000000               0.000000000               0.000000000               0.000000000              -0.000928728               0.008160440              -0.000941854              -0.001368325               0.003176228               0.001807903               0.000000000               0.000000000               0.000000000               0.000000000              -0.000902772               0.007626412              -0.000898594              -0.001291838               0.002972724               0.001680886               0.000000000               0.000000000               0.000000000               0.000000000              -0.000837579               0.007123471              -0.000847953              -0.001204523               0.002775974               0.001571451               0.000000000               0.000000000               0.000000000               0.000000000              -0.000737849               0.006641060              -0.000781747              -0.001106823               0.002582606               0.001475782               0.000000000               0.000000000               0.000000000               0.000000000              -0.000615031               0.006183685              -0.000696688              -0.001003595               0.002395739               0.001392144               0.000000000               0.000000000               0.000000000               0.000000000              -0.000478378               0.005763132              -0.000598540              -0.000899781               0.002220952               0.001321171               0.000000000               0.000000000               0.000000000               0.000000000              -0.000339606               0.005389610              -0.000483004              -0.000801052               0.002063536               0.001262484               0.000000000               0.000000000               0.000000000               0.000000000              -0.000208315               0.005080071              -0.000345533              -0.000713125               0.001931048               0.001217923               0.000000000               0.000000000               0.000000000               0.000000000              -0.000095627               0.004857210              -0.000185300              -0.000643010               0.001833390               0.001190381               0.000000000               0.000000000               0.000000000               0.000000000              -0.000055260               0.004754161              -0.000105120              -0.000614991               0.001789702               0.001174710               0.000000000               0.000000000               0.000000000               0.000000000               0.002460314               0.014489333               0.004572861              -0.000888551               0.005125912               0.004237361               0.000000000               0.000000000               0.000000000               0.000000000               0.000590581               0.012737867               0.002396379              -0.001370764               0.004702834               0.003332070               0.000000000               0.000000000               0.000000000               0.000000000              -0.000711209               0.011774012               0.000346710              -0.001738450               0.004504115               0.002765664               0.000000000               0.000000000               0.000000000               0.000000000              -0.001306493               0.010823608              -0.000355222              -0.001842881               0.004222127               0.002379246               0.000000000               0.000000000               0.000000000               0.000000000              -0.001550873               0.009985781              -0.000604928              -0.001829796               0.003938492               0.002108697               0.000000000               0.000000000               0.000000000               0.000000000              -0.001607869               0.009254720              -0.000680206              -0.001759786               0.003671471               0.001911685               0.000000000               0.000000000               0.000000000               0.000000000              -0.001559592               0.008609580              -0.000686291              -0.001661040               0.003423511               0.001762471               0.000000000               0.000000000               0.000000000               0.000000000              -0.001444101               0.008039006              -0.000672392              -0.001546410               0.003195112               0.001648702               0.000000000               0.000000000               0.000000000               0.000000000              -0.001286806               0.007511453              -0.000647038              -0.001421481               0.002977619               0.001556139               0.000000000               0.000000000               0.000000000               0.000000000              -0.001099444               0.007005309              -0.000609117              -0.001287952               0.002764397               0.001476445               0.000000000               0.000000000               0.000000000               0.000000000              -0.000892001               0.006526146              -0.000555497              -0.001150266               0.002558782               0.001408516               0.000000000               0.000000000               0.000000000               0.000000000              -0.000683509               0.006090254              -0.000485315              -0.001017595               0.002369263               0.001351667               0.000000000               0.000000000               0.000000000               0.000000000              -0.000489389               0.005713312              -0.000401724              -0.000897683               0.002203646               0.001305963               0.000000000               0.000000000               0.000000000               0.000000000              -0.000318922               0.005405422              -0.000305227              -0.000795271               0.002066880               0.001271608               0.000000000               0.000000000               0.000000000               0.000000000              -0.000175946               0.005176891              -0.000201632              -0.000713089               0.001963309               0.001250220               0.000000000               0.000000000               0.000000000               0.000000000              -0.000070888               0.005032816              -0.000098971              -0.000655683               0.001896150               0.001240466               0.000000000               0.000000000               0.000000000               0.000000000              -0.000035606               0.004975127              -0.000051975              -0.000635241               0.001870106               0.001234865               0.000000000               0.000000000               0.000000000               0.000000000               0.001868316               0.011619792               0.004174739              -0.000751857               0.004123843               0.003371986               0.000000000               0.000000000               0.000000000               0.000000000              -0.000184438               0.010988213               0.002355377              -0.001442689               0.004143597               0.002700908               0.000000000               0.000000000               0.000000000               0.000000000              -0.001733877               0.010922730               0.000641250              -0.002015540               0.004312720               0.002297180               0.000000000               0.000000000               0.000000000               0.000000000              -0.002216554               0.010304320               0.000064242              -0.002119242               0.004141153               0.002021911               0.000000000               0.000000000               0.000000000               0.000000000              -0.002282017               0.009613799              -0.000163155              -0.002057476               0.003890393               0.001832917               0.000000000               0.000000000               0.000000000               0.000000000              -0.002166297               0.008955623              -0.000257650              -0.001931809               0.003629114               0.001697305               0.000000000               0.000000000               0.000000000               0.000000000              -0.001965320               0.008358446              -0.000297316              -0.001781796               0.003380053               0.001598257               0.000000000               0.000000000               0.000000000               0.000000000              -0.001716336               0.007813498              -0.000317560              -0.001620309               0.003144576               0.001524267               0.000000000               0.000000000               0.000000000               0.000000000              -0.001445258               0.007288799              -0.000319856              -0.001453068               0.002913931               0.001460863               0.000000000               0.000000000               0.000000000               0.000000000              -0.001163279               0.006787275              -0.000306156              -0.001284636               0.002690614               0.001405978               0.000000000               0.000000000               0.000000000               0.000000000              -0.000883466               0.006330009              -0.000277458              -0.001122548               0.002484165               0.001361617               0.000000000               0.000000000               0.000000000               0.000000000              -0.000628816               0.005930861              -0.000235561              -0.000977161               0.002302654               0.001325493               0.000000000               0.000000000               0.000000000               0.000000000              -0.000412945               0.005603859              -0.000185590              -0.000855335               0.002153046               0.001297711               0.000000000               0.000000000               0.000000000               0.000000000              -0.000243581               0.005352811              -0.000128712              -0.000760442               0.002037733               0.001277291               0.000000000               0.000000000               0.000000000               0.000000000              -0.000120818               0.005176307              -0.000074141              -0.000692343               0.001956199               0.001263856               0.000000000               0.000000000               0.000000000               0.000000000              -0.000043220               0.005064539              -0.000031111              -0.000649273               0.001904587               0.001255314               0.000000000               0.000000000               0.000000000               0.000000000              -0.000025525               0.005012515              -0.000017935              -0.000636135               0.001882866               0.001246732               0.000000000               0.000000000               0.000000000               0.000000000               0.000966626               0.008969902               0.003480310              -0.000758754               0.003242854               0.002484100               0.000000000               0.000000000               0.000000000               0.000000000              -0.001043097               0.009389764               0.002235792              -0.001564879               0.003651516               0.002086637               0.000000000               0.000000000               0.000000000               0.000000000              -0.002601945               0.010061431               0.001022684              -0.002233403               0.004098244               0.001864841               0.000000000               0.000000000               0.000000000               0.000000000              -0.002872173               0.009702710               0.000563976              -0.002289898               0.003997504               0.001707606               0.000000000               0.000000000               0.000000000               0.000000000              -0.002735466               0.009138169               0.000331866              -0.002168066               0.003768715               0.001600649               0.000000000               0.000000000               0.000000000               0.000000000              -0.002450109               0.008557250               0.000195597              -0.001988442               0.003515202               0.001526760               0.000000000               0.000000000               0.000000000               0.000000000              -0.002111698               0.008005797               0.000102885              -0.001792607               0.003266108               0.001473501               0.000000000               0.000000000               0.000000000               0.000000000              -0.001756003               0.007478566               0.000038223              -0.001593318               0.003023936               0.001430618               0.000000000               0.000000000               0.000000000               0.000000000              -0.001401762               0.006964096              -0.000000750              -0.001396169               0.002786732               0.001390562               0.000000000               0.000000000               0.000000000               0.000000000              -0.001059467               0.006487821              -0.000023994              -0.001208275               0.002565343               0.001357069               0.000000000               0.000000000               0.000000000               0.000000000              -0.000748487               0.006070882              -0.000033301              -0.001039540               0.002370121               0.001330580               0.000000000               0.000000000               0.000000000               0.000000000              -0.000488405               0.005726098              -0.000031262              -0.000898912               0.002208318               0.001309406               0.000000000               0.000000000               0.000000000               0.000000000              -0.000288183               0.005456341              -0.000026172              -0.000790109               0.002082132               0.001292022               0.000000000               0.000000000               0.000000000               0.000000000              -0.000146959               0.005260962              -0.000017466              -0.000712728               0.001991212               0.001278484               0.000000000               0.000000000               0.000000000               0.000000000              -0.000060926               0.005130422              -0.000009826              -0.000664149               0.001931506               0.001267358               0.000000000               0.000000000               0.000000000               0.000000000              -0.000019254               0.005049864              -0.000005257              -0.000638452               0.001896088               0.001257637               0.000000000               0.000000000               0.000000000               0.000000000              -0.000016007               0.005011555              -0.000007839              -0.000632446               0.001881317               0.001248871               0.000000000               0.000000000               0.000000000               0.000000000              -0.000112375               0.006731552               0.002620659              -0.000883584               0.002538356               0.001654771               0.000000000               0.000000000               0.000000000               0.000000000              -0.001867215               0.007967159               0.002092526              -0.001696097               0.003221058               0.001524961               0.000000000               0.000000000               0.000000000               0.000000000              -0.003257273               0.009219213               0.001472067              -0.002373873               0.003864331               0.001490458               0.000000000               0.000000000               0.000000000               0.000000000              -0.003302326               0.009125060               0.001093576              -0.002378999               0.003834656               0.001455657               0.000000000               0.000000000               0.000000000               0.000000000              -0.003002094               0.008710318               0.000834063              -0.002214569               0.003641600               0.001427031               0.000000000               0.000000000               0.000000000               0.000000000              -0.002585306               0.008225141               0.000643600              -0.001997627               0.003407562               0.001409935               0.000000000               0.000000000               0.000000000               0.000000000              -0.002143151               0.007730247               0.000494242              -0.001769958               0.003166709               0.001396751               0.000000000               0.000000000               0.000000000               0.000000000              -0.001711192               0.007231039               0.000377755              -0.001545573               0.002925513               0.001379940               0.000000000               0.000000000               0.000000000               0.000000000              -0.001299697               0.006742971               0.000291283              -0.001330254               0.002691053               0.001360798               0.000000000               0.000000000               0.000000000               0.000000000              -0.000921066               0.006299950               0.000222209              -0.001132891               0.002477593               0.001344702               0.000000000               0.000000000               0.000000000               0.000000000              -0.000596174               0.005920926               0.000167097              -0.000963679               0.002294848               0.001331170               0.000000000               0.000000000               0.000000000               0.000000000              -0.000340531               0.005612783               0.000121673              -0.000829295               0.002147340               0.001318046               0.000000000               0.000000000               0.000000000               0.000000000              -0.000159360               0.005379241               0.000079322              -0.000732163               0.002037117               0.001304953               0.000000000               0.000000000               0.000000000               0.000000000              -0.000049449               0.005213101               0.000042023              -0.000670179               0.001961076               0.001290897               0.000000000               0.000000000               0.000000000               0.000000000              -0.000000726               0.005104602               0.000013938              -0.000638346               0.001914299               0.001275953               0.000000000               0.000000000               0.000000000               0.000000000               0.000005402               0.005038963              -0.000002580              -0.000627843               0.001888919               0.001261076               0.000000000               0.000000000               0.000000000               0.000000000               0.000001100               0.005015272              -0.000007685              -0.000626495               0.001880572               0.001254077               0.000000000               0.000000000               0.000000000               0.000000000              -0.001382459               0.004673552               0.001712322              -0.001102614               0.001925373               0.000822759               0.000000000               0.000000000               0.000000000               0.000000000              -0.002555412               0.006356328               0.001928010              -0.001752817               0.002703027               0.000950210               0.000000000               0.000000000               0.000000000               0.000000000              -0.003631772               0.008019349               0.001938574              -0.002364328               0.003461198               0.001096871               0.000000000               0.000000000               0.000000000               0.000000000              -0.003551053               0.008295835               0.001655017              -0.002368619               0.003554790               0.001186171               0.000000000               0.000000000               0.000000000               0.000000000              -0.003184241               0.008137028               0.001379065              -0.002211214               0.003449386               0.001238173               0.000000000               0.000000000               0.000000000               0.000000000              -0.002731846               0.007838348               0.001139759              -0.002004231               0.003280833               0.001276602               0.000000000               0.000000000               0.000000000               0.000000000              -0.002262142               0.007487009               0.000936040              -0.001784175               0.003090370               0.001306194               0.000000000               0.000000000               0.000000000               0.000000000              -0.001809850               0.007107435               0.000764157              -0.001567119               0.002891494               0.001324375               0.000000000               0.000000000               0.000000000               0.000000000              -0.001387321               0.006712682               0.000622072              -0.001359327               0.002690647               0.001331320               0.000000000               0.000000000               0.000000000               0.000000000              -0.000995378               0.006332709               0.000504356              -0.001164853               0.002499166               0.001334313               0.000000000               0.000000000               0.000000000               0.000000000              -0.000648916               0.005988860               0.000401325              -0.000991949               0.002326916               0.001334968               0.000000000               0.000000000               0.000000000               0.000000000              -0.000370029               0.005691525               0.000303706              -0.000850200               0.002180556               0.001330356               0.000000000               0.000000000               0.000000000               0.000000000              -0.000166159               0.005449274               0.000210602              -0.000743467               0.002064229               0.001320762               0.000000000               0.000000000               0.000000000               0.000000000              -0.000036381               0.005264984               0.000126712              -0.000671764               0.001978898               0.001307134               0.000000000               0.000000000               0.000000000               0.000000000               0.000029342               0.005135130               0.000058452              -0.000630887               0.001921988               0.001291102               0.000000000               0.000000000               0.000000000               0.000000000               0.000043359               0.005050243               0.000015127              -0.000615019               0.001888404               0.001273385               0.000000000               0.000000000               0.000000000               0.000000000               0.000038884               0.005021423               0.000000886              -0.000613095               0.001878156               0.001265061               0.000000000               0.000000000               0.000000000               0.000000000              -0.003021550               0.002823179               0.000813786              -0.001485976               0.001436375              -0.000049601               0.000000000               0.000000000               0.000000000               0.000000000              -0.003339679               0.004751125               0.001690830              -0.001846266               0.002199114               0.000352848               0.000000000               0.000000000               0.000000000               0.000000000              -0.003916161               0.006632693               0.002303676              -0.002297642               0.002976756               0.000679114               0.000000000               0.000000000               0.000000000               0.000000000              -0.003713711               0.007258844               0.002185061              -0.002299992               0.003186254               0.000886262               0.000000000               0.000000000               0.000000000               0.000000000              -0.003304923               0.007393041               0.001931372              -0.002163471               0.003185479               0.001022008               0.000000000               0.000000000               0.000000000               0.000000000              -0.002845700               0.007321850               0.001669212              -0.001982364               0.003101380               0.001119016               0.000000000               0.000000000               0.000000000               0.000000000              -0.002377907               0.007149572               0.001426940              -0.001785408               0.002978303               0.001192895               0.000000000               0.000000000               0.000000000               0.000000000              -0.001923572               0.006920098               0.001210576              -0.001586348               0.002835459               0.001249111               0.000000000               0.000000000               0.000000000               0.000000000              -0.001494876               0.006648606               0.001022232              -0.001391651               0.002680064               0.001288412               0.000000000               0.000000000               0.000000000               0.000000000              -0.001090365               0.006357674               0.000862823              -0.001203593               0.002520401               0.001316808               0.000000000               0.000000000               0.000000000               0.000000000              -0.000720152               0.006065544               0.000713915              -0.001028248               0.002364577               0.001336329               0.000000000               0.000000000               0.000000000               0.000000000              -0.000403286               0.005792565               0.000567282              -0.000875301               0.002222603               0.001347302               0.000000000               0.000000000               0.000000000               0.000000000              -0.000153766               0.005547279               0.000424022              -0.000751070               0.002099431               0.001348361               0.000000000               0.000000000               0.000000000               0.000000000               0.000022771               0.005342501               0.000289216              -0.000659272               0.002000573               0.001341301               0.000000000               0.000000000               0.000000000               0.000000000               0.000125349               0.005184433               0.000166818              -0.000601047               0.001928476               0.001327429               0.000000000               0.000000000               0.000000000               0.000000000               0.000156960               0.005074781               0.000068247              -0.000575486               0.001883405               0.001307919               0.000000000               0.000000000               0.000000000               0.000000000               0.000146287               0.005027401               0.000024021              -0.000573566               0.001866972               0.001293406               0.000000000               0.000000000               0.000000000               0.000000000              -0.004923322               0.001301910               0.000003247              -0.002008982               0.001103623              -0.000905359               0.000000000               0.000000000               0.000000000               0.000000000              -0.004261510               0.003235763               0.001366172              -0.002002533               0.001746086              -0.000256447               0.000000000               0.000000000               0.000000000               0.000000000              -0.004137554               0.005069399               0.002458219              -0.002185253               0.002418199               0.000232946               0.000000000               0.000000000               0.000000000               0.000000000              -0.003734233               0.005940845               0.002540564              -0.002142939               0.002694574               0.000551635               0.000000000               0.000000000               0.000000000               0.000000000              -0.003270972               0.006347310               0.002354835              -0.002020024               0.002789090               0.000769066               0.000000000               0.000000000               0.000000000               0.000000000              -0.002807156               0.006511752               0.002106674              -0.001866649               0.002792778               0.000926129               0.000000000               0.000000000               0.000000000               0.000000000              -0.002353031               0.006536894               0.001855729              -0.001699495               0.002745441               0.001045946               0.000000000               0.000000000               0.000000000               0.000000000              -0.001912280               0.006474146               0.001621076              -0.001526370               0.002666817               0.001140447               0.000000000               0.000000000               0.000000000               0.000000000              -0.001485178               0.006352393               0.001412952              -0.001350988               0.002567772               0.001216784               0.000000000               0.000000000               0.000000000               0.000000000              -0.001077772               0.006185803               0.001228405              -0.001177388               0.002454376               0.001276989               0.000000000               0.000000000               0.000000000               0.000000000              -0.000697749               0.005986207               0.001049740              -0.001009930               0.002332025               0.001322096               0.000000000               0.000000000               0.000000000               0.000000000              -0.000352130               0.005777319               0.000869433              -0.000854212               0.002210491               0.001356279               0.000000000               0.000000000               0.000000000               0.000000000              -0.000058255               0.005569229               0.000688423              -0.000717998               0.002095724               0.001377726               0.000000000               0.000000000               0.000000000               0.000000000               0.000169873               0.005374298               0.000508975              -0.000608083               0.001994109               0.001386026               0.000000000               0.000000000               0.000000000               0.000000000               0.000320727               0.005211961               0.000328601              -0.000531221               0.001914377               0.001383155               0.000000000               0.000000000               0.000000000               0.000000000               0.000382208               0.005091722               0.000155413              -0.000493136               0.001861602               0.001368466               0.000000000               0.000000000               0.000000000               0.000000000               0.000375620               0.005033766               0.000069498              -0.000488362               0.001840693               0.001352331               0.000000000               0.000000000               0.000000000               0.000000000              -0.006955896               0.000190554              -0.000602513              -0.002632278               0.000940938              -0.001691340               0.000000000               0.000000000               0.000000000               0.000000000              -0.005272379               0.001896983               0.001002643              -0.002214262               0.001370405              -0.000843857               0.000000000               0.000000000               0.000000000               0.000000000              -0.004327334               0.003469316               0.002374726              -0.002056411               0.001841896              -0.000214516               0.000000000               0.000000000               0.000000000               0.000000000              -0.003643603               0.004459110               0.002632160              -0.001923736               0.002127599               0.000203863               0.000000000               0.000000000               0.000000000               0.000000000              -0.003092217               0.005073254               0.002538430              -0.001793735               0.002288978               0.000495244               0.000000000               0.000000000               0.000000000               0.000000000              -0.002614082               0.005446732               0.002337069              -0.001661119               0.002369265               0.000708146               0.000000000               0.000000000               0.000000000               0.000000000              -0.002172474               0.005663391               0.002111142              -0.001522599               0.002395310               0.000872711               0.000000000               0.000000000               0.000000000               0.000000000              -0.001750203               0.005775142               0.001889755              -0.001378216               0.002384433               0.001006217               0.000000000               0.000000000               0.000000000               0.000000000              -0.001337268               0.005815339               0.001688571              -0.001228391               0.002347890               0.001119499               0.000000000               0.000000000               0.000000000               0.000000000              -0.000936202               0.005797264               0.001503240              -0.001075732               0.002290979               0.001215247               0.000000000               0.000000000               0.000000000               0.000000000              -0.000549867               0.005729354               0.001321022              -0.000922368               0.002217221               0.001294853               0.000000000               0.000000000               0.000000000               0.000000000              -0.000184022               0.005621772               0.001134139              -0.000771728               0.002131148               0.001359419               0.000000000               0.000000000               0.000000000               0.000000000               0.000152637               0.005490858               0.000939144              -0.000629117               0.002039973               0.001410856               0.000000000               0.000000000               0.000000000               0.000000000               0.000443319               0.005348955               0.000732904              -0.000502374               0.001950425               0.001448051               0.000000000               0.000000000               0.000000000               0.000000000               0.000666075               0.005212337               0.000506465              -0.000401763               0.001871350               0.001469586               0.000000000               0.000000000               0.000000000               0.000000000               0.000798663               0.005097214               0.000259003              -0.000337652               0.001811605               0.001473953               0.000000000               0.000000000               0.000000000               0.000000000               0.000833341               0.005041573               0.000130532              -0.000317693               0.001786405               0.001468712               0.000000000               0.000000000               0.000000000               0.000000000              -0.008911629              -0.000520808              -0.000904713              -0.003276758               0.000918643              -0.002358114               0.000000000               0.000000000               0.000000000               0.000000000              -0.006279134               0.000811050               0.000654142              -0.002456054               0.001089027              -0.001367027               0.000000000               0.000000000               0.000000000               0.000000000              -0.004500567               0.001980765               0.002045572              -0.001935306               0.001305347              -0.000629959               0.000000000               0.000000000               0.000000000               0.000000000              -0.003488759               0.002966036               0.002401427              -0.001679036               0.001548345              -0.000130691               0.000000000               0.000000000               0.000000000               0.000000000              -0.002809371               0.003708337               0.002391633              -0.001517053               0.001741783               0.000224730               0.000000000               0.000000000               0.000000000               0.000000000              -0.002291617               0.004248089               0.002253840              -0.001390365               0.001879469               0.000489104               0.000000000               0.000000000               0.000000000               0.000000000              -0.001852935               0.004634115               0.002076390              -0.001274113               0.001969393               0.000695280               0.000000000               0.000000000               0.000000000               0.000000000              -0.001448789               0.004908940               0.001894908              -0.001156912               0.002021933               0.000865022               0.000000000               0.000000000               0.000000000               0.000000000              -0.001057469               0.005105859               0.001724327              -0.001034781               0.002046863               0.001012081               0.000000000               0.000000000               0.000000000               0.000000000              -0.000671653               0.005239871               0.001563964              -0.000906852               0.002048890               0.001142038               0.000000000               0.000000000               0.000000000               0.000000000              -0.000287462               0.005314947               0.001404314              -0.000772165               0.002029019               0.001256854               0.000000000               0.000000000               0.000000000               0.000000000               0.000093744               0.005327818               0.001238921              -0.000630822               0.001986195               0.001355373               0.000000000               0.000000000               0.000000000               0.000000000               0.000470265               0.005292994               0.001062410              -0.000485274               0.001926072               0.001440797               0.000000000               0.000000000               0.000000000               0.000000000               0.000834844               0.005235972               0.000861272              -0.000341430               0.001859116               0.001517687               0.000000000               0.000000000               0.000000000               0.000000000               0.001166846               0.005164460               0.000622352              -0.000207990               0.001790799               0.001582809               0.000000000               0.000000000               0.000000000               0.000000000               0.001441938               0.005084075               0.000335283              -0.000094783               0.001726269               0.001631486               0.000000000               0.000000000               0.000000000               0.000000000               0.001591898               0.005054245               0.000184734              -0.000034819               0.001696338               0.001661519               0.000000000               0.000000000               0.000000000               0.000000000              -0.010551653              -0.000911389              -0.000862761              -0.003842944               0.000977178              -0.002865766               0.000000000               0.000000000               0.000000000               0.000000000              -0.007148372               0.000021467               0.000366155              -0.002683321               0.000901590              -0.001781731               0.000000000               0.000000000               0.000000000               0.000000000              -0.004645510               0.000766986               0.001494882              -0.001837938               0.000868301              -0.000969636               0.000000000               0.000000000               0.000000000               0.000000000              -0.003317849               0.001668625               0.001835362              -0.001452770               0.001040457              -0.000412313               0.000000000               0.000000000               0.000000000               0.000000000              -0.002501926               0.002464572               0.001874513              -0.001246292               0.001236945              -0.000009347               0.000000000               0.000000000               0.000000000               0.000000000              -0.001931708               0.003113330               0.001797589              -0.001113555               0.001408950               0.000295395               0.000000000               0.000000000               0.000000000               0.000000000              -0.001481584               0.003629685               0.001679527              -0.001009303               0.001546317               0.000537014               0.000000000               0.000000000               0.000000000               0.000000000              -0.001086107               0.004037015               0.001553145              -0.000911916               0.001649630               0.000737714               0.000000000               0.000000000               0.000000000               0.000000000              -0.000713481               0.004361535               0.001430062              -0.000812746               0.001724746               0.000911999               0.000000000               0.000000000               0.000000000               0.000000000              -0.000346330               0.004626422               0.001311557              -0.000708175               0.001778183               0.001070008               0.000000000               0.000000000               0.000000000               0.000000000               0.000029395               0.004829400               0.001195347              -0.000592651               0.001807334               0.001214683               0.000000000               0.000000000               0.000000000               0.000000000               0.000422811               0.004961507               0.001076463              -0.000461634               0.001807697               0.001346063               0.000000000               0.000000000               0.000000000               0.000000000               0.000834743               0.005031651               0.000946451              -0.000315928               0.001782509               0.001466582               0.000000000               0.000000000               0.000000000               0.000000000               0.001271079               0.005067593               0.000789546              -0.000156795               0.001741445               0.001584651               0.000000000               0.000000000               0.000000000               0.000000000               0.001730665               0.005076637               0.000588542               0.000014419               0.001687389               0.001701808               0.000000000               0.000000000               0.000000000               0.000000000               0.002198942               0.005049983               0.000327079               0.000193353               0.001618860               0.001812213               0.000000000               0.000000000               0.000000000               0.000000000               0.002523285               0.005061354               0.000191209               0.000313560               0.001582581               0.001896141               0.000000000               0.000000000               0.000000000               0.000000000              -0.011652830              -0.001087502              -0.000518825              -0.004233871               0.001048783              -0.003185088               0.000000000               0.000000000               0.000000000               0.000000000              -0.007744795              -0.000455928               0.000157179              -0.002847305               0.000797120              -0.002050185               0.000000000               0.000000000               0.000000000               0.000000000              -0.004746478              -0.000030088               0.000787432              -0.001776167               0.000582022              -0.001194145               0.000000000               0.000000000               0.000000000               0.000000000              -0.003184316               0.000781497               0.000993809              -0.001291804               0.000691095              -0.000600709               0.000000000               0.000000000               0.000000000               0.000000000              -0.002261701               0.001587885               0.001030323              -0.001046621               0.000878162              -0.000168459               0.000000000               0.000000000               0.000000000               0.000000000              -0.001646249               0.002293154               0.000998294              -0.000903986               0.001065705               0.000161720               0.000000000               0.000000000               0.000000000               0.000000000              -0.001182208               0.002886690               0.000941693              -0.000804163               0.001230274               0.000426112               0.000000000               0.000000000               0.000000000               0.000000000              -0.000791150               0.003380712               0.000878258              -0.000719269               0.001366649               0.000647380               0.000000000               0.000000000               0.000000000               0.000000000              -0.000429643               0.003793383               0.000813434              -0.000635288               0.001476211               0.000840923               0.000000000               0.000000000               0.000000000               0.000000000              -0.000071127               0.004143325               0.000750479              -0.000544587               0.001562624               0.001018036               0.000000000               0.000000000               0.000000000               0.000000000               0.000300488               0.004432917               0.000692088              -0.000441431               0.001624768               0.001183337               0.000000000               0.000000000               0.000000000               0.000000000               0.000696439               0.004659062               0.000631374              -0.000321218               0.001660077               0.001338860               0.000000000               0.000000000               0.000000000               0.000000000               0.001127660               0.004820056               0.000562161              -0.000179634               0.001666547               0.001486913               0.000000000               0.000000000               0.000000000               0.000000000               0.001612806               0.004931644               0.000478572              -0.000011654               0.001647749               0.001636096               0.000000000               0.000000000               0.000000000               0.000000000               0.002172461               0.005004319               0.000364677               0.000189131               0.001605046               0.001794177               0.000000000               0.000000000               0.000000000               0.000000000               0.002820285               0.005024256               0.000205542               0.000429571               0.001531545               0.001961116               0.000000000               0.000000000               0.000000000               0.000000000               0.003320000               0.005073392               0.000123430               0.000610820               0.001487507               0.002098327               0.000000000               0.000000000               0.000000000               0.000000000               0.000000000               0.000000000               0.000000000               0.000000000               0.000000000               0.000000000               0.000000000               0.000000000               0.000000000               0.000000000               0.000000000               0.000000000               0.000000000               0.000000000               0.000000000               0.000000000               0.000000000               0.000000000               0.000000000               0.000000000               0.000000000               0.000000000               0.000000000               0.000000000               0.000000000               0.000000000               0.000000000               0.000000000               0.000000000               0.000000000               0.000000000               0.000000000               0.000000000               0.000000000               0.000000000               0.000000000               0.000000000               0.000000000               0.000000000               0.000000000               0.000000000               0.000000000               0.000000000               0.000000000               0.000000000               0.000000000               0.000000000               0.000000000               0.000000000               0.000000000               0.000000000               0.000000000               0.000000000               0.000000000               0.000000000               0.000000000               0.000000000               0.000000000               0.000000000               0.000000000               0.000000000               0.000000000               0.000000000               0.000000000               0.000000000               0.000000000               0.000000000               0.000000000               0.000000000               0.000000000               0.000000000               0.000000000               0.000000000               0.000000000               0.000000000               0.000000000               0.000000000               0.000000000               0.000000000               0.000000000               0.000000000               0.000000000               0.000000000               0.000000000               0.000000000               0.000000000               0.000000000               0.000000000               0.000000000               0.000000000               0.000000000               0.000000000               0.000000000               0.000000000               0.000000000               0.000000000               0.000000000               0.000000000               0.000000000               0.000000000               0.000000000               0.000000000               0.000000000               0.000000000               0.000000000               0.000000000               0.000000000               0.000000000               0.000000000               0.000000000               0.000000000               0.000000000               0.000000000               0.000000000               0.000000000               0.000000000               0.000000000               0.000000000               0.000000000               0.000000000               0.000000000               0.000000000               0.000000000               0.000000000               0.000000000               0.000000000               0.000000000               0.000000000               0.000000000               0.000000000               0.000000000               0.000000000               0.000000000               0.000000000               0.000000000               0.000000000               0.000000000               0.000000000               0.000000000               0.000000000               0.000000000               0.000000000               0.000000000               0.000000000               0.000000000               0.000000000               0.000000000               0.000000000               0.000000000               0.000000000               0.000000000               0.000000000               0.000000000               0.000000000               0.000000000               0.000000000               0.000000000               0.000000000               0.000000000               0.000000000               0.000000000               0.000000000               0.000000000               0.000000000               0.000000000               0.000000000               0.000000000               0.000000000               0.000000000               0.000000000 </DataArray>
</PointData>
</Piece>
</UnstructuredGrid> </VTKFile>
