<?xml version="1.0"?>
<VTKFile type="UnstructuredGrid" version="0.1">
<UnstructuredGrid>
<Piece NumberOfPoints="      1156" NumberOfCells="      1024">
<Points>
<DataArray type="Float64"                                    Name="coordinates"                                                      NumberOfComponents=" 3" format="ascii">
              0.133000000               0.000000000               0.000000000               0.155937500               0.000000000               0.000000000               0.178875000               0.000000000               0.000000000               0.201812500               0.000000000               0.000000000               0.224750000               0.000000000               0.000000000               0.247687500               0.000000000               0.000000000               0.270625000               0.000000000               0.000000000               0.293562500               0.000000000               0.000000000               0.316500000               0.000000000               0.000000000               0.339437500               0.000000000               0.000000000               0.362375000               0.000000000               0.000000000               0.385312500               0.000000000               0.000000000               0.408250000               0.000000000               0.000000000               0.431187500               0.000000000               0.000000000               0.454125000               0.000000000               0.000000000               0.477062500               0.000000000               0.000000000               0.500000000               0.000000000               0.000000000               0.132359569               0.013036280               0.000000000               0.155337096               0.016127762               0.000000000               0.178314623               0.019219245               0.000000000               0.201292150               0.022310727               0.000000000               0.224269676               0.025402210               0.000000000               0.247247203               0.028493692               0.000000000               0.270224730               0.031585175               0.000000000               0.293202257               0.034676657               0.000000000               0.316179784               0.037768140               0.000000000               0.339157311               0.040859622               0.000000000               0.362134838               0.043951105               0.000000000               0.385112365               0.047042587               0.000000000               0.408089892               0.050134070               0.000000000               0.431067419               0.053225552               0.000000000               0.454044946               0.056317035               0.000000000               0.477022473               0.059408517               0.000000000               0.500000000               0.062500000               0.000000000               0.130444442               0.025947013               0.000000000               0.153541665               0.032137825               0.000000000               0.176638887               0.038328636               0.000000000               0.199736109               0.044519448               0.000000000               0.222833332               0.050710260               0.000000000               0.245930554               0.056901071               0.000000000               0.269027776               0.063091883               0.000000000               0.292124999               0.069282695               0.000000000               0.315222221               0.075473506               0.000000000               0.338319444               0.081664318               0.000000000               0.361416666               0.087855130               0.000000000               0.384513888               0.094045942               0.000000000               0.407611111               0.100236753               0.000000000               0.430708333               0.106427565               0.000000000               0.453805555               0.112618377               0.000000000               0.476902778               0.118809188               0.000000000               0.500000000               0.125000000               0.000000000               0.127273065               0.038607862               0.000000000               0.150568498               0.047913621               0.000000000               0.173863932               0.057219379               0.000000000               0.197159365               0.066525138               0.000000000               0.220454798               0.075830897               0.000000000               0.243750232               0.085136655               0.000000000               0.267045665               0.094442414               0.000000000               0.290341099               0.103748172               0.000000000               0.313636532               0.113053931               0.000000000               0.336931966               0.122359690               0.000000000               0.360227399               0.131665448               0.000000000               0.383522833               0.140971207               0.000000000               0.406818266               0.150276966               0.000000000               0.430113700               0.159582724               0.000000000               0.453409133               0.168888483               0.000000000               0.476704567               0.178194241               0.000000000               0.500000000               0.187500000               0.000000000               0.122875978               0.050896897               0.000000000               0.146446229               0.063340840               0.000000000               0.170016481               0.075784784               0.000000000               0.193586732               0.088228728               0.000000000               0.217156983               0.100672672               0.000000000               0.240727235               0.113116616               0.000000000               0.264297486               0.125560560               0.000000000               0.287867738               0.138004504               0.000000000               0.311437989               0.150448448               0.000000000               0.335008240               0.162892392               0.000000000               0.358578492               0.175336336               0.000000000               0.382148743               0.187780280               0.000000000               0.405718994               0.200224224               0.000000000               0.429289246               0.212668168               0.000000000               0.452859497               0.225112112               0.000000000               0.476429749               0.237556056               0.000000000               0.500000000               0.250000000               0.000000000               0.117295528               0.062695766               0.000000000               0.141214558               0.078308531               0.000000000               0.165133587               0.093921295               0.000000000               0.189052617               0.109534060               0.000000000               0.212971646               0.125146824               0.000000000               0.236890676               0.140759589               0.000000000               0.260809705               0.156372354               0.000000000               0.284728735               0.171985118               0.000000000               0.308647764               0.187597883               0.000000000               0.332566794               0.203210648               0.000000000               0.356485823               0.218823412               0.000000000               0.380404853               0.234436177               0.000000000               0.404323882               0.250048941               0.000000000               0.428242912               0.265661706               0.000000000               0.452161941               0.281274471               0.000000000               0.476080971               0.296887235               0.000000000               0.500000000               0.312500000               0.000000000               0.110585458               0.073890841               0.000000000               0.134923867               0.092710163               0.000000000               0.159262276               0.111529486               0.000000000               0.183600685               0.130348808               0.000000000               0.207939094               0.149168131               0.000000000               0.232277503               0.167987453               0.000000000               0.256615912               0.186806776               0.000000000               0.280954320               0.205626098               0.000000000               0.305292729               0.224445420               0.000000000               0.329631138               0.243264743               0.000000000               0.353969547               0.262084065               0.000000000               0.378307956               0.280903388               0.000000000               0.402646365               0.299722710               0.000000000               0.426984773               0.318542033               0.000000000               0.451323182               0.337361355               0.000000000               0.475661591               0.356180678               0.000000000               0.500000000               0.375000000               0.000000000               0.102810390               0.084374307               0.000000000               0.127634741               0.106444663               0.000000000               0.152459092               0.128515018               0.000000000               0.177283442               0.150585374               0.000000000               0.202107793               0.172655730               0.000000000               0.226932143               0.194726086               0.000000000               0.251756494               0.216796442               0.000000000               0.276580845               0.238866798               0.000000000               0.301405195               0.260937153               0.000000000               0.326229546               0.283007509               0.000000000               0.351053896               0.305077865               0.000000000               0.375878247               0.327148221               0.000000000               0.400702598               0.349218577               0.000000000               0.425526948               0.371288933               0.000000000               0.450351299               0.393359288               0.000000000               0.475175649               0.415429644               0.000000000               0.500000000               0.437500000               0.000000000               0.094045202               0.094045202               0.000000000               0.119417377               0.119417377               0.000000000               0.144789552               0.144789552               0.000000000               0.170161727               0.170161727               0.000000000               0.195533901               0.195533901               0.000000000               0.220906076               0.220906076               0.000000000               0.246278251               0.246278251               0.000000000               0.271650426               0.271650426               0.000000000               0.297022601               0.297022601               0.000000000               0.322394776               0.322394776               0.000000000               0.347766951               0.347766951               0.000000000               0.373139126               0.373139126               0.000000000               0.398511300               0.398511300               0.000000000               0.423883475               0.423883475               0.000000000               0.449255650               0.449255650               0.000000000               0.474627825               0.474627825               0.000000000               0.500000000               0.500000000               0.000000000               0.084374307               0.102810390               0.000000000               0.106444663               0.127634741               0.000000000               0.128515018               0.152459092               0.000000000               0.150585374               0.177283442               0.000000000               0.172655730               0.202107793               0.000000000               0.194726086               0.226932143               0.000000000               0.216796442               0.251756494               0.000000000               0.238866798               0.276580845               0.000000000               0.260937153               0.301405195               0.000000000               0.283007509               0.326229546               0.000000000               0.305077865               0.351053896               0.000000000               0.327148221               0.375878247               0.000000000               0.349218577               0.400702598               0.000000000               0.371288933               0.425526948               0.000000000               0.393359288               0.450351299               0.000000000               0.415429644               0.475175649               0.000000000               0.437500000               0.500000000               0.000000000               0.073890841               0.110585458               0.000000000               0.092710163               0.134923867               0.000000000               0.111529486               0.159262276               0.000000000               0.130348808               0.183600685               0.000000000               0.149168131               0.207939094               0.000000000               0.167987453               0.232277503               0.000000000               0.186806776               0.256615912               0.000000000               0.205626098               0.280954320               0.000000000               0.224445420               0.305292729               0.000000000               0.243264743               0.329631138               0.000000000               0.262084065               0.353969547               0.000000000               0.280903388               0.378307956               0.000000000               0.299722710               0.402646365               0.000000000               0.318542033               0.426984773               0.000000000               0.337361355               0.451323182               0.000000000               0.356180678               0.475661591               0.000000000               0.375000000               0.500000000               0.000000000               0.062695766               0.117295528               0.000000000               0.078308531               0.141214558               0.000000000               0.093921295               0.165133587               0.000000000               0.109534060               0.189052617               0.000000000               0.125146824               0.212971646               0.000000000               0.140759589               0.236890676               0.000000000               0.156372354               0.260809705               0.000000000               0.171985118               0.284728735               0.000000000               0.187597883               0.308647764               0.000000000               0.203210648               0.332566794               0.000000000               0.218823412               0.356485823               0.000000000               0.234436177               0.380404853               0.000000000               0.250048941               0.404323882               0.000000000               0.265661706               0.428242912               0.000000000               0.281274471               0.452161941               0.000000000               0.296887235               0.476080971               0.000000000               0.312500000               0.500000000               0.000000000               0.050896897               0.122875978               0.000000000               0.063340840               0.146446229               0.000000000               0.075784784               0.170016481               0.000000000               0.088228728               0.193586732               0.000000000               0.100672672               0.217156983               0.000000000               0.113116616               0.240727235               0.000000000               0.125560560               0.264297486               0.000000000               0.138004504               0.287867738               0.000000000               0.150448448               0.311437989               0.000000000               0.162892392               0.335008240               0.000000000               0.175336336               0.358578492               0.000000000               0.187780280               0.382148743               0.000000000               0.200224224               0.405718994               0.000000000               0.212668168               0.429289246               0.000000000               0.225112112               0.452859497               0.000000000               0.237556056               0.476429749               0.000000000               0.250000000               0.500000000               0.000000000               0.038607862               0.127273065               0.000000000               0.047913621               0.150568498               0.000000000               0.057219379               0.173863932               0.000000000               0.066525138               0.197159365               0.000000000               0.075830897               0.220454798               0.000000000               0.085136655               0.243750232               0.000000000               0.094442414               0.267045665               0.000000000               0.103748172               0.290341099               0.000000000               0.113053931               0.313636532               0.000000000               0.122359690               0.336931966               0.000000000               0.131665448               0.360227399               0.000000000               0.140971207               0.383522833               0.000000000               0.150276966               0.406818266               0.000000000               0.159582724               0.430113700               0.000000000               0.168888483               0.453409133               0.000000000               0.178194241               0.476704567               0.000000000               0.187500000               0.500000000               0.000000000               0.025947013               0.130444442               0.000000000               0.032137825               0.153541665               0.000000000               0.038328636               0.176638887               0.000000000               0.044519448               0.199736109               0.000000000               0.050710260               0.222833332               0.000000000               0.056901071               0.245930554               0.000000000               0.063091883               0.269027776               0.000000000               0.069282695               0.292124999               0.000000000               0.075473506               0.315222221               0.000000000               0.081664318               0.338319444               0.000000000               0.087855130               0.361416666               0.000000000               0.094045942               0.384513888               0.000000000               0.100236753               0.407611111               0.000000000               0.106427565               0.430708333               0.000000000               0.112618377               0.453805555               0.000000000               0.118809188               0.476902778               0.000000000               0.125000000               0.500000000               0.000000000               0.013036280               0.132359569               0.000000000               0.016127762               0.155337096               0.000000000               0.019219245               0.178314623               0.000000000               0.022310727               0.201292150               0.000000000               0.025402210               0.224269676               0.000000000               0.028493692               0.247247203               0.000000000               0.031585175               0.270224730               0.000000000               0.034676657               0.293202257               0.000000000               0.037768140               0.316179784               0.000000000               0.040859622               0.339157311               0.000000000               0.043951105               0.362134838               0.000000000               0.047042587               0.385112365               0.000000000               0.050134070               0.408089892               0.000000000               0.053225552               0.431067419               0.000000000               0.056317035               0.454044946               0.000000000               0.059408517               0.477022473               0.000000000               0.062500000               0.500000000               0.000000000               0.000000000               0.133000000               0.000000000               0.000000000               0.155937500               0.000000000               0.000000000               0.178875000               0.000000000               0.000000000               0.201812500               0.000000000               0.000000000               0.224750000               0.000000000               0.000000000               0.247687500               0.000000000               0.000000000               0.270625000               0.000000000               0.000000000               0.293562500               0.000000000               0.000000000               0.316500000               0.000000000               0.000000000               0.339437500               0.000000000               0.000000000               0.362375000               0.000000000               0.000000000               0.385312500               0.000000000               0.000000000               0.408250000               0.000000000               0.000000000               0.431187500               0.000000000               0.000000000               0.454125000               0.000000000               0.000000000               0.477062500               0.000000000               0.000000000               0.500000000               0.000000000               0.133000000               0.000000000               0.000000000               0.155937500               0.000000000               0.000000000               0.178875000               0.000000000               0.000000000               0.201812500               0.000000000               0.000000000               0.224750000               0.000000000               0.000000000               0.247687500               0.000000000               0.000000000               0.270625000               0.000000000               0.000000000               0.293562500               0.000000000               0.000000000               0.316500000               0.000000000               0.000000000               0.339437500               0.000000000               0.000000000               0.362375000               0.000000000               0.000000000               0.385312500               0.000000000               0.000000000               0.408250000               0.000000000               0.000000000               0.431187500               0.000000000               0.000000000               0.454125000               0.000000000               0.000000000               0.477062500               0.000000000               0.000000000               0.500000000               0.000000000               0.000000000               0.132359569              -0.013036280               0.000000000               0.155337096              -0.016127762               0.000000000               0.178314623              -0.019219245               0.000000000               0.201292150              -0.022310727               0.000000000               0.224269676              -0.025402210               0.000000000               0.247247203              -0.028493692               0.000000000               0.270224730              -0.031585175               0.000000000               0.293202257              -0.034676657               0.000000000               0.316179784              -0.037768140               0.000000000               0.339157311              -0.040859622               0.000000000               0.362134838              -0.043951105               0.000000000               0.385112365              -0.047042587               0.000000000               0.408089892              -0.050134070               0.000000000               0.431067419              -0.053225552               0.000000000               0.454044946              -0.056317035               0.000000000               0.477022473              -0.059408517               0.000000000               0.500000000              -0.062500000               0.000000000               0.130444442              -0.025947013               0.000000000               0.153541665              -0.032137825               0.000000000               0.176638887              -0.038328636               0.000000000               0.199736109              -0.044519448               0.000000000               0.222833332              -0.050710260               0.000000000               0.245930554              -0.056901071               0.000000000               0.269027776              -0.063091883               0.000000000               0.292124999              -0.069282695               0.000000000               0.315222221              -0.075473506               0.000000000               0.338319444              -0.081664318               0.000000000               0.361416666              -0.087855130               0.000000000               0.384513888              -0.094045942               0.000000000               0.407611111              -0.100236753               0.000000000               0.430708333              -0.106427565               0.000000000               0.453805555              -0.112618377               0.000000000               0.476902778              -0.118809188               0.000000000               0.500000000              -0.125000000               0.000000000               0.127273065              -0.038607862               0.000000000               0.150568498              -0.047913621               0.000000000               0.173863932              -0.057219379               0.000000000               0.197159365              -0.066525138               0.000000000               0.220454798              -0.075830897               0.000000000               0.243750232              -0.085136655               0.000000000               0.267045665              -0.094442414               0.000000000               0.290341099              -0.103748172               0.000000000               0.313636532              -0.113053931               0.000000000               0.336931966              -0.122359690               0.000000000               0.360227399              -0.131665448               0.000000000               0.383522833              -0.140971207               0.000000000               0.406818266              -0.150276966               0.000000000               0.430113700              -0.159582724               0.000000000               0.453409133              -0.168888483               0.000000000               0.476704567              -0.178194241               0.000000000               0.500000000              -0.187500000               0.000000000               0.122875978              -0.050896897               0.000000000               0.146446229              -0.063340840               0.000000000               0.170016481              -0.075784784               0.000000000               0.193586732              -0.088228728               0.000000000               0.217156983              -0.100672672               0.000000000               0.240727235              -0.113116616               0.000000000               0.264297486              -0.125560560               0.000000000               0.287867738              -0.138004504               0.000000000               0.311437989              -0.150448448               0.000000000               0.335008240              -0.162892392               0.000000000               0.358578492              -0.175336336               0.000000000               0.382148743              -0.187780280               0.000000000               0.405718994              -0.200224224               0.000000000               0.429289246              -0.212668168               0.000000000               0.452859497              -0.225112112               0.000000000               0.476429749              -0.237556056               0.000000000               0.500000000              -0.250000000               0.000000000               0.117295528              -0.062695766               0.000000000               0.141214558              -0.078308531               0.000000000               0.165133587              -0.093921295               0.000000000               0.189052617              -0.109534060               0.000000000               0.212971646              -0.125146824               0.000000000               0.236890676              -0.140759589               0.000000000               0.260809705              -0.156372354               0.000000000               0.284728735              -0.171985118               0.000000000               0.308647764              -0.187597883               0.000000000               0.332566794              -0.203210648               0.000000000               0.356485823              -0.218823412               0.000000000               0.380404853              -0.234436177               0.000000000               0.404323882              -0.250048941               0.000000000               0.428242912              -0.265661706               0.000000000               0.452161941              -0.281274471               0.000000000               0.476080971              -0.296887235               0.000000000               0.500000000              -0.312500000               0.000000000               0.110585458              -0.073890841               0.000000000               0.134923867              -0.092710163               0.000000000               0.159262276              -0.111529486               0.000000000               0.183600685              -0.130348808               0.000000000               0.207939094              -0.149168131               0.000000000               0.232277503              -0.167987453               0.000000000               0.256615912              -0.186806776               0.000000000               0.280954320              -0.205626098               0.000000000               0.305292729              -0.224445420               0.000000000               0.329631138              -0.243264743               0.000000000               0.353969547              -0.262084065               0.000000000               0.378307956              -0.280903388               0.000000000               0.402646365              -0.299722710               0.000000000               0.426984773              -0.318542033               0.000000000               0.451323182              -0.337361355               0.000000000               0.475661591              -0.356180678               0.000000000               0.500000000              -0.375000000               0.000000000               0.102810390              -0.084374307               0.000000000               0.127634741              -0.106444663               0.000000000               0.152459092              -0.128515018               0.000000000               0.177283442              -0.150585374               0.000000000               0.202107793              -0.172655730               0.000000000               0.226932143              -0.194726086               0.000000000               0.251756494              -0.216796442               0.000000000               0.276580845              -0.238866798               0.000000000               0.301405195              -0.260937153               0.000000000               0.326229546              -0.283007509               0.000000000               0.351053896              -0.305077865               0.000000000               0.375878247              -0.327148221               0.000000000               0.400702598              -0.349218577               0.000000000               0.425526948              -0.371288933               0.000000000               0.450351299              -0.393359288               0.000000000               0.475175649              -0.415429644               0.000000000               0.500000000              -0.437500000               0.000000000               0.094045202              -0.094045202               0.000000000               0.119417377              -0.119417377               0.000000000               0.144789552              -0.144789552               0.000000000               0.170161727              -0.170161727               0.000000000               0.195533901              -0.195533901               0.000000000               0.220906076              -0.220906076               0.000000000               0.246278251              -0.246278251               0.000000000               0.271650426              -0.271650426               0.000000000               0.297022601              -0.297022601               0.000000000               0.322394776              -0.322394776               0.000000000               0.347766951              -0.347766951               0.000000000               0.373139126              -0.373139126               0.000000000               0.398511300              -0.398511300               0.000000000               0.423883475              -0.423883475               0.000000000               0.449255650              -0.449255650               0.000000000               0.474627825              -0.474627825               0.000000000               0.500000000              -0.500000000               0.000000000               0.084374307              -0.102810390               0.000000000               0.106444663              -0.127634741               0.000000000               0.128515018              -0.152459092               0.000000000               0.150585374              -0.177283442               0.000000000               0.172655730              -0.202107793               0.000000000               0.194726086              -0.226932143               0.000000000               0.216796442              -0.251756494               0.000000000               0.238866798              -0.276580845               0.000000000               0.260937153              -0.301405195               0.000000000               0.283007509              -0.326229546               0.000000000               0.305077865              -0.351053896               0.000000000               0.327148221              -0.375878247               0.000000000               0.349218577              -0.400702598               0.000000000               0.371288933              -0.425526948               0.000000000               0.393359288              -0.450351299               0.000000000               0.415429644              -0.475175649               0.000000000               0.437500000              -0.500000000               0.000000000               0.073890841              -0.110585458               0.000000000               0.092710163              -0.134923867               0.000000000               0.111529486              -0.159262276               0.000000000               0.130348808              -0.183600685               0.000000000               0.149168131              -0.207939094               0.000000000               0.167987453              -0.232277503               0.000000000               0.186806776              -0.256615912               0.000000000               0.205626098              -0.280954320               0.000000000               0.224445420              -0.305292729               0.000000000               0.243264743              -0.329631138               0.000000000               0.262084065              -0.353969547               0.000000000               0.280903388              -0.378307956               0.000000000               0.299722710              -0.402646365               0.000000000               0.318542033              -0.426984773               0.000000000               0.337361355              -0.451323182               0.000000000               0.356180678              -0.475661591               0.000000000               0.375000000              -0.500000000               0.000000000               0.062695766              -0.117295528               0.000000000               0.078308531              -0.141214558               0.000000000               0.093921295              -0.165133587               0.000000000               0.109534060              -0.189052617               0.000000000               0.125146824              -0.212971646               0.000000000               0.140759589              -0.236890676               0.000000000               0.156372354              -0.260809705               0.000000000               0.171985118              -0.284728735               0.000000000               0.187597883              -0.308647764               0.000000000               0.203210648              -0.332566794               0.000000000               0.218823412              -0.356485823               0.000000000               0.234436177              -0.380404853               0.000000000               0.250048941              -0.404323882               0.000000000               0.265661706              -0.428242912               0.000000000               0.281274471              -0.452161941               0.000000000               0.296887235              -0.476080971               0.000000000               0.312500000              -0.500000000               0.000000000               0.050896897              -0.122875978               0.000000000               0.063340840              -0.146446229               0.000000000               0.075784784              -0.170016481               0.000000000               0.088228728              -0.193586732               0.000000000               0.100672672              -0.217156983               0.000000000               0.113116616              -0.240727235               0.000000000               0.125560560              -0.264297486               0.000000000               0.138004504              -0.287867738               0.000000000               0.150448448              -0.311437989               0.000000000               0.162892392              -0.335008240               0.000000000               0.175336336              -0.358578492               0.000000000               0.187780280              -0.382148743               0.000000000               0.200224224              -0.405718994               0.000000000               0.212668168              -0.429289246               0.000000000               0.225112112              -0.452859497               0.000000000               0.237556056              -0.476429749               0.000000000               0.250000000              -0.500000000               0.000000000               0.038607862              -0.127273065               0.000000000               0.047913621              -0.150568498               0.000000000               0.057219379              -0.173863932               0.000000000               0.066525138              -0.197159365               0.000000000               0.075830897              -0.220454798               0.000000000               0.085136655              -0.243750232               0.000000000               0.094442414              -0.267045665               0.000000000               0.103748172              -0.290341099               0.000000000               0.113053931              -0.313636532               0.000000000               0.122359690              -0.336931966               0.000000000               0.131665448              -0.360227399               0.000000000               0.140971207              -0.383522833               0.000000000               0.150276966              -0.406818266               0.000000000               0.159582724              -0.430113700               0.000000000               0.168888483              -0.453409133               0.000000000               0.178194241              -0.476704567               0.000000000               0.187500000              -0.500000000               0.000000000               0.025947013              -0.130444442               0.000000000               0.032137825              -0.153541665               0.000000000               0.038328636              -0.176638887               0.000000000               0.044519448              -0.199736109               0.000000000               0.050710260              -0.222833332               0.000000000               0.056901071              -0.245930554               0.000000000               0.063091883              -0.269027776               0.000000000               0.069282695              -0.292124999               0.000000000               0.075473506              -0.315222221               0.000000000               0.081664318              -0.338319444               0.000000000               0.087855130              -0.361416666               0.000000000               0.094045942              -0.384513888               0.000000000               0.100236753              -0.407611111               0.000000000               0.106427565              -0.430708333               0.000000000               0.112618377              -0.453805555               0.000000000               0.118809188              -0.476902778               0.000000000               0.125000000              -0.500000000               0.000000000               0.013036280              -0.132359569               0.000000000               0.016127762              -0.155337096               0.000000000               0.019219245              -0.178314623               0.000000000               0.022310727              -0.201292150               0.000000000               0.025402210              -0.224269676               0.000000000               0.028493692              -0.247247203               0.000000000               0.031585175              -0.270224730               0.000000000               0.034676657              -0.293202257               0.000000000               0.037768140              -0.316179784               0.000000000               0.040859622              -0.339157311               0.000000000               0.043951105              -0.362134838               0.000000000               0.047042587              -0.385112365               0.000000000               0.050134070              -0.408089892               0.000000000               0.053225552              -0.431067419               0.000000000               0.056317035              -0.454044946               0.000000000               0.059408517              -0.477022473               0.000000000               0.062500000              -0.500000000               0.000000000               0.000000000              -0.133000000               0.000000000               0.000000000              -0.155937500               0.000000000               0.000000000              -0.178875000               0.000000000               0.000000000              -0.201812500               0.000000000               0.000000000              -0.224750000               0.000000000               0.000000000              -0.247687500               0.000000000               0.000000000              -0.270625000               0.000000000               0.000000000              -0.293562500               0.000000000               0.000000000              -0.316500000               0.000000000               0.000000000              -0.339437500               0.000000000               0.000000000              -0.362375000               0.000000000               0.000000000              -0.385312500               0.000000000               0.000000000              -0.408250000               0.000000000               0.000000000              -0.431187500               0.000000000               0.000000000              -0.454125000               0.000000000               0.000000000              -0.477062500               0.000000000               0.000000000              -0.500000000               0.000000000              -0.133000000               0.000000000               0.000000000              -0.155937500               0.000000000               0.000000000              -0.178875000               0.000000000               0.000000000              -0.201812500               0.000000000               0.000000000              -0.224750000               0.000000000               0.000000000              -0.247687500               0.000000000               0.000000000              -0.270625000               0.000000000               0.000000000              -0.293562500               0.000000000               0.000000000              -0.316500000               0.000000000               0.000000000              -0.339437500               0.000000000               0.000000000              -0.362375000               0.000000000               0.000000000              -0.385312500               0.000000000               0.000000000              -0.408250000               0.000000000               0.000000000              -0.431187500               0.000000000               0.000000000              -0.454125000               0.000000000               0.000000000              -0.477062500               0.000000000               0.000000000              -0.500000000               0.000000000               0.000000000              -0.132359569              -0.013036280               0.000000000              -0.155337096              -0.016127762               0.000000000              -0.178314623              -0.019219245               0.000000000              -0.201292150              -0.022310727               0.000000000              -0.224269676              -0.025402210               0.000000000              -0.247247203              -0.028493692               0.000000000              -0.270224730              -0.031585175               0.000000000              -0.293202257              -0.034676657               0.000000000              -0.316179784              -0.037768140               0.000000000              -0.339157311              -0.040859622               0.000000000              -0.362134838              -0.043951105               0.000000000              -0.385112365              -0.047042587               0.000000000              -0.408089892              -0.050134070               0.000000000              -0.431067419              -0.053225552               0.000000000              -0.454044946              -0.056317035               0.000000000              -0.477022473              -0.059408517               0.000000000              -0.500000000              -0.062500000               0.000000000              -0.130444442              -0.025947013               0.000000000              -0.153541665              -0.032137825               0.000000000              -0.176638887              -0.038328636               0.000000000              -0.199736109              -0.044519448               0.000000000              -0.222833332              -0.050710260               0.000000000              -0.245930554              -0.056901071               0.000000000              -0.269027776              -0.063091883               0.000000000              -0.292124999              -0.069282695               0.000000000              -0.315222221              -0.075473506               0.000000000              -0.338319444              -0.081664318               0.000000000              -0.361416666              -0.087855130               0.000000000              -0.384513888              -0.094045942               0.000000000              -0.407611111              -0.100236753               0.000000000              -0.430708333              -0.106427565               0.000000000              -0.453805555              -0.112618377               0.000000000              -0.476902778              -0.118809188               0.000000000              -0.500000000              -0.125000000               0.000000000              -0.127273065              -0.038607862               0.000000000              -0.150568498              -0.047913621               0.000000000              -0.173863932              -0.057219379               0.000000000              -0.197159365              -0.066525138               0.000000000              -0.220454798              -0.075830897               0.000000000              -0.243750232              -0.085136655               0.000000000              -0.267045665              -0.094442414               0.000000000              -0.290341099              -0.103748172               0.000000000              -0.313636532              -0.113053931               0.000000000              -0.336931966              -0.122359690               0.000000000              -0.360227399              -0.131665448               0.000000000              -0.383522833              -0.140971207               0.000000000              -0.406818266              -0.150276966               0.000000000              -0.430113700              -0.159582724               0.000000000              -0.453409133              -0.168888483               0.000000000              -0.476704567              -0.178194241               0.000000000              -0.500000000              -0.187500000               0.000000000              -0.122875978              -0.050896897               0.000000000              -0.146446229              -0.063340840               0.000000000              -0.170016481              -0.075784784               0.000000000              -0.193586732              -0.088228728               0.000000000              -0.217156983              -0.100672672               0.000000000              -0.240727235              -0.113116616               0.000000000              -0.264297486              -0.125560560               0.000000000              -0.287867738              -0.138004504               0.000000000              -0.311437989              -0.150448448               0.000000000              -0.335008240              -0.162892392               0.000000000              -0.358578492              -0.175336336               0.000000000              -0.382148743              -0.187780280               0.000000000              -0.405718994              -0.200224224               0.000000000              -0.429289246              -0.212668168               0.000000000              -0.452859497              -0.225112112               0.000000000              -0.476429749              -0.237556056               0.000000000              -0.500000000              -0.250000000               0.000000000              -0.117295528              -0.062695766               0.000000000              -0.141214558              -0.078308531               0.000000000              -0.165133587              -0.093921295               0.000000000              -0.189052617              -0.109534060               0.000000000              -0.212971646              -0.125146824               0.000000000              -0.236890676              -0.140759589               0.000000000              -0.260809705              -0.156372354               0.000000000              -0.284728735              -0.171985118               0.000000000              -0.308647764              -0.187597883               0.000000000              -0.332566794              -0.203210648               0.000000000              -0.356485823              -0.218823412               0.000000000              -0.380404853              -0.234436177               0.000000000              -0.404323882              -0.250048941               0.000000000              -0.428242912              -0.265661706               0.000000000              -0.452161941              -0.281274471               0.000000000              -0.476080971              -0.296887235               0.000000000              -0.500000000              -0.312500000               0.000000000              -0.110585458              -0.073890841               0.000000000              -0.134923867              -0.092710163               0.000000000              -0.159262276              -0.111529486               0.000000000              -0.183600685              -0.130348808               0.000000000              -0.207939094              -0.149168131               0.000000000              -0.232277503              -0.167987453               0.000000000              -0.256615912              -0.186806776               0.000000000              -0.280954320              -0.205626098               0.000000000              -0.305292729              -0.224445420               0.000000000              -0.329631138              -0.243264743               0.000000000              -0.353969547              -0.262084065               0.000000000              -0.378307956              -0.280903388               0.000000000              -0.402646365              -0.299722710               0.000000000              -0.426984773              -0.318542033               0.000000000              -0.451323182              -0.337361355               0.000000000              -0.475661591              -0.356180678               0.000000000              -0.500000000              -0.375000000               0.000000000              -0.102810390              -0.084374307               0.000000000              -0.127634741              -0.106444663               0.000000000              -0.152459092              -0.128515018               0.000000000              -0.177283442              -0.150585374               0.000000000              -0.202107793              -0.172655730               0.000000000              -0.226932143              -0.194726086               0.000000000              -0.251756494              -0.216796442               0.000000000              -0.276580845              -0.238866798               0.000000000              -0.301405195              -0.260937153               0.000000000              -0.326229546              -0.283007509               0.000000000              -0.351053896              -0.305077865               0.000000000              -0.375878247              -0.327148221               0.000000000              -0.400702598              -0.349218577               0.000000000              -0.425526948              -0.371288933               0.000000000              -0.450351299              -0.393359288               0.000000000              -0.475175649              -0.415429644               0.000000000              -0.500000000              -0.437500000               0.000000000              -0.094045202              -0.094045202               0.000000000              -0.119417377              -0.119417377               0.000000000              -0.144789552              -0.144789552               0.000000000              -0.170161727              -0.170161727               0.000000000              -0.195533901              -0.195533901               0.000000000              -0.220906076              -0.220906076               0.000000000              -0.246278251              -0.246278251               0.000000000              -0.271650426              -0.271650426               0.000000000              -0.297022601              -0.297022601               0.000000000              -0.322394776              -0.322394776               0.000000000              -0.347766951              -0.347766951               0.000000000              -0.373139126              -0.373139126               0.000000000              -0.398511300              -0.398511300               0.000000000              -0.423883475              -0.423883475               0.000000000              -0.449255650              -0.449255650               0.000000000              -0.474627825              -0.474627825               0.000000000              -0.500000000              -0.500000000               0.000000000              -0.084374307              -0.102810390               0.000000000              -0.106444663              -0.127634741               0.000000000              -0.128515018              -0.152459092               0.000000000              -0.150585374              -0.177283442               0.000000000              -0.172655730              -0.202107793               0.000000000              -0.194726086              -0.226932143               0.000000000              -0.216796442              -0.251756494               0.000000000              -0.238866798              -0.276580845               0.000000000              -0.260937153              -0.301405195               0.000000000              -0.283007509              -0.326229546               0.000000000              -0.305077865              -0.351053896               0.000000000              -0.327148221              -0.375878247               0.000000000              -0.349218577              -0.400702598               0.000000000              -0.371288933              -0.425526948               0.000000000              -0.393359288              -0.450351299               0.000000000              -0.415429644              -0.475175649               0.000000000              -0.437500000              -0.500000000               0.000000000              -0.073890841              -0.110585458               0.000000000              -0.092710163              -0.134923867               0.000000000              -0.111529486              -0.159262276               0.000000000              -0.130348808              -0.183600685               0.000000000              -0.149168131              -0.207939094               0.000000000              -0.167987453              -0.232277503               0.000000000              -0.186806776              -0.256615912               0.000000000              -0.205626098              -0.280954320               0.000000000              -0.224445420              -0.305292729               0.000000000              -0.243264743              -0.329631138               0.000000000              -0.262084065              -0.353969547               0.000000000              -0.280903388              -0.378307956               0.000000000              -0.299722710              -0.402646365               0.000000000              -0.318542033              -0.426984773               0.000000000              -0.337361355              -0.451323182               0.000000000              -0.356180678              -0.475661591               0.000000000              -0.375000000              -0.500000000               0.000000000              -0.062695766              -0.117295528               0.000000000              -0.078308531              -0.141214558               0.000000000              -0.093921295              -0.165133587               0.000000000              -0.109534060              -0.189052617               0.000000000              -0.125146824              -0.212971646               0.000000000              -0.140759589              -0.236890676               0.000000000              -0.156372354              -0.260809705               0.000000000              -0.171985118              -0.284728735               0.000000000              -0.187597883              -0.308647764               0.000000000              -0.203210648              -0.332566794               0.000000000              -0.218823412              -0.356485823               0.000000000              -0.234436177              -0.380404853               0.000000000              -0.250048941              -0.404323882               0.000000000              -0.265661706              -0.428242912               0.000000000              -0.281274471              -0.452161941               0.000000000              -0.296887235              -0.476080971               0.000000000              -0.312500000              -0.500000000               0.000000000              -0.050896897              -0.122875978               0.000000000              -0.063340840              -0.146446229               0.000000000              -0.075784784              -0.170016481               0.000000000              -0.088228728              -0.193586732               0.000000000              -0.100672672              -0.217156983               0.000000000              -0.113116616              -0.240727235               0.000000000              -0.125560560              -0.264297486               0.000000000              -0.138004504              -0.287867738               0.000000000              -0.150448448              -0.311437989               0.000000000              -0.162892392              -0.335008240               0.000000000              -0.175336336              -0.358578492               0.000000000              -0.187780280              -0.382148743               0.000000000              -0.200224224              -0.405718994               0.000000000              -0.212668168              -0.429289246               0.000000000              -0.225112112              -0.452859497               0.000000000              -0.237556056              -0.476429749               0.000000000              -0.250000000              -0.500000000               0.000000000              -0.038607862              -0.127273065               0.000000000              -0.047913621              -0.150568498               0.000000000              -0.057219379              -0.173863932               0.000000000              -0.066525138              -0.197159365               0.000000000              -0.075830897              -0.220454798               0.000000000              -0.085136655              -0.243750232               0.000000000              -0.094442414              -0.267045665               0.000000000              -0.103748172              -0.290341099               0.000000000              -0.113053931              -0.313636532               0.000000000              -0.122359690              -0.336931966               0.000000000              -0.131665448              -0.360227399               0.000000000              -0.140971207              -0.383522833               0.000000000              -0.150276966              -0.406818266               0.000000000              -0.159582724              -0.430113700               0.000000000              -0.168888483              -0.453409133               0.000000000              -0.178194241              -0.476704567               0.000000000              -0.187500000              -0.500000000               0.000000000              -0.025947013              -0.130444442               0.000000000              -0.032137825              -0.153541665               0.000000000              -0.038328636              -0.176638887               0.000000000              -0.044519448              -0.199736109               0.000000000              -0.050710260              -0.222833332               0.000000000              -0.056901071              -0.245930554               0.000000000              -0.063091883              -0.269027776               0.000000000              -0.069282695              -0.292124999               0.000000000              -0.075473506              -0.315222221               0.000000000              -0.081664318              -0.338319444               0.000000000              -0.087855130              -0.361416666               0.000000000              -0.094045942              -0.384513888               0.000000000              -0.100236753              -0.407611111               0.000000000              -0.106427565              -0.430708333               0.000000000              -0.112618377              -0.453805555               0.000000000              -0.118809188              -0.476902778               0.000000000              -0.125000000              -0.500000000               0.000000000              -0.013036280              -0.132359569               0.000000000              -0.016127762              -0.155337096               0.000000000              -0.019219245              -0.178314623               0.000000000              -0.022310727              -0.201292150               0.000000000              -0.025402210              -0.224269676               0.000000000              -0.028493692              -0.247247203               0.000000000              -0.031585175              -0.270224730               0.000000000              -0.034676657              -0.293202257               0.000000000              -0.037768140              -0.316179784               0.000000000              -0.040859622              -0.339157311               0.000000000              -0.043951105              -0.362134838               0.000000000              -0.047042587              -0.385112365               0.000000000              -0.050134070              -0.408089892               0.000000000              -0.053225552              -0.431067419               0.000000000              -0.056317035              -0.454044946               0.000000000              -0.059408517              -0.477022473               0.000000000              -0.062500000              -0.500000000               0.000000000               0.000000000              -0.133000000               0.000000000               0.000000000              -0.155937500               0.000000000               0.000000000              -0.178875000               0.000000000               0.000000000              -0.201812500               0.000000000               0.000000000              -0.224750000               0.000000000               0.000000000              -0.247687500               0.000000000               0.000000000              -0.270625000               0.000000000               0.000000000              -0.293562500               0.000000000               0.000000000              -0.316500000               0.000000000               0.000000000              -0.339437500               0.000000000               0.000000000              -0.362375000               0.000000000               0.000000000              -0.385312500               0.000000000               0.000000000              -0.408250000               0.000000000               0.000000000              -0.431187500               0.000000000               0.000000000              -0.454125000               0.000000000               0.000000000              -0.477062500               0.000000000               0.000000000              -0.500000000               0.000000000              -0.133000000               0.000000000               0.000000000              -0.155937500               0.000000000               0.000000000              -0.178875000               0.000000000               0.000000000              -0.201812500               0.000000000               0.000000000              -0.224750000               0.000000000               0.000000000              -0.247687500               0.000000000               0.000000000              -0.270625000               0.000000000               0.000000000              -0.293562500               0.000000000               0.000000000              -0.316500000               0.000000000               0.000000000              -0.339437500               0.000000000               0.000000000              -0.362375000               0.000000000               0.000000000              -0.385312500               0.000000000               0.000000000              -0.408250000               0.000000000               0.000000000              -0.431187500               0.000000000               0.000000000              -0.454125000               0.000000000               0.000000000              -0.477062500               0.000000000               0.000000000              -0.500000000               0.000000000               0.000000000              -0.132359569               0.013036280               0.000000000              -0.155337096               0.016127762               0.000000000              -0.178314623               0.019219245               0.000000000              -0.201292150               0.022310727               0.000000000              -0.224269676               0.025402210               0.000000000              -0.247247203               0.028493692               0.000000000              -0.270224730               0.031585175               0.000000000              -0.293202257               0.034676657               0.000000000              -0.316179784               0.037768140               0.000000000              -0.339157311               0.040859622               0.000000000              -0.362134838               0.043951105               0.000000000              -0.385112365               0.047042587               0.000000000              -0.408089892               0.050134070               0.000000000              -0.431067419               0.053225552               0.000000000              -0.454044946               0.056317035               0.000000000              -0.477022473               0.059408517               0.000000000              -0.500000000               0.062500000               0.000000000              -0.130444442               0.025947013               0.000000000              -0.153541665               0.032137825               0.000000000              -0.176638887               0.038328636               0.000000000              -0.199736109               0.044519448               0.000000000              -0.222833332               0.050710260               0.000000000              -0.245930554               0.056901071               0.000000000              -0.269027776               0.063091883               0.000000000              -0.292124999               0.069282695               0.000000000              -0.315222221               0.075473506               0.000000000              -0.338319444               0.081664318               0.000000000              -0.361416666               0.087855130               0.000000000              -0.384513888               0.094045942               0.000000000              -0.407611111               0.100236753               0.000000000              -0.430708333               0.106427565               0.000000000              -0.453805555               0.112618377               0.000000000              -0.476902778               0.118809188               0.000000000              -0.500000000               0.125000000               0.000000000              -0.127273065               0.038607862               0.000000000              -0.150568498               0.047913621               0.000000000              -0.173863932               0.057219379               0.000000000              -0.197159365               0.066525138               0.000000000              -0.220454798               0.075830897               0.000000000              -0.243750232               0.085136655               0.000000000              -0.267045665               0.094442414               0.000000000              -0.290341099               0.103748172               0.000000000              -0.313636532               0.113053931               0.000000000              -0.336931966               0.122359690               0.000000000              -0.360227399               0.131665448               0.000000000              -0.383522833               0.140971207               0.000000000              -0.406818266               0.150276966               0.000000000              -0.430113700               0.159582724               0.000000000              -0.453409133               0.168888483               0.000000000              -0.476704567               0.178194241               0.000000000              -0.500000000               0.187500000               0.000000000              -0.122875978               0.050896897               0.000000000              -0.146446229               0.063340840               0.000000000              -0.170016481               0.075784784               0.000000000              -0.193586732               0.088228728               0.000000000              -0.217156983               0.100672672               0.000000000              -0.240727235               0.113116616               0.000000000              -0.264297486               0.125560560               0.000000000              -0.287867738               0.138004504               0.000000000              -0.311437989               0.150448448               0.000000000              -0.335008240               0.162892392               0.000000000              -0.358578492               0.175336336               0.000000000              -0.382148743               0.187780280               0.000000000              -0.405718994               0.200224224               0.000000000              -0.429289246               0.212668168               0.000000000              -0.452859497               0.225112112               0.000000000              -0.476429749               0.237556056               0.000000000              -0.500000000               0.250000000               0.000000000              -0.117295528               0.062695766               0.000000000              -0.141214558               0.078308531               0.000000000              -0.165133587               0.093921295               0.000000000              -0.189052617               0.109534060               0.000000000              -0.212971646               0.125146824               0.000000000              -0.236890676               0.140759589               0.000000000              -0.260809705               0.156372354               0.000000000              -0.284728735               0.171985118               0.000000000              -0.308647764               0.187597883               0.000000000              -0.332566794               0.203210648               0.000000000              -0.356485823               0.218823412               0.000000000              -0.380404853               0.234436177               0.000000000              -0.404323882               0.250048941               0.000000000              -0.428242912               0.265661706               0.000000000              -0.452161941               0.281274471               0.000000000              -0.476080971               0.296887235               0.000000000              -0.500000000               0.312500000               0.000000000              -0.110585458               0.073890841               0.000000000              -0.134923867               0.092710163               0.000000000              -0.159262276               0.111529486               0.000000000              -0.183600685               0.130348808               0.000000000              -0.207939094               0.149168131               0.000000000              -0.232277503               0.167987453               0.000000000              -0.256615912               0.186806776               0.000000000              -0.280954320               0.205626098               0.000000000              -0.305292729               0.224445420               0.000000000              -0.329631138               0.243264743               0.000000000              -0.353969547               0.262084065               0.000000000              -0.378307956               0.280903388               0.000000000              -0.402646365               0.299722710               0.000000000              -0.426984773               0.318542033               0.000000000              -0.451323182               0.337361355               0.000000000              -0.475661591               0.356180678               0.000000000              -0.500000000               0.375000000               0.000000000              -0.102810390               0.084374307               0.000000000              -0.127634741               0.106444663               0.000000000              -0.152459092               0.128515018               0.000000000              -0.177283442               0.150585374               0.000000000              -0.202107793               0.172655730               0.000000000              -0.226932143               0.194726086               0.000000000              -0.251756494               0.216796442               0.000000000              -0.276580845               0.238866798               0.000000000              -0.301405195               0.260937153               0.000000000              -0.326229546               0.283007509               0.000000000              -0.351053896               0.305077865               0.000000000              -0.375878247               0.327148221               0.000000000              -0.400702598               0.349218577               0.000000000              -0.425526948               0.371288933               0.000000000              -0.450351299               0.393359288               0.000000000              -0.475175649               0.415429644               0.000000000              -0.500000000               0.437500000               0.000000000              -0.094045202               0.094045202               0.000000000              -0.119417377               0.119417377               0.000000000              -0.144789552               0.144789552               0.000000000              -0.170161727               0.170161727               0.000000000              -0.195533901               0.195533901               0.000000000              -0.220906076               0.220906076               0.000000000              -0.246278251               0.246278251               0.000000000              -0.271650426               0.271650426               0.000000000              -0.297022601               0.297022601               0.000000000              -0.322394776               0.322394776               0.000000000              -0.347766951               0.347766951               0.000000000              -0.373139126               0.373139126               0.000000000              -0.398511300               0.398511300               0.000000000              -0.423883475               0.423883475               0.000000000              -0.449255650               0.449255650               0.000000000              -0.474627825               0.474627825               0.000000000              -0.500000000               0.500000000               0.000000000              -0.084374307               0.102810390               0.000000000              -0.106444663               0.127634741               0.000000000              -0.128515018               0.152459092               0.000000000              -0.150585374               0.177283442               0.000000000              -0.172655730               0.202107793               0.000000000              -0.194726086               0.226932143               0.000000000              -0.216796442               0.251756494               0.000000000              -0.238866798               0.276580845               0.000000000              -0.260937153               0.301405195               0.000000000              -0.283007509               0.326229546               0.000000000              -0.305077865               0.351053896               0.000000000              -0.327148221               0.375878247               0.000000000              -0.349218577               0.400702598               0.000000000              -0.371288933               0.425526948               0.000000000              -0.393359288               0.450351299               0.000000000              -0.415429644               0.475175649               0.000000000              -0.437500000               0.500000000               0.000000000              -0.073890841               0.110585458               0.000000000              -0.092710163               0.134923867               0.000000000              -0.111529486               0.159262276               0.000000000              -0.130348808               0.183600685               0.000000000              -0.149168131               0.207939094               0.000000000              -0.167987453               0.232277503               0.000000000              -0.186806776               0.256615912               0.000000000              -0.205626098               0.280954320               0.000000000              -0.224445420               0.305292729               0.000000000              -0.243264743               0.329631138               0.000000000              -0.262084065               0.353969547               0.000000000              -0.280903388               0.378307956               0.000000000              -0.299722710               0.402646365               0.000000000              -0.318542033               0.426984773               0.000000000              -0.337361355               0.451323182               0.000000000              -0.356180678               0.475661591               0.000000000              -0.375000000               0.500000000               0.000000000              -0.062695766               0.117295528               0.000000000              -0.078308531               0.141214558               0.000000000              -0.093921295               0.165133587               0.000000000              -0.109534060               0.189052617               0.000000000              -0.125146824               0.212971646               0.000000000              -0.140759589               0.236890676               0.000000000              -0.156372354               0.260809705               0.000000000              -0.171985118               0.284728735               0.000000000              -0.187597883               0.308647764               0.000000000              -0.203210648               0.332566794               0.000000000              -0.218823412               0.356485823               0.000000000              -0.234436177               0.380404853               0.000000000              -0.250048941               0.404323882               0.000000000              -0.265661706               0.428242912               0.000000000              -0.281274471               0.452161941               0.000000000              -0.296887235               0.476080971               0.000000000              -0.312500000               0.500000000               0.000000000              -0.050896897               0.122875978               0.000000000              -0.063340840               0.146446229               0.000000000              -0.075784784               0.170016481               0.000000000              -0.088228728               0.193586732               0.000000000              -0.100672672               0.217156983               0.000000000              -0.113116616               0.240727235               0.000000000              -0.125560560               0.264297486               0.000000000              -0.138004504               0.287867738               0.000000000              -0.150448448               0.311437989               0.000000000              -0.162892392               0.335008240               0.000000000              -0.175336336               0.358578492               0.000000000              -0.187780280               0.382148743               0.000000000              -0.200224224               0.405718994               0.000000000              -0.212668168               0.429289246               0.000000000              -0.225112112               0.452859497               0.000000000              -0.237556056               0.476429749               0.000000000              -0.250000000               0.500000000               0.000000000              -0.038607862               0.127273065               0.000000000              -0.047913621               0.150568498               0.000000000              -0.057219379               0.173863932               0.000000000              -0.066525138               0.197159365               0.000000000              -0.075830897               0.220454798               0.000000000              -0.085136655               0.243750232               0.000000000              -0.094442414               0.267045665               0.000000000              -0.103748172               0.290341099               0.000000000              -0.113053931               0.313636532               0.000000000              -0.122359690               0.336931966               0.000000000              -0.131665448               0.360227399               0.000000000              -0.140971207               0.383522833               0.000000000              -0.150276966               0.406818266               0.000000000              -0.159582724               0.430113700               0.000000000              -0.168888483               0.453409133               0.000000000              -0.178194241               0.476704567               0.000000000              -0.187500000               0.500000000               0.000000000              -0.025947013               0.130444442               0.000000000              -0.032137825               0.153541665               0.000000000              -0.038328636               0.176638887               0.000000000              -0.044519448               0.199736109               0.000000000              -0.050710260               0.222833332               0.000000000              -0.056901071               0.245930554               0.000000000              -0.063091883               0.269027776               0.000000000              -0.069282695               0.292124999               0.000000000              -0.075473506               0.315222221               0.000000000              -0.081664318               0.338319444               0.000000000              -0.087855130               0.361416666               0.000000000              -0.094045942               0.384513888               0.000000000              -0.100236753               0.407611111               0.000000000              -0.106427565               0.430708333               0.000000000              -0.112618377               0.453805555               0.000000000              -0.118809188               0.476902778               0.000000000              -0.125000000               0.500000000               0.000000000              -0.013036280               0.132359569               0.000000000              -0.016127762               0.155337096               0.000000000              -0.019219245               0.178314623               0.000000000              -0.022310727               0.201292150               0.000000000              -0.025402210               0.224269676               0.000000000              -0.028493692               0.247247203               0.000000000              -0.031585175               0.270224730               0.000000000              -0.034676657               0.293202257               0.000000000              -0.037768140               0.316179784               0.000000000              -0.040859622               0.339157311               0.000000000              -0.043951105               0.362134838               0.000000000              -0.047042587               0.385112365               0.000000000              -0.050134070               0.408089892               0.000000000              -0.053225552               0.431067419               0.000000000              -0.056317035               0.454044946               0.000000000              -0.059408517               0.477022473               0.000000000              -0.062500000               0.500000000               0.000000000               0.000000000               0.133000000               0.000000000               0.000000000               0.155937500               0.000000000               0.000000000               0.178875000               0.000000000               0.000000000               0.201812500               0.000000000               0.000000000               0.224750000               0.000000000               0.000000000               0.247687500               0.000000000               0.000000000               0.270625000               0.000000000               0.000000000               0.293562500               0.000000000               0.000000000               0.316500000               0.000000000               0.000000000               0.339437500               0.000000000               0.000000000               0.362375000               0.000000000               0.000000000               0.385312500               0.000000000               0.000000000               0.408250000               0.000000000               0.000000000               0.431187500               0.000000000               0.000000000               0.454125000               0.000000000               0.000000000               0.477062500               0.000000000               0.000000000               0.500000000               0.000000000 </DataArray>
</Points>
<Cells>
<DataArray type="Int32"                                    Name="connectivity"                                                      NumberOfComponents=" 1" format="ascii">
         0          1         18         17          1          2         19         18          2          3         20         19          3          4         21         20          4          5         22         21          5          6         23         22          6          7         24         23          7          8         25         24          8          9         26         25          9         10         27         26         10         11         28         27         11         12         29         28         12         13         30         29         13         14         31         30         14         15         32         31         15         16         33         32         17         18         35         34         18         19         36         35         19         20         37         36         20         21         38         37         21         22         39         38         22         23         40         39         23         24         41         40         24         25         42         41         25         26         43         42         26         27         44         43         27         28         45         44         28         29         46         45         29         30         47         46         30         31         48         47         31         32         49         48         32         33         50         49         34         35         52         51         35         36         53         52         36         37         54         53         37         38         55         54         38         39         56         55         39         40         57         56         40         41         58         57         41         42         59         58         42         43         60         59         43         44         61         60         44         45         62         61         45         46         63         62         46         47         64         63         47         48         65         64         48         49         66         65         49         50         67         66         51         52         69         68         52         53         70         69         53         54         71         70         54         55         72         71         55         56         73         72         56         57         74         73         57         58         75         74         58         59         76         75         59         60         77         76         60         61         78         77         61         62         79         78         62         63         80         79         63         64         81         80         64         65         82         81         65         66         83         82         66         67         84         83         68         69         86         85         69         70         87         86         70         71         88         87         71         72         89         88         72         73         90         89         73         74         91         90         74         75         92         91         75         76         93         92         76         77         94         93         77         78         95         94         78         79         96         95         79         80         97         96         80         81         98         97         81         82         99         98         82         83        100         99         83         84        101        100         85         86        103        102         86         87        104        103         87         88        105        104         88         89        106        105         89         90        107        106         90         91        108        107         91         92        109        108         92         93        110        109         93         94        111        110         94         95        112        111         95         96        113        112         96         97        114        113         97         98        115        114         98         99        116        115         99        100        117        116        100        101        118        117        102        103        120        119        103        104        121        120        104        105        122        121        105        106        123        122        106        107        124        123        107        108        125        124        108        109        126        125        109        110        127        126        110        111        128        127        111        112        129        128        112        113        130        129        113        114        131        130        114        115        132        131        115        116        133        132        116        117        134        133        117        118        135        134        119        120        137        136        120        121        138        137        121        122        139        138        122        123        140        139        123        124        141        140        124        125        142        141        125        126        143        142        126        127        144        143        127        128        145        144        128        129        146        145        129        130        147        146        130        131        148        147        131        132        149        148        132        133        150        149        133        134        151        150        134        135        152        151        136        137        154        153        137        138        155        154        138        139        156        155        139        140        157        156        140        141        158        157        141        142        159        158        142        143        160        159        143        144        161        160        144        145        162        161        145        146        163        162        146        147        164        163        147        148        165        164        148        149        166        165        149        150        167        166        150        151        168        167        151        152        169        168        153        154        171        170        154        155        172        171        155        156        173        172        156        157        174        173        157        158        175        174        158        159        176        175        159        160        177        176        160        161        178        177        161        162        179        178        162        163        180        179        163        164        181        180        164        165        182        181        165        166        183        182        166        167        184        183        167        168        185        184        168        169        186        185        170        171        188        187        171        172        189        188        172        173        190        189        173        174        191        190        174        175        192        191        175        176        193        192        176        177        194        193        177        178        195        194        178        179        196        195        179        180        197        196        180        181        198        197        181        182        199        198        182        183        200        199        183        184        201        200        184        185        202        201        185        186        203        202        187        188        205        204        188        189        206        205        189        190        207        206        190        191        208        207        191        192        209        208        192        193        210        209        193        194        211        210        194        195        212        211        195        196        213        212        196        197        214        213        197        198        215        214        198        199        216        215        199        200        217        216        200        201        218        217        201        202        219        218        202        203        220        219        204        205        222        221        205        206        223        222        206        207        224        223        207        208        225        224        208        209        226        225        209        210        227        226        210        211        228        227        211        212        229        228        212        213        230        229        213        214        231        230        214        215        232        231        215        216        233        232        216        217        234        233        217        218        235        234        218        219        236        235        219        220        237        236        221        222        239        238        222        223        240        239        223        224        241        240        224        225        242        241        225        226        243        242        226        227        244        243        227        228        245        244        228        229        246        245        229        230        247        246        230        231        248        247        231        232        249        248        232        233        250        249        233        234        251        250        234        235        252        251        235        236        253        252        236        237        254        253        238        239        256        255        239        240        257        256        240        241        258        257        241        242        259        258        242        243        260        259        243        244        261        260        244        245        262        261        245        246        263        262        246        247        264        263        247        248        265        264        248        249        266        265        249        250        267        266        250        251        268        267        251        252        269        268        252        253        270        269        253        254        271        270        255        256        273        272        256        257        274        273        257        258        275        274        258        259        276        275        259        260        277        276        260        261        278        277        261        262        279        278        262        263        280        279        263        264        281        280        264        265        282        281        265        266        283        282        266        267        284        283        267        268        285        284        268        269        286        285        269        270        287        286        270        271        288        287        306        307          1          0        307        308          2          1        308        309          3          2        309        310          4          3        310        311          5          4        311        312          6          5        312        313          7          6        313        314          8          7        314        315          9          8        315        316         10          9        316        317         11         10        317        318         12         11        318        319         13         12        319        320         14         13        320        321         15         14        321        322         16         15        323        324        307        306        324        325        308        307        325        326        309        308        326        327        310        309        327        328        311        310        328        329        312        311        329        330        313        312        330        331        314        313        331        332        315        314        332        333        316        315        333        334        317        316        334        335        318        317        335        336        319        318        336        337        320        319        337        338        321        320        338        339        322        321        340        341        324        323        341        342        325        324        342        343        326        325        343        344        327        326        344        345        328        327        345        346        329        328        346        347        330        329        347        348        331        330        348        349        332        331        349        350        333        332        350        351        334        333        351        352        335        334        352        353        336        335        353        354        337        336        354        355        338        337        355        356        339        338        357        358        341        340        358        359        342        341        359        360        343        342        360        361        344        343        361        362        345        344        362        363        346        345        363        364        347        346        364        365        348        347        365        366        349        348        366        367        350        349        367        368        351        350        368        369        352        351        369        370        353        352        370        371        354        353        371        372        355        354        372        373        356        355        374        375        358        357        375        376        359        358        376        377        360        359        377        378        361        360        378        379        362        361        379        380        363        362        380        381        364        363        381        382        365        364        382        383        366        365        383        384        367        366        384        385        368        367        385        386        369        368        386        387        370        369        387        388        371        370        388        389        372        371        389        390        373        372        391        392        375        374        392        393        376        375        393        394        377        376        394        395        378        377        395        396        379        378        396        397        380        379        397        398        381        380        398        399        382        381        399        400        383        382        400        401        384        383        401        402        385        384        402        403        386        385        403        404        387        386        404        405        388        387        405        406        389        388        406        407        390        389        408        409        392        391        409        410        393        392        410        411        394        393        411        412        395        394        412        413        396        395        413        414        397        396        414        415        398        397        415        416        399        398        416        417        400        399        417        418        401        400        418        419        402        401        419        420        403        402        420        421        404        403        421        422        405        404        422        423        406        405        423        424        407        406        425        426        409        408        426        427        410        409        427        428        411        410        428        429        412        411        429        430        413        412        430        431        414        413        431        432        415        414        432        433        416        415        433        434        417        416        434        435        418        417        435        436        419        418        436        437        420        419        437        438        421        420        438        439        422        421        439        440        423        422        440        441        424        423        442        443        426        425        443        444        427        426        444        445        428        427        445        446        429        428        446        447        430        429        447        448        431        430        448        449        432        431        449        450        433        432        450        451        434        433        451        452        435        434        452        453        436        435        453        454        437        436        454        455        438        437        455        456        439        438        456        457        440        439        457        458        441        440        459        460        443        442        460        461        444        443        461        462        445        444        462        463        446        445        463        464        447        446        464        465        448        447        465        466        449        448        466        467        450        449        467        468        451        450        468        469        452        451        469        470        453        452        470        471        454        453        471        472        455        454        472        473        456        455        473        474        457        456        474        475        458        457        476        477        460        459        477        478        461        460        478        479        462        461        479        480        463        462        480        481        464        463        481        482        465        464        482        483        466        465        483        484        467        466        484        485        468        467        485        486        469        468        486        487        470        469        487        488        471        470        488        489        472        471        489        490        473        472        490        491        474        473        491        492        475        474        493        494        477        476        494        495        478        477        495        496        479        478        496        497        480        479        497        498        481        480        498        499        482        481        499        500        483        482        500        501        484        483        501        502        485        484        502        503        486        485        503        504        487        486        504        505        488        487        505        506        489        488        506        507        490        489        507        508        491        490        508        509        492        491        510        511        494        493        511        512        495        494        512        513        496        495        513        514        497        496        514        515        498        497        515        516        499        498        516        517        500        499        517        518        501        500        518        519        502        501        519        520        503        502        520        521        504        503        521        522        505        504        522        523        506        505        523        524        507        506        524        525        508        507        525        526        509        508        527        528        511        510        528        529        512        511        529        530        513        512        530        531        514        513        531        532        515        514        532        533        516        515        533        534        517        516        534        535        518        517        535        536        519        518        536        537        520        519        537        538        521        520        538        539        522        521        539        540        523        522        540        541        524        523        541        542        525        524        542        543        526        525        544        545        528        527        545        546        529        528        546        547        530        529        547        548        531        530        548        549        532        531        549        550        533        532        550        551        534        533        551        552        535        534        552        553        536        535        553        554        537        536        554        555        538        537        555        556        539        538        556        557        540        539        557        558        541        540        558        559        542        541        559        560        543        542        561        562        545        544        562        563        546        545        563        564        547        546        564        565        548        547        565        566        549        548        566        567        550        549        567        568        551        550        568        569        552        551        569        570        553        552        570        571        554        553        571        572        555        554        572        573        556        555        573        574        557        556        574        575        558        557        575        576        559        558        576        577        560        559        578        579        596        595        579        580        597        596        580        581        598        597        581        582        599        598        582        583        600        599        583        584        601        600        584        585        602        601        585        586        603        602        586        587        604        603        587        588        605        604        588        589        606        605        589        590        607        606        590        591        608        607        591        592        609        608        592        593        610        609        593        594        611        610        595        596        613        612        596        597        614        613        597        598        615        614        598        599        616        615        599        600        617        616        600        601        618        617        601        602        619        618        602        603        620        619        603        604        621        620        604        605        622        621        605        606        623        622        606        607        624        623        607        608        625        624        608        609        626        625        609        610        627        626        610        611        628        627        612        613        630        629        613        614        631        630        614        615        632        631        615        616        633        632        616        617        634        633        617        618        635        634        618        619        636        635        619        620        637        636        620        621        638        637        621        622        639        638        622        623        640        639        623        624        641        640        624        625        642        641        625        626        643        642        626        627        644        643        627        628        645        644        629        630        647        646        630        631        648        647        631        632        649        648        632        633        650        649        633        634        651        650        634        635        652        651        635        636        653        652        636        637        654        653        637        638        655        654        638        639        656        655        639        640        657        656        640        641        658        657        641        642        659        658        642        643        660        659        643        644        661        660        644        645        662        661        646        647        664        663        647        648        665        664        648        649        666        665        649        650        667        666        650        651        668        667        651        652        669        668        652        653        670        669        653        654        671        670        654        655        672        671        655        656        673        672        656        657        674        673        657        658        675        674        658        659        676        675        659        660        677        676        660        661        678        677        661        662        679        678        663        664        681        680        664        665        682        681        665        666        683        682        666        667        684        683        667        668        685        684        668        669        686        685        669        670        687        686        670        671        688        687        671        672        689        688        672        673        690        689        673        674        691        690        674        675        692        691        675        676        693        692        676        677        694        693        677        678        695        694        678        679        696        695        680        681        698        697        681        682        699        698        682        683        700        699        683        684        701        700        684        685        702        701        685        686        703        702        686        687        704        703        687        688        705        704        688        689        706        705        689        690        707        706        690        691        708        707        691        692        709        708        692        693        710        709        693        694        711        710        694        695        712        711        695        696        713        712        697        698        715        714        698        699        716        715        699        700        717        716        700        701        718        717        701        702        719        718        702        703        720        719        703        704        721        720        704        705        722        721        705        706        723        722        706        707        724        723        707        708        725        724        708        709        726        725        709        710        727        726        710        711        728        727        711        712        729        728        712        713        730        729        714        715        732        731        715        716        733        732        716        717        734        733        717        718        735        734        718        719        736        735        719        720        737        736        720        721        738        737        721        722        739        738        722        723        740        739        723        724        741        740        724        725        742        741        725        726        743        742        726        727        744        743        727        728        745        744        728        729        746        745        729        730        747        746        731        732        749        748        732        733        750        749        733        734        751        750        734        735        752        751        735        736        753        752        736        737        754        753        737        738        755        754        738        739        756        755        739        740        757        756        740        741        758        757        741        742        759        758        742        743        760        759        743        744        761        760        744        745        762        761        745        746        763        762        746        747        764        763        748        749        766        765        749        750        767        766        750        751        768        767        751        752        769        768        752        753        770        769        753        754        771        770        754        755        772        771        755        756        773        772        756        757        774        773        757        758        775        774        758        759        776        775        759        760        777        776        760        761        778        777        761        762        779        778        762        763        780        779        763        764        781        780        765        766        783        782        766        767        784        783        767        768        785        784        768        769        786        785        769        770        787        786        770        771        788        787        771        772        789        788        772        773        790        789        773        774        791        790        774        775        792        791        775        776        793        792        776        777        794        793        777        778        795        794        778        779        796        795        779        780        797        796        780        781        798        797        782        783        800        799        783        784        801        800        784        785        802        801        785        786        803        802        786        787        804        803        787        788        805        804        788        789        806        805        789        790        807        806        790        791        808        807        791        792        809        808        792        793        810        809        793        794        811        810        794        795        812        811        795        796        813        812        796        797        814        813        797        798        815        814        799        800        817        816        800        801        818        817        801        802        819        818        802        803        820        819        803        804        821        820        804        805        822        821        805        806        823        822        806        807        824        823        807        808        825        824        808        809        826        825        809        810        827        826        810        811        828        827        811        812        829        828        812        813        830        829        813        814        831        830        814        815        832        831        816        817        834        833        817        818        835        834        818        819        836        835        819        820        837        836        820        821        838        837        821        822        839        838        822        823        840        839        823        824        841        840        824        825        842        841        825        826        843        842        826        827        844        843        827        828        845        844        828        829        846        845        829        830        847        846        830        831        848        847        831        832        849        848        833        834        562        561        834        835        563        562        835        836        564        563        836        837        565        564        837        838        566        565        838        839        567        566        839        840        568        567        840        841        569        568        841        842        570        569        842        843        571        570        843        844        572        571        844        845        573        572        845        846        574        573        846        847        575        574        847        848        576        575        848        849        577        576        884        885        579        578        885        886        580        579        886        887        581        580        887        888        582        581        888        889        583        582        889        890        584        583        890        891        585        584        891        892        586        585        892        893        587        586        893        894        588        587        894        895        589        588        895        896        590        589        896        897        591        590        897        898        592        591        898        899        593        592        899        900        594        593        901        902        885        884        902        903        886        885        903        904        887        886        904        905        888        887        905        906        889        888        906        907        890        889        907        908        891        890        908        909        892        891        909        910        893        892        910        911        894        893        911        912        895        894        912        913        896        895        913        914        897        896        914        915        898        897        915        916        899        898        916        917        900        899        918        919        902        901        919        920        903        902        920        921        904        903        921        922        905        904        922        923        906        905        923        924        907        906        924        925        908        907        925        926        909        908        926        927        910        909        927        928        911        910        928        929        912        911        929        930        913        912        930        931        914        913        931        932        915        914        932        933        916        915        933        934        917        916        935        936        919        918        936        937        920        919        937        938        921        920        938        939        922        921        939        940        923        922        940        941        924        923        941        942        925        924        942        943        926        925        943        944        927        926        944        945        928        927        945        946        929        928        946        947        930        929        947        948        931        930        948        949        932        931        949        950        933        932        950        951        934        933        952        953        936        935        953        954        937        936        954        955        938        937        955        956        939        938        956        957        940        939        957        958        941        940        958        959        942        941        959        960        943        942        960        961        944        943        961        962        945        944        962        963        946        945        963        964        947        946        964        965        948        947        965        966        949        948        966        967        950        949        967        968        951        950        969        970        953        952        970        971        954        953        971        972        955        954        972        973        956        955        973        974        957        956        974        975        958        957        975        976        959        958        976        977        960        959        977        978        961        960        978        979        962        961        979        980        963        962        980        981        964        963        981        982        965        964        982        983        966        965        983        984        967        966        984        985        968        967        986        987        970        969        987        988        971        970        988        989        972        971        989        990        973        972        990        991        974        973        991        992        975        974        992        993        976        975        993        994        977        976        994        995        978        977        995        996        979        978        996        997        980        979        997        998        981        980        998        999        982        981        999       1000        983        982       1000       1001        984        983       1001       1002        985        984       1003       1004        987        986       1004       1005        988        987       1005       1006        989        988       1006       1007        990        989       1007       1008        991        990       1008       1009        992        991       1009       1010        993        992       1010       1011        994        993       1011       1012        995        994       1012       1013        996        995       1013       1014        997        996       1014       1015        998        997       1015       1016        999        998       1016       1017       1000        999       1017       1018       1001       1000       1018       1019       1002       1001       1020       1021       1004       1003       1021       1022       1005       1004       1022       1023       1006       1005       1023       1024       1007       1006       1024       1025       1008       1007       1025       1026       1009       1008       1026       1027       1010       1009       1027       1028       1011       1010       1028       1029       1012       1011       1029       1030       1013       1012       1030       1031       1014       1013       1031       1032       1015       1014       1032       1033       1016       1015       1033       1034       1017       1016       1034       1035       1018       1017       1035       1036       1019       1018       1037       1038       1021       1020       1038       1039       1022       1021       1039       1040       1023       1022       1040       1041       1024       1023       1041       1042       1025       1024       1042       1043       1026       1025       1043       1044       1027       1026       1044       1045       1028       1027       1045       1046       1029       1028       1046       1047       1030       1029       1047       1048       1031       1030       1048       1049       1032       1031       1049       1050       1033       1032       1050       1051       1034       1033       1051       1052       1035       1034       1052       1053       1036       1035       1054       1055       1038       1037       1055       1056       1039       1038       1056       1057       1040       1039       1057       1058       1041       1040       1058       1059       1042       1041       1059       1060       1043       1042       1060       1061       1044       1043       1061       1062       1045       1044       1062       1063       1046       1045       1063       1064       1047       1046       1064       1065       1048       1047       1065       1066       1049       1048       1066       1067       1050       1049       1067       1068       1051       1050       1068       1069       1052       1051       1069       1070       1053       1052       1071       1072       1055       1054       1072       1073       1056       1055       1073       1074       1057       1056       1074       1075       1058       1057       1075       1076       1059       1058       1076       1077       1060       1059       1077       1078       1061       1060       1078       1079       1062       1061       1079       1080       1063       1062       1080       1081       1064       1063       1081       1082       1065       1064       1082       1083       1066       1065       1083       1084       1067       1066       1084       1085       1068       1067       1085       1086       1069       1068       1086       1087       1070       1069       1088       1089       1072       1071       1089       1090       1073       1072       1090       1091       1074       1073       1091       1092       1075       1074       1092       1093       1076       1075       1093       1094       1077       1076       1094       1095       1078       1077       1095       1096       1079       1078       1096       1097       1080       1079       1097       1098       1081       1080       1098       1099       1082       1081       1099       1100       1083       1082       1100       1101       1084       1083       1101       1102       1085       1084       1102       1103       1086       1085       1103       1104       1087       1086       1105       1106       1089       1088       1106       1107       1090       1089       1107       1108       1091       1090       1108       1109       1092       1091       1109       1110       1093       1092       1110       1111       1094       1093       1111       1112       1095       1094       1112       1113       1096       1095       1113       1114       1097       1096       1114       1115       1098       1097       1115       1116       1099       1098       1116       1117       1100       1099       1117       1118       1101       1100       1118       1119       1102       1101       1119       1120       1103       1102       1120       1121       1104       1103       1122       1123       1106       1105       1123       1124       1107       1106       1124       1125       1108       1107       1125       1126       1109       1108       1126       1127       1110       1109       1127       1128       1111       1110       1128       1129       1112       1111       1129       1130       1113       1112       1130       1131       1114       1113       1131       1132       1115       1114       1132       1133       1116       1115       1133       1134       1117       1116       1134       1135       1118       1117       1135       1136       1119       1118       1136       1137       1120       1119       1137       1138       1121       1120        272        273       1123       1122        273        274       1124       1123        274        275       1125       1124        275        276       1126       1125        276        277       1127       1126        277        278       1128       1127        278        279       1129       1128        279        280       1130       1129        280        281       1131       1130        281        282       1132       1131        282        283       1133       1132        283        284       1134       1133        284        285       1135       1134        285        286       1136       1135        286        287       1137       1136        287        288       1138       1137 </DataArray>
<DataArray type="Int32"                                    Name="offsets"                                                      NumberOfComponents=" 1" format="ascii">
         4          8         12         16         20         24         28         32         36         40         44         48         52         56         60         64         68         72         76         80         84         88         92         96        100        104        108        112        116        120        124        128        132        136        140        144        148        152        156        160        164        168        172        176        180        184        188        192        196        200        204        208        212        216        220        224        228        232        236        240        244        248        252        256        260        264        268        272        276        280        284        288        292        296        300        304        308        312        316        320        324        328        332        336        340        344        348        352        356        360        364        368        372        376        380        384        388        392        396        400        404        408        412        416        420        424        428        432        436        440        444        448        452        456        460        464        468        472        476        480        484        488        492        496        500        504        508        512        516        520        524        528        532        536        540        544        548        552        556        560        564        568        572        576        580        584        588        592        596        600        604        608        612        616        620        624        628        632        636        640        644        648        652        656        660        664        668        672        676        680        684        688        692        696        700        704        708        712        716        720        724        728        732        736        740        744        748        752        756        760        764        768        772        776        780        784        788        792        796        800        804        808        812        816        820        824        828        832        836        840        844        848        852        856        860        864        868        872        876        880        884        888        892        896        900        904        908        912        916        920        924        928        932        936        940        944        948        952        956        960        964        968        972        976        980        984        988        992        996       1000       1004       1008       1012       1016       1020       1024       1028       1032       1036       1040       1044       1048       1052       1056       1060       1064       1068       1072       1076       1080       1084       1088       1092       1096       1100       1104       1108       1112       1116       1120       1124       1128       1132       1136       1140       1144       1148       1152       1156       1160       1164       1168       1172       1176       1180       1184       1188       1192       1196       1200       1204       1208       1212       1216       1220       1224       1228       1232       1236       1240       1244       1248       1252       1256       1260       1264       1268       1272       1276       1280       1284       1288       1292       1296       1300       1304       1308       1312       1316       1320       1324       1328       1332       1336       1340       1344       1348       1352       1356       1360       1364       1368       1372       1376       1380       1384       1388       1392       1396       1400       1404       1408       1412       1416       1420       1424       1428       1432       1436       1440       1444       1448       1452       1456       1460       1464       1468       1472       1476       1480       1484       1488       1492       1496       1500       1504       1508       1512       1516       1520       1524       1528       1532       1536       1540       1544       1548       1552       1556       1560       1564       1568       1572       1576       1580       1584       1588       1592       1596       1600       1604       1608       1612       1616       1620       1624       1628       1632       1636       1640       1644       1648       1652       1656       1660       1664       1668       1672       1676       1680       1684       1688       1692       1696       1700       1704       1708       1712       1716       1720       1724       1728       1732       1736       1740       1744       1748       1752       1756       1760       1764       1768       1772       1776       1780       1784       1788       1792       1796       1800       1804       1808       1812       1816       1820       1824       1828       1832       1836       1840       1844       1848       1852       1856       1860       1864       1868       1872       1876       1880       1884       1888       1892       1896       1900       1904       1908       1912       1916       1920       1924       1928       1932       1936       1940       1944       1948       1952       1956       1960       1964       1968       1972       1976       1980       1984       1988       1992       1996       2000       2004       2008       2012       2016       2020       2024       2028       2032       2036       2040       2044       2048       2052       2056       2060       2064       2068       2072       2076       2080       2084       2088       2092       2096       2100       2104       2108       2112       2116       2120       2124       2128       2132       2136       2140       2144       2148       2152       2156       2160       2164       2168       2172       2176       2180       2184       2188       2192       2196       2200       2204       2208       2212       2216       2220       2224       2228       2232       2236       2240       2244       2248       2252       2256       2260       2264       2268       2272       2276       2280       2284       2288       2292       2296       2300       2304       2308       2312       2316       2320       2324       2328       2332       2336       2340       2344       2348       2352       2356       2360       2364       2368       2372       2376       2380       2384       2388       2392       2396       2400       2404       2408       2412       2416       2420       2424       2428       2432       2436       2440       2444       2448       2452       2456       2460       2464       2468       2472       2476       2480       2484       2488       2492       2496       2500       2504       2508       2512       2516       2520       2524       2528       2532       2536       2540       2544       2548       2552       2556       2560       2564       2568       2572       2576       2580       2584       2588       2592       2596       2600       2604       2608       2612       2616       2620       2624       2628       2632       2636       2640       2644       2648       2652       2656       2660       2664       2668       2672       2676       2680       2684       2688       2692       2696       2700       2704       2708       2712       2716       2720       2724       2728       2732       2736       2740       2744       2748       2752       2756       2760       2764       2768       2772       2776       2780       2784       2788       2792       2796       2800       2804       2808       2812       2816       2820       2824       2828       2832       2836       2840       2844       2848       2852       2856       2860       2864       2868       2872       2876       2880       2884       2888       2892       2896       2900       2904       2908       2912       2916       2920       2924       2928       2932       2936       2940       2944       2948       2952       2956       2960       2964       2968       2972       2976       2980       2984       2988       2992       2996       3000       3004       3008       3012       3016       3020       3024       3028       3032       3036       3040       3044       3048       3052       3056       3060       3064       3068       3072       3076       3080       3084       3088       3092       3096       3100       3104       3108       3112       3116       3120       3124       3128       3132       3136       3140       3144       3148       3152       3156       3160       3164       3168       3172       3176       3180       3184       3188       3192       3196       3200       3204       3208       3212       3216       3220       3224       3228       3232       3236       3240       3244       3248       3252       3256       3260       3264       3268       3272       3276       3280       3284       3288       3292       3296       3300       3304       3308       3312       3316       3320       3324       3328       3332       3336       3340       3344       3348       3352       3356       3360       3364       3368       3372       3376       3380       3384       3388       3392       3396       3400       3404       3408       3412       3416       3420       3424       3428       3432       3436       3440       3444       3448       3452       3456       3460       3464       3468       3472       3476       3480       3484       3488       3492       3496       3500       3504       3508       3512       3516       3520       3524       3528       3532       3536       3540       3544       3548       3552       3556       3560       3564       3568       3572       3576       3580       3584       3588       3592       3596       3600       3604       3608       3612       3616       3620       3624       3628       3632       3636       3640       3644       3648       3652       3656       3660       3664       3668       3672       3676       3680       3684       3688       3692       3696       3700       3704       3708       3712       3716       3720       3724       3728       3732       3736       3740       3744       3748       3752       3756       3760       3764       3768       3772       3776       3780       3784       3788       3792       3796       3800       3804       3808       3812       3816       3820       3824       3828       3832       3836       3840       3844       3848       3852       3856       3860       3864       3868       3872       3876       3880       3884       3888       3892       3896       3900       3904       3908       3912       3916       3920       3924       3928       3932       3936       3940       3944       3948       3952       3956       3960       3964       3968       3972       3976       3980       3984       3988       3992       3996       4000       4004       4008       4012       4016       4020       4024       4028       4032       4036       4040       4044       4048       4052       4056       4060       4064       4068       4072       4076       4080       4084       4088       4092       4096 </DataArray>
<DataArray type="UInt8"                                    Name="types"                                                      NumberOfComponents=" 1" format="ascii">
         9          9          9          9          9          9          9          9          9          9          9          9          9          9          9          9          9          9          9          9          9          9          9          9          9          9          9          9          9          9          9          9          9          9          9          9          9          9          9          9          9          9          9          9          9          9          9          9          9          9          9          9          9          9          9          9          9          9          9          9          9          9          9          9          9          9          9          9          9          9          9          9          9          9          9          9          9          9          9          9          9          9          9          9          9          9          9          9          9          9          9          9          9          9          9          9          9          9          9          9          9          9          9          9          9          9          9          9          9          9          9          9          9          9          9          9          9          9          9          9          9          9          9          9          9          9          9          9          9          9          9          9          9          9          9          9          9          9          9          9          9          9          9          9          9          9          9          9          9          9          9          9          9          9          9          9          9          9          9          9          9          9          9          9          9          9          9          9          9          9          9          9          9          9          9          9          9          9          9          9          9          9          9          9          9          9          9          9          9          9          9          9          9          9          9          9          9          9          9          9          9          9          9          9          9          9          9          9          9          9          9          9          9          9          9          9          9          9          9          9          9          9          9          9          9          9          9          9          9          9          9          9          9          9          9          9          9          9          9          9          9          9          9          9          9          9          9          9          9          9          9          9          9          9          9          9          9          9          9          9          9          9          9          9          9          9          9          9          9          9          9          9          9          9          9          9          9          9          9          9          9          9          9          9          9          9          9          9          9          9          9          9          9          9          9          9          9          9          9          9          9          9          9          9          9          9          9          9          9          9          9          9          9          9          9          9          9          9          9          9          9          9          9          9          9          9          9          9          9          9          9          9          9          9          9          9          9          9          9          9          9          9          9          9          9          9          9          9          9          9          9          9          9          9          9          9          9          9          9          9          9          9          9          9          9          9          9          9          9          9          9          9          9          9          9          9          9          9          9          9          9          9          9          9          9          9          9          9          9          9          9          9          9          9          9          9          9          9          9          9          9          9          9          9          9          9          9          9          9          9          9          9          9          9          9          9          9          9          9          9          9          9          9          9          9          9          9          9          9          9          9          9          9          9          9          9          9          9          9          9          9          9          9          9          9          9          9          9          9          9          9          9          9          9          9          9          9          9          9          9          9          9          9          9          9          9          9          9          9          9          9          9          9          9          9          9          9          9          9          9          9          9          9          9          9          9          9          9          9          9          9          9          9          9          9          9          9          9          9          9          9          9          9          9          9          9          9          9          9          9          9          9          9          9          9          9          9          9          9          9          9          9          9          9          9          9          9          9          9          9          9          9          9          9          9          9          9          9          9          9          9          9          9          9          9          9          9          9          9          9          9          9          9          9          9          9          9          9          9          9          9          9          9          9          9          9          9          9          9          9          9          9          9          9          9          9          9          9          9          9          9          9          9          9          9          9          9          9          9          9          9          9          9          9          9          9          9          9          9          9          9          9          9          9          9          9          9          9          9          9          9          9          9          9          9          9          9          9          9          9          9          9          9          9          9          9          9          9          9          9          9          9          9          9          9          9          9          9          9          9          9          9          9          9          9          9          9          9          9          9          9          9          9          9          9          9          9          9          9          9          9          9          9          9          9          9          9          9          9          9          9          9          9          9          9          9          9          9          9          9          9          9          9          9          9          9          9          9          9          9          9          9          9          9          9          9          9          9          9          9          9          9          9          9          9          9          9          9          9          9          9          9          9          9          9          9          9          9          9          9          9          9          9          9          9          9          9          9          9          9          9          9          9          9          9          9          9          9          9          9          9          9          9          9          9          9          9          9          9          9          9          9          9          9          9          9          9          9          9          9          9          9          9          9          9          9          9          9          9          9          9          9          9          9          9          9          9          9          9          9          9          9          9          9          9          9          9          9          9          9          9          9          9          9          9          9          9          9          9          9          9          9          9          9          9          9          9          9          9          9          9          9          9          9          9          9          9          9          9          9          9          9          9          9          9          9          9          9          9          9          9          9          9          9          9          9          9          9          9          9          9          9          9          9          9          9          9          9          9          9          9          9          9          9          9          9          9          9          9          9          9          9          9          9          9          9          9          9          9          9          9          9          9          9          9          9          9          9          9          9          9          9          9          9          9          9          9          9          9          9          9          9          9          9          9          9          9          9          9          9          9          9          9          9          9          9          9          9          9          9          9          9          9          9          9          9          9          9          9          9          9          9          9          9          9          9          9          9          9          9          9          9          9          9          9          9          9          9          9          9          9          9          9          9          9          9          9          9          9          9          9          9          9          9          9          9          9          9          9          9          9          9          9          9          9          9          9          9          9          9          9          9          9          9          9          9          9          9          9          9          9          9          9          9          9          9          9          9          9          9          9          9          9          9          9          9          9          9          9          9          9          9          9          9          9          9          9          9          9          9          9          9          9          9          9          9          9          9          9          9          9          9          9          9 </DataArray>
</Cells>
<CellData>
<DataArray type="Int32"                                    Name="material"                                                      NumberOfComponents=" 1" format="ascii">
         1          1          1          1          1          1          1          1          1          1          1          1          1          1          1          1          1          1          1          1          1          1          1          1          1          1          1          1          1          1          1          1          1          1          1          1          1          1          1          1          1          1          1          1          1          1          1          1          1          1          1          1          1          1          1          1          1          1          1          1          1          1          1          1          1          1          1          1          1          1          1          1          1          1          1          1          1          1          1          1          1          1          1          1          1          1          1          1          1          1          1          1          1          1          1          1          1          1          1          1          1          1          1          1          1          1          1          1          1          1          1          1          1          1          1          1          1          1          1          1          1          1          1          1          1          1          1          1          1          1          1          1          1          1          1          1          1          1          1          1          1          1          1          1          1          1          1          1          1          1          1          1          1          1          1          1          1          1          1          1          1          1          1          1          1          1          1          1          1          1          1          1          1          1          1          1          1          1          1          1          1          1          1          1          1          1          1          1          1          1          1          1          1          1          1          1          1          1          1          1          1          1          1          1          1          1          1          1          1          1          1          1          1          1          1          1          1          1          1          1          1          1          1          1          1          1          1          1          1          1          1          1          1          1          1          1          1          1          1          1          1          1          1          1          1          1          1          1          1          1          1          1          1          1          1          1          1          1          1          1          1          1          1          1          1          1          1          1          1          1          1          1          1          1          1          1          1          1          1          1          1          1          1          1          1          1          1          1          1          1          1          1          1          1          1          1          1          1          1          1          1          1          1          1          1          1          1          1          1          1          1          1          1          1          1          1          1          1          1          1          1          1          1          1          1          1          1          1          1          1          1          1          1          1          1          1          1          1          1          1          1          1          1          1          1          1          1          1          1          1          1          1          1          1          1          1          1          1          1          1          1          1          1          1          1          1          1          1          1          1          1          1          1          1          1          1          1          1          1          1          1          1          1          1          1          1          1          1          1          1          1          1          1          1          1          1          1          1          1          1          1          1          1          1          1          1          1          1          1          1          1          1          1          1          1          1          1          1          1          1          1          1          1          1          1          1          1          1          1          1          1          1          1          1          1          1          1          1          1          1          1          1          1          1          1          1          1          1          1          1          1          1          1          1          1          1          1          1          1          1          1          1          1          1          1          1          1          1          1          1          1          1          1          1          1          1          1          1          1          1          1          1          1          1          1          1          1          1          1          1          1          1          1          1          1          1          1          1          1          1          1          1          1          1          1          1          1          1          1          1          1          1          1          1          1          1          1          1          1          1          1          1          1          1          1          1          1          1          1          1          1          1          1          1          1          1          1          1          1          1          1          1          1          1          1          1          1          1          1          1          1          1          1          1          1          1          1          1          1          1          1          1          1          1          1          1          1          1          1          1          1          1          1          1          1          1          1          1          1          1          1          1          1          1          1          1          1          1          1          1          1          1          1          1          1          1          1          1          1          1          1          1          1          1          1          1          1          1          1          1          1          1          1          1          1          1          1          1          1          1          1          1          1          1          1          1          1          1          1          1          1          1          1          1          1          1          1          1          1          1          1          1          1          1          1          1          1          1          1          1          1          1          1          1          1          1          1          1          1          1          1          1          1          1          1          1          1          1          1          1          1          1          1          1          1          1          1          1          1          1          1          1          1          1          1          1          1          1          1          1          1          1          1          1          1          1          1          1          1          1          1          1          1          1          1          1          1          1          1          1          1          1          1          1          1          1          1          1          1          1          1          1          1          1          1          1          1          1          1          1          1          1          1          1          1          1          1          1          1          1          1          1          1          1          1          1          1          1          1          1          1          1          1          1          1          1          1          1          1          1          1          1          1          1          1          1          1          1          1          1          1          1          1          1          1          1          1          1          1          1          1          1          1          1          1          1          1          1          1          1          1          1          1          1          1          1          1          1          1          1          1          1          1          1          1          1          1          1          1          1          1          1          1          1          1          1          1          1          1          1          1          1          1          1          1          1          1          1          1          1          1          1          1          1          1          1          1          1          1          1          1          1          1          1          1          1          1          1          1          1          1          1          1          1          1          1          1          1          1          1          1          1          1          1          1          1          1          1          1          1          1          1          1          1          1          1          1          1          1          1          1          1          1          1          1          1          1          1          1          1          1          1          1          1          1          1          1          1          1          1          1          1          1          1          1          1          1          1          1          1          1          1          1          1          1          1          1          1          1          1          1          1          1          1          1          1          1          1          1          1          1          1          1          1          1          1          1          1          1          1          1          1          1          1          1          1          1          1          1          1          1          1          1          1          1          1          1          1          1          1          1          1          1          1          1          1          1          1          1          1          1          1          1          1          1          1          1          1          1          1          1          1          1          1          1          1          1          1          1          1          1          1          1          1          1          1          1          1          1          1          1          1          1          1          1          1          1          1          1          1          1          1          1          1          1          1          1          1          1          1          1          1          1          1 </DataArray>
</CellData>
<PointData>
<DataArray type="Float64"                                    Name="u"                                                      NumberOfComponents=" 3" format="ascii">
              0.000000465               0.000000000               1.000000000              -0.000000039               0.000000000               1.000000000              -0.000000095               0.000000000               1.000000000               0.000000004              -0.000000000               1.000000000               0.000000024              -0.000000000               1.000000000              -0.000000006              -0.000000000               1.000000000              -0.000000041              -0.000000000               1.000000000              -0.000000138              -0.000000000               1.000000000              -0.000000270              -0.000000000               1.000000000              -0.000000351              -0.000000000               1.000000000              -0.000000348              -0.000000000               1.000000000              -0.000000255              -0.000000000               1.000000000              -0.000000095              -0.000000000               1.000000000               0.000000055              -0.000000000               1.000000000               0.000000096               0.000000000               1.000000000              -0.000000057               0.000000000               1.000000000              -0.000000474               0.000000000               1.000000000               0.000000379               0.000001517               1.000000000              -0.000000074               0.000001361               1.000000000              -0.000000080               0.000001429               1.000000000               0.000000025               0.000001692               1.000000000               0.000000067               0.000002080               1.000000000              -0.000000006               0.000002329               1.000000000              -0.000000103               0.000002577               1.000000000              -0.000000162               0.000002876               1.000000000              -0.000000193               0.000003050               1.000000000              -0.000000185               0.000003140               1.000000000              -0.000000107               0.000003146               1.000000000               0.000000008               0.000003138               1.000000000               0.000000114               0.000003208               1.000000000               0.000000156               0.000003428               1.000000000               0.000000045               0.000003859               1.000000000              -0.000000309               0.000004511               1.000000000              -0.000000989               0.000005336               1.000000000               0.000000347               0.000003130               1.000000000              -0.000000039               0.000002725               1.000000000              -0.000000035               0.000002918               1.000000000              -0.000000003               0.000003415               1.000000000              -0.000000020               0.000004220               1.000000000              -0.000000034               0.000004730               1.000000000               0.000000001               0.000005280               1.000000000               0.000000070               0.000005878               1.000000000               0.000000145               0.000006285               1.000000000               0.000000215               0.000006633               1.000000000               0.000000255               0.000006918               1.000000000               0.000000189               0.000007251               1.000000000              -0.000000063               0.000007764               1.000000000              -0.000000555               0.000008583               1.000000000              -0.000001327               0.000009812               1.000000000              -0.000002433               0.000011526               1.000000000              -0.000003927               0.000013787               1.000000000               0.000000321               0.000004821               1.000000000               0.000000002               0.000004140               1.000000000               0.000000057               0.000004440               1.000000000               0.000000104               0.000005310               1.000000000               0.000000035               0.000006553               1.000000000               0.000000005               0.000007430               1.000000000              -0.000000029               0.000008376               1.000000000              -0.000000014               0.000009310               1.000000000               0.000000039               0.000010155               1.000000000              -0.000000008               0.000011015               1.000000000              -0.000000204               0.000011982               1.000000000              -0.000000643               0.000013189               1.000000000              -0.000001458               0.000014764               1.000000000              -0.000002688               0.000016810               1.000000000              -0.000004352               0.000019421               1.000000000              -0.000006468               0.000022690               1.000000000              -0.000009018               0.000026704               1.000000000               0.000000289               0.000006586               1.000000000               0.000000186               0.000005688               1.000000000               0.000000265               0.000006141               1.000000000               0.000000164               0.000007499               1.000000000              -0.000000036               0.000009222               1.000000000              -0.000000098               0.000010748               1.000000000              -0.000000132               0.000012238               1.000000000              -0.000000152               0.000013822               1.000000000              -0.000000297               0.000015401               1.000000000              -0.000000694               0.000017134               1.000000000              -0.000001385               0.000019188               1.000000000              -0.000002476               0.000021701               1.000000000              -0.000004053               0.000024789               1.000000000              -0.000006132               0.000028523               1.000000000              -0.000008711               0.000032962               1.000000000              -0.000011779               0.000038135               1.000000000              -0.000015305               0.000044065               1.000000000               0.000000353               0.000008498               1.000000000               0.000000460               0.000007418               1.000000000               0.000000431               0.000008153               1.000000000               0.000000235               0.000010089               1.000000000               0.000000001               0.000012599               1.000000000              -0.000000109               0.000014947               1.000000000              -0.000000221               0.000017219               1.000000000              -0.000000436               0.000019730               1.000000000              -0.000000915               0.000022350               1.000000000              -0.000001793               0.000025316               1.000000000              -0.000003119               0.000028828               1.000000000              -0.000004947               0.000032971               1.000000000              -0.000007347               0.000037844               1.000000000              -0.000010301               0.000043480               1.000000000              -0.000013760               0.000049894               1.000000000              -0.000017720               0.000057073               1.000000000              -0.000022142               0.000065009               1.000000000               0.000000376               0.000010564               1.000000000               0.000000699               0.000009290               1.000000000               0.000000667               0.000010524               1.000000000               0.000000343               0.000013212               1.000000000              -0.000000087               0.000016634               1.000000000              -0.000000323               0.000019818               1.000000000              -0.000000572               0.000023122               1.000000000              -0.000001023               0.000026774               1.000000000              -0.000001895               0.000030739               1.000000000              -0.000003302               0.000035244               1.000000000              -0.000005231               0.000040502               1.000000000              -0.000007770               0.000046563               1.000000000              -0.000010956               0.000053465               1.000000000              -0.000014703               0.000061232               1.000000000              -0.000019001               0.000069841               1.000000000              -0.000023825               0.000079289               1.000000000              -0.000029114               0.000089540               1.000000000               0.000000422               0.000012788               1.000000000               0.000001023               0.000011392               1.000000000               0.000000834               0.000013166               1.000000000               0.000000251               0.000016727               1.000000000              -0.000000321               0.000021080               1.000000000              -0.000000610               0.000025277               1.000000000              -0.000000944               0.000029782               1.000000000              -0.000001697               0.000034814               1.000000000              -0.000003032               0.000040352               1.000000000              -0.000004940               0.000046730               1.000000000              -0.000007461               0.000054042               1.000000000              -0.000010688               0.000062340               1.000000000              -0.000014541               0.000071648               1.000000000              -0.000019001               0.000081948               1.000000000              -0.000024031               0.000093227               1.000000000              -0.000029601               0.000105363               1.000000000              -0.000035630               0.000118251               1.000000000               0.000000436               0.000014972               1.000000000               0.000001288               0.000013648               1.000000000               0.000000927               0.000016057               1.000000000               0.000000131               0.000020507               1.000000000              -0.000000538               0.000025782               1.000000000              -0.000000819               0.000031231               1.000000000              -0.000001309               0.000037159               1.000000000              -0.000002436               0.000043858               1.000000000              -0.000004167               0.000051305               1.000000000              -0.000006536               0.000059891               1.000000000              -0.000009645               0.000069632               1.000000000              -0.000013460               0.000080500               1.000000000              -0.000017878               0.000092597               1.000000000              -0.000022922               0.000105833               1.000000000              -0.000028507               0.000120101               1.000000000              -0.000034570               0.000135317               1.000000000              -0.000040938               0.000151200               1.000000000               0.000000311               0.000017169               1.000000000               0.000001406               0.000015931               1.000000000               0.000001244               0.000018006               1.000000000               0.000000481               0.000022109               1.000000000              -0.000000320               0.000027318               1.000000000              -0.000000703               0.000033018               1.000000000              -0.000000957               0.000039131               1.000000000              -0.000001732               0.000045832               1.000000000              -0.000002945               0.000053216               1.000000000              -0.000004604               0.000061353               1.000000000              -0.000006819               0.000070530               1.000000000              -0.000009549               0.000080662               1.000000000              -0.000012795               0.000091821               1.000000000              -0.000016484               0.000104035               1.000000000              -0.000020637               0.000117342               1.000000000              -0.000025213               0.000131588               1.000000000              -0.000030194               0.000146891               1.000000000               0.000000216               0.000019359               1.000000000               0.000001548               0.000018302               1.000000000               0.000001507               0.000020014               1.000000000               0.000000806               0.000023705               1.000000000              -0.000000045               0.000028749               1.000000000              -0.000000585               0.000034564               1.000000000              -0.000000801               0.000040851               1.000000000              -0.000001231               0.000047665               1.000000000              -0.000002002               0.000055064               1.000000000              -0.000003102               0.000063046               1.000000000              -0.000004571               0.000071816               1.000000000              -0.000006389               0.000081463               1.000000000              -0.000008592               0.000091953               1.000000000              -0.000011150               0.000103287               1.000000000              -0.000014015               0.000115608               1.000000000              -0.000017241               0.000128842               1.000000000              -0.000020852               0.000143000               1.000000000               0.000000147               0.000021379               1.000000000               0.000001568               0.000020542               1.000000000               0.000001633               0.000022032               1.000000000               0.000001082               0.000025397               1.000000000               0.000000270               0.000030187               1.000000000              -0.000000360               0.000035978               1.000000000              -0.000000644               0.000042336               1.000000000              -0.000000840               0.000049271               1.000000000              -0.000001266               0.000056722               1.000000000              -0.000001915               0.000064711               1.000000000              -0.000002818               0.000073272               1.000000000              -0.000003969               0.000082578               1.000000000              -0.000005342               0.000092671               1.000000000              -0.000006978               0.000103486               1.000000000              -0.000008815               0.000115032               1.000000000              -0.000010835               0.000127457               1.000000000              -0.000013061               0.000140668               1.000000000               0.000000082               0.000023127               1.000000000               0.000001449               0.000022595               1.000000000               0.000001630               0.000024011               1.000000000               0.000001230               0.000027114               1.000000000               0.000000547               0.000031605               1.000000000              -0.000000088               0.000037168               1.000000000              -0.000000435               0.000043509               1.000000000              -0.000000547               0.000050482               1.000000000              -0.000000742               0.000058058               1.000000000              -0.000001085               0.000066124               1.000000000              -0.000001558               0.000074684               1.000000000              -0.000002217               0.000083826               1.000000000              -0.000002992               0.000093638               1.000000000              -0.000003890               0.000104167               1.000000000              -0.000004927               0.000115290               1.000000000              -0.000006039               0.000127122               1.000000000              -0.000007173               0.000139689               1.000000000               0.000000045               0.000024573               1.000000000               0.000001226               0.000024417               1.000000000               0.000001438               0.000025808               1.000000000               0.000001187               0.000028666               1.000000000               0.000000696               0.000032893               1.000000000               0.000000177               0.000038216               1.000000000              -0.000000192               0.000044479               1.000000000              -0.000000320               0.000051433               1.000000000              -0.000000403               0.000059030               1.000000000              -0.000000547               0.000067173               1.000000000              -0.000000741               0.000075766               1.000000000              -0.000001029               0.000084864               1.000000000              -0.000001409               0.000094540               1.000000000              -0.000001829               0.000104849               1.000000000              -0.000002308               0.000115814               1.000000000              -0.000002825               0.000127311               1.000000000              -0.000003321               0.000139424               1.000000000               0.000000023               0.000025646               1.000000000               0.000000875               0.000025808               1.000000000               0.000001066               0.000027239               1.000000000               0.000000961               0.000029992               1.000000000               0.000000647               0.000033977               1.000000000               0.000000265               0.000039078               1.000000000              -0.000000038               0.000045169               1.000000000              -0.000000151               0.000052060               1.000000000              -0.000000188               0.000059637               1.000000000              -0.000000239               0.000067795               1.000000000              -0.000000296               0.000076457               1.000000000              -0.000000375               0.000085549               1.000000000              -0.000000493               0.000095163               1.000000000              -0.000000641               0.000105320               1.000000000              -0.000000809               0.000116138               1.000000000              -0.000000999               0.000127443               1.000000000              -0.000001216               0.000139274               1.000000000               0.000000006               0.000026298               1.000000000               0.000000448               0.000026698               1.000000000               0.000000579               0.000028183               1.000000000               0.000000536               0.000030885               1.000000000               0.000000390               0.000034735               1.000000000               0.000000201               0.000039701               1.000000000               0.000000032               0.000045641               1.000000000              -0.000000054               0.000052434               1.000000000              -0.000000082               0.000059982               1.000000000              -0.000000092               0.000068131               1.000000000              -0.000000087               0.000076823               1.000000000              -0.000000087               0.000085927               1.000000000              -0.000000096               0.000095489               1.000000000              -0.000000119               0.000105542               1.000000000              -0.000000158               0.000116200               1.000000000              -0.000000222               0.000127368               1.000000000              -0.000000321               0.000139049               1.000000000              -0.000000000               0.000026507               1.000000000              -0.000000000               0.000027009               1.000000000               0.000000000               0.000028522               1.000000000               0.000000000               0.000031199               1.000000000               0.000000000               0.000034991               1.000000000               0.000000000               0.000039901               1.000000000              -0.000000000               0.000045798               1.000000000              -0.000000000               0.000052575               1.000000000               0.000000000               0.000060111               1.000000000              -0.000000000               0.000068248               1.000000000              -0.000000000               0.000076949               1.000000000              -0.000000000               0.000086048               1.000000000               0.000000000               0.000095583               1.000000000              -0.000000000               0.000105597               1.000000000              -0.000000000               0.000116175               1.000000000               0.000000000               0.000127274               1.000000000               0.000000000               0.000138900               1.000000000               0.000000465               0.000000000               1.000000000              -0.000000039               0.000000000               1.000000000              -0.000000095               0.000000000               1.000000000               0.000000004              -0.000000000               1.000000000               0.000000024              -0.000000000               1.000000000              -0.000000006              -0.000000000               1.000000000              -0.000000041              -0.000000000               1.000000000              -0.000000138              -0.000000000               1.000000000              -0.000000270              -0.000000000               1.000000000              -0.000000351              -0.000000000               1.000000000              -0.000000348              -0.000000000               1.000000000              -0.000000255              -0.000000000               1.000000000              -0.000000095              -0.000000000               1.000000000               0.000000055              -0.000000000               1.000000000               0.000000096               0.000000000               1.000000000              -0.000000057               0.000000000               1.000000000              -0.000000474               0.000000000               1.000000000               0.000000379              -0.000001517               1.000000000              -0.000000074              -0.000001361               1.000000000              -0.000000080              -0.000001429               1.000000000               0.000000025              -0.000001692               1.000000000               0.000000067              -0.000002080               1.000000000              -0.000000006              -0.000002329               1.000000000              -0.000000103              -0.000002577               1.000000000              -0.000000162              -0.000002876               1.000000000              -0.000000193              -0.000003050               1.000000000              -0.000000185              -0.000003140               1.000000000              -0.000000107              -0.000003146               1.000000000               0.000000008              -0.000003138               1.000000000               0.000000114              -0.000003208               1.000000000               0.000000156              -0.000003428               1.000000000               0.000000045              -0.000003859               1.000000000              -0.000000309              -0.000004511               1.000000000              -0.000000989              -0.000005336               1.000000000               0.000000347              -0.000003130               1.000000000              -0.000000039              -0.000002725               1.000000000              -0.000000035              -0.000002918               1.000000000              -0.000000003              -0.000003415               1.000000000              -0.000000020              -0.000004220               1.000000000              -0.000000034              -0.000004730               1.000000000               0.000000001              -0.000005280               1.000000000               0.000000070              -0.000005878               1.000000000               0.000000145              -0.000006285               1.000000000               0.000000215              -0.000006633               1.000000000               0.000000255              -0.000006918               1.000000000               0.000000189              -0.000007251               1.000000000              -0.000000063              -0.000007764               1.000000000              -0.000000555              -0.000008583               1.000000000              -0.000001327              -0.000009812               1.000000000              -0.000002433              -0.000011526               1.000000000              -0.000003927              -0.000013787               1.000000000               0.000000321              -0.000004821               1.000000000               0.000000002              -0.000004140               1.000000000               0.000000057              -0.000004440               1.000000000               0.000000104              -0.000005310               1.000000000               0.000000035              -0.000006553               1.000000000               0.000000005              -0.000007430               1.000000000              -0.000000029              -0.000008376               1.000000000              -0.000000014              -0.000009310               1.000000000               0.000000039              -0.000010155               1.000000000              -0.000000008              -0.000011015               1.000000000              -0.000000204              -0.000011982               1.000000000              -0.000000643              -0.000013189               1.000000000              -0.000001458              -0.000014764               1.000000000              -0.000002688              -0.000016810               1.000000000              -0.000004352              -0.000019421               1.000000000              -0.000006468              -0.000022690               1.000000000              -0.000009018              -0.000026704               1.000000000               0.000000289              -0.000006586               1.000000000               0.000000186              -0.000005688               1.000000000               0.000000265              -0.000006141               1.000000000               0.000000164              -0.000007499               1.000000000              -0.000000036              -0.000009222               1.000000000              -0.000000098              -0.000010748               1.000000000              -0.000000132              -0.000012238               1.000000000              -0.000000152              -0.000013822               1.000000000              -0.000000297              -0.000015401               1.000000000              -0.000000694              -0.000017134               1.000000000              -0.000001385              -0.000019188               1.000000000              -0.000002476              -0.000021701               1.000000000              -0.000004053              -0.000024789               1.000000000              -0.000006132              -0.000028523               1.000000000              -0.000008711              -0.000032962               1.000000000              -0.000011779              -0.000038135               1.000000000              -0.000015305              -0.000044065               1.000000000               0.000000353              -0.000008498               1.000000000               0.000000460              -0.000007418               1.000000000               0.000000431              -0.000008153               1.000000000               0.000000235              -0.000010089               1.000000000               0.000000001              -0.000012599               1.000000000              -0.000000109              -0.000014947               1.000000000              -0.000000221              -0.000017219               1.000000000              -0.000000436              -0.000019730               1.000000000              -0.000000915              -0.000022350               1.000000000              -0.000001793              -0.000025316               1.000000000              -0.000003119              -0.000028828               1.000000000              -0.000004947              -0.000032971               1.000000000              -0.000007347              -0.000037844               1.000000000              -0.000010301              -0.000043480               1.000000000              -0.000013760              -0.000049894               1.000000000              -0.000017720              -0.000057073               1.000000000              -0.000022142              -0.000065009               1.000000000               0.000000376              -0.000010564               1.000000000               0.000000699              -0.000009290               1.000000000               0.000000667              -0.000010524               1.000000000               0.000000343              -0.000013212               1.000000000              -0.000000087              -0.000016634               1.000000000              -0.000000323              -0.000019818               1.000000000              -0.000000572              -0.000023122               1.000000000              -0.000001023              -0.000026774               1.000000000              -0.000001895              -0.000030739               1.000000000              -0.000003302              -0.000035244               1.000000000              -0.000005231              -0.000040502               1.000000000              -0.000007770              -0.000046563               1.000000000              -0.000010956              -0.000053465               1.000000000              -0.000014703              -0.000061232               1.000000000              -0.000019001              -0.000069841               1.000000000              -0.000023825              -0.000079289               1.000000000              -0.000029114              -0.000089540               1.000000000               0.000000422              -0.000012788               1.000000000               0.000001023              -0.000011392               1.000000000               0.000000834              -0.000013166               1.000000000               0.000000251              -0.000016727               1.000000000              -0.000000321              -0.000021080               1.000000000              -0.000000610              -0.000025277               1.000000000              -0.000000944              -0.000029782               1.000000000              -0.000001697              -0.000034814               1.000000000              -0.000003032              -0.000040352               1.000000000              -0.000004940              -0.000046730               1.000000000              -0.000007461              -0.000054042               1.000000000              -0.000010688              -0.000062340               1.000000000              -0.000014541              -0.000071648               1.000000000              -0.000019001              -0.000081948               1.000000000              -0.000024031              -0.000093227               1.000000000              -0.000029601              -0.000105363               1.000000000              -0.000035630              -0.000118251               1.000000000               0.000000436              -0.000014972               1.000000000               0.000001288              -0.000013648               1.000000000               0.000000927              -0.000016057               1.000000000               0.000000131              -0.000020507               1.000000000              -0.000000538              -0.000025782               1.000000000              -0.000000819              -0.000031231               1.000000000              -0.000001309              -0.000037159               1.000000000              -0.000002436              -0.000043858               1.000000000              -0.000004167              -0.000051305               1.000000000              -0.000006536              -0.000059891               1.000000000              -0.000009645              -0.000069632               1.000000000              -0.000013460              -0.000080500               1.000000000              -0.000017878              -0.000092597               1.000000000              -0.000022922              -0.000105833               1.000000000              -0.000028507              -0.000120101               1.000000000              -0.000034570              -0.000135317               1.000000000              -0.000040938              -0.000151200               1.000000000               0.000000311              -0.000017169               1.000000000               0.000001406              -0.000015931               1.000000000               0.000001244              -0.000018006               1.000000000               0.000000481              -0.000022109               1.000000000              -0.000000320              -0.000027318               1.000000000              -0.000000703              -0.000033018               1.000000000              -0.000000957              -0.000039131               1.000000000              -0.000001732              -0.000045832               1.000000000              -0.000002945              -0.000053216               1.000000000              -0.000004604              -0.000061353               1.000000000              -0.000006819              -0.000070530               1.000000000              -0.000009549              -0.000080662               1.000000000              -0.000012795              -0.000091821               1.000000000              -0.000016484              -0.000104035               1.000000000              -0.000020637              -0.000117342               1.000000000              -0.000025213              -0.000131588               1.000000000              -0.000030194              -0.000146891               1.000000000               0.000000216              -0.000019359               1.000000000               0.000001548              -0.000018302               1.000000000               0.000001507              -0.000020014               1.000000000               0.000000806              -0.000023705               1.000000000              -0.000000045              -0.000028749               1.000000000              -0.000000585              -0.000034564               1.000000000              -0.000000801              -0.000040851               1.000000000              -0.000001231              -0.000047665               1.000000000              -0.000002002              -0.000055064               1.000000000              -0.000003102              -0.000063046               1.000000000              -0.000004571              -0.000071816               1.000000000              -0.000006389              -0.000081463               1.000000000              -0.000008592              -0.000091953               1.000000000              -0.000011150              -0.000103287               1.000000000              -0.000014015              -0.000115608               1.000000000              -0.000017241              -0.000128842               1.000000000              -0.000020852              -0.000143000               1.000000000               0.000000147              -0.000021379               1.000000000               0.000001568              -0.000020542               1.000000000               0.000001633              -0.000022032               1.000000000               0.000001082              -0.000025397               1.000000000               0.000000270              -0.000030187               1.000000000              -0.000000360              -0.000035978               1.000000000              -0.000000644              -0.000042336               1.000000000              -0.000000840              -0.000049271               1.000000000              -0.000001266              -0.000056722               1.000000000              -0.000001915              -0.000064711               1.000000000              -0.000002818              -0.000073272               1.000000000              -0.000003969              -0.000082578               1.000000000              -0.000005342              -0.000092671               1.000000000              -0.000006978              -0.000103486               1.000000000              -0.000008815              -0.000115032               1.000000000              -0.000010835              -0.000127457               1.000000000              -0.000013061              -0.000140668               1.000000000               0.000000082              -0.000023127               1.000000000               0.000001449              -0.000022595               1.000000000               0.000001630              -0.000024011               1.000000000               0.000001230              -0.000027114               1.000000000               0.000000547              -0.000031605               1.000000000              -0.000000088              -0.000037168               1.000000000              -0.000000435              -0.000043509               1.000000000              -0.000000547              -0.000050482               1.000000000              -0.000000742              -0.000058058               1.000000000              -0.000001085              -0.000066124               1.000000000              -0.000001558              -0.000074684               1.000000000              -0.000002217              -0.000083826               1.000000000              -0.000002992              -0.000093638               1.000000000              -0.000003890              -0.000104167               1.000000000              -0.000004927              -0.000115290               1.000000000              -0.000006039              -0.000127122               1.000000000              -0.000007173              -0.000139689               1.000000000               0.000000045              -0.000024573               1.000000000               0.000001226              -0.000024417               1.000000000               0.000001438              -0.000025808               1.000000000               0.000001187              -0.000028666               1.000000000               0.000000696              -0.000032893               1.000000000               0.000000177              -0.000038216               1.000000000              -0.000000192              -0.000044479               1.000000000              -0.000000320              -0.000051433               1.000000000              -0.000000403              -0.000059030               1.000000000              -0.000000547              -0.000067173               1.000000000              -0.000000741              -0.000075766               1.000000000              -0.000001029              -0.000084864               1.000000000              -0.000001409              -0.000094540               1.000000000              -0.000001829              -0.000104849               1.000000000              -0.000002308              -0.000115814               1.000000000              -0.000002825              -0.000127311               1.000000000              -0.000003321              -0.000139424               1.000000000               0.000000023              -0.000025646               1.000000000               0.000000875              -0.000025808               1.000000000               0.000001066              -0.000027239               1.000000000               0.000000961              -0.000029992               1.000000000               0.000000647              -0.000033977               1.000000000               0.000000265              -0.000039078               1.000000000              -0.000000038              -0.000045169               1.000000000              -0.000000151              -0.000052060               1.000000000              -0.000000188              -0.000059637               1.000000000              -0.000000239              -0.000067795               1.000000000              -0.000000296              -0.000076457               1.000000000              -0.000000375              -0.000085549               1.000000000              -0.000000493              -0.000095163               1.000000000              -0.000000641              -0.000105320               1.000000000              -0.000000809              -0.000116138               1.000000000              -0.000000999              -0.000127443               1.000000000              -0.000001216              -0.000139274               1.000000000               0.000000006              -0.000026298               1.000000000               0.000000448              -0.000026698               1.000000000               0.000000579              -0.000028183               1.000000000               0.000000536              -0.000030885               1.000000000               0.000000390              -0.000034735               1.000000000               0.000000201              -0.000039701               1.000000000               0.000000032              -0.000045641               1.000000000              -0.000000054              -0.000052434               1.000000000              -0.000000082              -0.000059982               1.000000000              -0.000000092              -0.000068131               1.000000000              -0.000000087              -0.000076823               1.000000000              -0.000000087              -0.000085927               1.000000000              -0.000000096              -0.000095489               1.000000000              -0.000000119              -0.000105542               1.000000000              -0.000000158              -0.000116200               1.000000000              -0.000000222              -0.000127368               1.000000000              -0.000000321              -0.000139049               1.000000000              -0.000000000              -0.000026507               1.000000000               0.000000000              -0.000027009               1.000000000               0.000000000              -0.000028522               1.000000000              -0.000000000              -0.000031199               1.000000000              -0.000000000              -0.000034991               1.000000000              -0.000000000              -0.000039901               1.000000000              -0.000000000              -0.000045798               1.000000000              -0.000000000              -0.000052575               1.000000000              -0.000000000              -0.000060111               1.000000000               0.000000000              -0.000068248               1.000000000               0.000000000              -0.000076949               1.000000000              -0.000000000              -0.000086048               1.000000000              -0.000000000              -0.000095583               1.000000000              -0.000000000              -0.000105597               1.000000000              -0.000000000              -0.000116175               1.000000000               0.000000000              -0.000127274               1.000000000               0.000000000              -0.000138900               1.000000000              -0.000000465               0.000000000               1.000000000               0.000000039               0.000000000               1.000000000               0.000000095              -0.000000000               1.000000000              -0.000000004               0.000000000               1.000000000              -0.000000024               0.000000000               1.000000000               0.000000006              -0.000000000               1.000000000               0.000000041              -0.000000000               1.000000000               0.000000138              -0.000000000               1.000000000               0.000000270               0.000000000               1.000000000               0.000000351               0.000000000               1.000000000               0.000000348               0.000000000               1.000000000               0.000000255               0.000000000               1.000000000               0.000000095               0.000000000               1.000000000              -0.000000055               0.000000000               1.000000000              -0.000000096               0.000000000               1.000000000               0.000000057               0.000000000               1.000000000               0.000000474               0.000000000               1.000000000              -0.000000379              -0.000001517               1.000000000               0.000000074              -0.000001361               1.000000000               0.000000080              -0.000001429               1.000000000              -0.000000025              -0.000001692               1.000000000              -0.000000067              -0.000002080               1.000000000               0.000000006              -0.000002329               1.000000000               0.000000103              -0.000002577               1.000000000               0.000000162              -0.000002876               1.000000000               0.000000193              -0.000003050               1.000000000               0.000000185              -0.000003140               1.000000000               0.000000107              -0.000003146               1.000000000              -0.000000008              -0.000003138               1.000000000              -0.000000114              -0.000003208               1.000000000              -0.000000156              -0.000003428               1.000000000              -0.000000045              -0.000003859               1.000000000               0.000000309              -0.000004511               1.000000000               0.000000989              -0.000005336               1.000000000              -0.000000347              -0.000003130               1.000000000               0.000000039              -0.000002725               1.000000000               0.000000035              -0.000002918               1.000000000               0.000000003              -0.000003415               1.000000000               0.000000020              -0.000004220               1.000000000               0.000000034              -0.000004730               1.000000000              -0.000000001              -0.000005280               1.000000000              -0.000000070              -0.000005878               1.000000000              -0.000000145              -0.000006285               1.000000000              -0.000000215              -0.000006633               1.000000000              -0.000000255              -0.000006918               1.000000000              -0.000000189              -0.000007251               1.000000000               0.000000063              -0.000007764               1.000000000               0.000000555              -0.000008583               1.000000000               0.000001327              -0.000009812               1.000000000               0.000002433              -0.000011526               1.000000000               0.000003927              -0.000013787               1.000000000              -0.000000321              -0.000004821               1.000000000              -0.000000002              -0.000004140               1.000000000              -0.000000057              -0.000004440               1.000000000              -0.000000104              -0.000005310               1.000000000              -0.000000035              -0.000006553               1.000000000              -0.000000005              -0.000007430               1.000000000               0.000000029              -0.000008376               1.000000000               0.000000014              -0.000009310               1.000000000              -0.000000039              -0.000010155               1.000000000               0.000000008              -0.000011015               1.000000000               0.000000204              -0.000011982               1.000000000               0.000000643              -0.000013189               1.000000000               0.000001458              -0.000014764               1.000000000               0.000002688              -0.000016810               1.000000000               0.000004352              -0.000019421               1.000000000               0.000006468              -0.000022690               1.000000000               0.000009018              -0.000026704               1.000000000              -0.000000289              -0.000006586               1.000000000              -0.000000186              -0.000005688               1.000000000              -0.000000265              -0.000006141               1.000000000              -0.000000164              -0.000007499               1.000000000               0.000000036              -0.000009222               1.000000000               0.000000098              -0.000010748               1.000000000               0.000000132              -0.000012238               1.000000000               0.000000152              -0.000013822               1.000000000               0.000000297              -0.000015401               1.000000000               0.000000694              -0.000017134               1.000000000               0.000001385              -0.000019188               1.000000000               0.000002476              -0.000021701               1.000000000               0.000004053              -0.000024789               1.000000000               0.000006132              -0.000028523               1.000000000               0.000008711              -0.000032962               1.000000000               0.000011779              -0.000038135               1.000000000               0.000015305              -0.000044065               1.000000000              -0.000000353              -0.000008498               1.000000000              -0.000000460              -0.000007418               1.000000000              -0.000000431              -0.000008153               1.000000000              -0.000000235              -0.000010089               1.000000000              -0.000000001              -0.000012599               1.000000000               0.000000109              -0.000014947               1.000000000               0.000000221              -0.000017219               1.000000000               0.000000436              -0.000019730               1.000000000               0.000000915              -0.000022350               1.000000000               0.000001793              -0.000025316               1.000000000               0.000003119              -0.000028828               1.000000000               0.000004947              -0.000032971               1.000000000               0.000007347              -0.000037844               1.000000000               0.000010301              -0.000043480               1.000000000               0.000013760              -0.000049894               1.000000000               0.000017720              -0.000057073               1.000000000               0.000022142              -0.000065009               1.000000000              -0.000000376              -0.000010564               1.000000000              -0.000000699              -0.000009290               1.000000000              -0.000000667              -0.000010524               1.000000000              -0.000000343              -0.000013212               1.000000000               0.000000087              -0.000016634               1.000000000               0.000000323              -0.000019818               1.000000000               0.000000572              -0.000023122               1.000000000               0.000001023              -0.000026774               1.000000000               0.000001895              -0.000030739               1.000000000               0.000003302              -0.000035244               1.000000000               0.000005231              -0.000040502               1.000000000               0.000007770              -0.000046563               1.000000000               0.000010956              -0.000053465               1.000000000               0.000014703              -0.000061232               1.000000000               0.000019001              -0.000069841               1.000000000               0.000023825              -0.000079289               1.000000000               0.000029114              -0.000089540               1.000000000              -0.000000422              -0.000012788               1.000000000              -0.000001023              -0.000011392               1.000000000              -0.000000834              -0.000013166               1.000000000              -0.000000251              -0.000016727               1.000000000               0.000000321              -0.000021080               1.000000000               0.000000610              -0.000025277               1.000000000               0.000000944              -0.000029782               1.000000000               0.000001697              -0.000034814               1.000000000               0.000003032              -0.000040352               1.000000000               0.000004940              -0.000046730               1.000000000               0.000007461              -0.000054042               1.000000000               0.000010688              -0.000062340               1.000000000               0.000014541              -0.000071648               1.000000000               0.000019001              -0.000081948               1.000000000               0.000024031              -0.000093227               1.000000000               0.000029601              -0.000105363               1.000000000               0.000035630              -0.000118251               1.000000000              -0.000000436              -0.000014972               1.000000000              -0.000001288              -0.000013648               1.000000000              -0.000000927              -0.000016057               1.000000000              -0.000000131              -0.000020507               1.000000000               0.000000538              -0.000025782               1.000000000               0.000000819              -0.000031231               1.000000000               0.000001309              -0.000037159               1.000000000               0.000002436              -0.000043858               1.000000000               0.000004167              -0.000051305               1.000000000               0.000006536              -0.000059891               1.000000000               0.000009645              -0.000069632               1.000000000               0.000013460              -0.000080500               1.000000000               0.000017878              -0.000092597               1.000000000               0.000022922              -0.000105833               1.000000000               0.000028507              -0.000120101               1.000000000               0.000034570              -0.000135317               1.000000000               0.000040938              -0.000151200               1.000000000              -0.000000311              -0.000017169               1.000000000              -0.000001406              -0.000015931               1.000000000              -0.000001244              -0.000018006               1.000000000              -0.000000481              -0.000022109               1.000000000               0.000000320              -0.000027318               1.000000000               0.000000703              -0.000033018               1.000000000               0.000000957              -0.000039131               1.000000000               0.000001732              -0.000045832               1.000000000               0.000002945              -0.000053216               1.000000000               0.000004604              -0.000061353               1.000000000               0.000006819              -0.000070530               1.000000000               0.000009549              -0.000080662               1.000000000               0.000012795              -0.000091821               1.000000000               0.000016484              -0.000104035               1.000000000               0.000020637              -0.000117342               1.000000000               0.000025213              -0.000131588               1.000000000               0.000030194              -0.000146891               1.000000000              -0.000000216              -0.000019359               1.000000000              -0.000001548              -0.000018302               1.000000000              -0.000001507              -0.000020014               1.000000000              -0.000000806              -0.000023705               1.000000000               0.000000045              -0.000028749               1.000000000               0.000000585              -0.000034564               1.000000000               0.000000801              -0.000040851               1.000000000               0.000001231              -0.000047665               1.000000000               0.000002002              -0.000055064               1.000000000               0.000003102              -0.000063046               1.000000000               0.000004571              -0.000071816               1.000000000               0.000006389              -0.000081463               1.000000000               0.000008592              -0.000091953               1.000000000               0.000011150              -0.000103287               1.000000000               0.000014015              -0.000115608               1.000000000               0.000017241              -0.000128842               1.000000000               0.000020852              -0.000143000               1.000000000              -0.000000147              -0.000021379               1.000000000              -0.000001568              -0.000020542               1.000000000              -0.000001633              -0.000022032               1.000000000              -0.000001082              -0.000025397               1.000000000              -0.000000270              -0.000030187               1.000000000               0.000000360              -0.000035978               1.000000000               0.000000644              -0.000042336               1.000000000               0.000000840              -0.000049271               1.000000000               0.000001266              -0.000056722               1.000000000               0.000001915              -0.000064711               1.000000000               0.000002818              -0.000073272               1.000000000               0.000003969              -0.000082578               1.000000000               0.000005342              -0.000092671               1.000000000               0.000006978              -0.000103486               1.000000000               0.000008815              -0.000115032               1.000000000               0.000010835              -0.000127457               1.000000000               0.000013061              -0.000140668               1.000000000              -0.000000082              -0.000023127               1.000000000              -0.000001449              -0.000022595               1.000000000              -0.000001630              -0.000024011               1.000000000              -0.000001230              -0.000027114               1.000000000              -0.000000547              -0.000031605               1.000000000               0.000000088              -0.000037168               1.000000000               0.000000435              -0.000043509               1.000000000               0.000000547              -0.000050482               1.000000000               0.000000742              -0.000058058               1.000000000               0.000001085              -0.000066124               1.000000000               0.000001558              -0.000074684               1.000000000               0.000002217              -0.000083826               1.000000000               0.000002992              -0.000093638               1.000000000               0.000003890              -0.000104167               1.000000000               0.000004927              -0.000115290               1.000000000               0.000006039              -0.000127122               1.000000000               0.000007173              -0.000139689               1.000000000              -0.000000045              -0.000024573               1.000000000              -0.000001226              -0.000024417               1.000000000              -0.000001438              -0.000025808               1.000000000              -0.000001187              -0.000028666               1.000000000              -0.000000696              -0.000032893               1.000000000              -0.000000177              -0.000038216               1.000000000               0.000000192              -0.000044479               1.000000000               0.000000320              -0.000051433               1.000000000               0.000000403              -0.000059030               1.000000000               0.000000547              -0.000067173               1.000000000               0.000000741              -0.000075766               1.000000000               0.000001029              -0.000084864               1.000000000               0.000001409              -0.000094540               1.000000000               0.000001829              -0.000104849               1.000000000               0.000002308              -0.000115814               1.000000000               0.000002825              -0.000127311               1.000000000               0.000003321              -0.000139424               1.000000000              -0.000000023              -0.000025646               1.000000000              -0.000000875              -0.000025808               1.000000000              -0.000001066              -0.000027239               1.000000000              -0.000000961              -0.000029992               1.000000000              -0.000000647              -0.000033977               1.000000000              -0.000000265              -0.000039078               1.000000000               0.000000038              -0.000045169               1.000000000               0.000000151              -0.000052060               1.000000000               0.000000188              -0.000059637               1.000000000               0.000000239              -0.000067795               1.000000000               0.000000296              -0.000076457               1.000000000               0.000000375              -0.000085549               1.000000000               0.000000493              -0.000095163               1.000000000               0.000000641              -0.000105320               1.000000000               0.000000809              -0.000116138               1.000000000               0.000000999              -0.000127443               1.000000000               0.000001216              -0.000139274               1.000000000              -0.000000006              -0.000026298               1.000000000              -0.000000448              -0.000026698               1.000000000              -0.000000579              -0.000028183               1.000000000              -0.000000536              -0.000030885               1.000000000              -0.000000390              -0.000034735               1.000000000              -0.000000201              -0.000039701               1.000000000              -0.000000032              -0.000045641               1.000000000               0.000000054              -0.000052434               1.000000000               0.000000082              -0.000059982               1.000000000               0.000000092              -0.000068131               1.000000000               0.000000087              -0.000076823               1.000000000               0.000000087              -0.000085927               1.000000000               0.000000096              -0.000095489               1.000000000               0.000000119              -0.000105542               1.000000000               0.000000158              -0.000116200               1.000000000               0.000000222              -0.000127368               1.000000000               0.000000321              -0.000139049               1.000000000              -0.000000000              -0.000026507               1.000000000               0.000000000              -0.000027009               1.000000000               0.000000000              -0.000028522               1.000000000              -0.000000000              -0.000031199               1.000000000              -0.000000000              -0.000034991               1.000000000              -0.000000000              -0.000039901               1.000000000              -0.000000000              -0.000045798               1.000000000              -0.000000000              -0.000052575               1.000000000              -0.000000000              -0.000060111               1.000000000               0.000000000              -0.000068248               1.000000000               0.000000000              -0.000076949               1.000000000              -0.000000000              -0.000086048               1.000000000              -0.000000000              -0.000095583               1.000000000              -0.000000000              -0.000105597               1.000000000              -0.000000000              -0.000116175               1.000000000               0.000000000              -0.000127274               1.000000000               0.000000000              -0.000138900               1.000000000              -0.000000465               0.000000000               1.000000000               0.000000039               0.000000000               1.000000000               0.000000095              -0.000000000               1.000000000              -0.000000004               0.000000000               1.000000000              -0.000000024               0.000000000               1.000000000               0.000000006              -0.000000000               1.000000000               0.000000041              -0.000000000               1.000000000               0.000000138              -0.000000000               1.000000000               0.000000270               0.000000000               1.000000000               0.000000351               0.000000000               1.000000000               0.000000348               0.000000000               1.000000000               0.000000255               0.000000000               1.000000000               0.000000095               0.000000000               1.000000000              -0.000000055               0.000000000               1.000000000              -0.000000096               0.000000000               1.000000000               0.000000057               0.000000000               1.000000000               0.000000474               0.000000000               1.000000000              -0.000000379               0.000001517               1.000000000               0.000000074               0.000001361               1.000000000               0.000000080               0.000001429               1.000000000              -0.000000025               0.000001692               1.000000000              -0.000000067               0.000002080               1.000000000               0.000000006               0.000002329               1.000000000               0.000000103               0.000002577               1.000000000               0.000000162               0.000002876               1.000000000               0.000000193               0.000003050               1.000000000               0.000000185               0.000003140               1.000000000               0.000000107               0.000003146               1.000000000              -0.000000008               0.000003138               1.000000000              -0.000000114               0.000003208               1.000000000              -0.000000156               0.000003428               1.000000000              -0.000000045               0.000003859               1.000000000               0.000000309               0.000004511               1.000000000               0.000000989               0.000005336               1.000000000              -0.000000347               0.000003130               1.000000000               0.000000039               0.000002725               1.000000000               0.000000035               0.000002918               1.000000000               0.000000003               0.000003415               1.000000000               0.000000020               0.000004220               1.000000000               0.000000034               0.000004730               1.000000000              -0.000000001               0.000005280               1.000000000              -0.000000070               0.000005878               1.000000000              -0.000000145               0.000006285               1.000000000              -0.000000215               0.000006633               1.000000000              -0.000000255               0.000006918               1.000000000              -0.000000189               0.000007251               1.000000000               0.000000063               0.000007764               1.000000000               0.000000555               0.000008583               1.000000000               0.000001327               0.000009812               1.000000000               0.000002433               0.000011526               1.000000000               0.000003927               0.000013787               1.000000000              -0.000000321               0.000004821               1.000000000              -0.000000002               0.000004140               1.000000000              -0.000000057               0.000004440               1.000000000              -0.000000104               0.000005310               1.000000000              -0.000000035               0.000006553               1.000000000              -0.000000005               0.000007430               1.000000000               0.000000029               0.000008376               1.000000000               0.000000014               0.000009310               1.000000000              -0.000000039               0.000010155               1.000000000               0.000000008               0.000011015               1.000000000               0.000000204               0.000011982               1.000000000               0.000000643               0.000013189               1.000000000               0.000001458               0.000014764               1.000000000               0.000002688               0.000016810               1.000000000               0.000004352               0.000019421               1.000000000               0.000006468               0.000022690               1.000000000               0.000009018               0.000026704               1.000000000              -0.000000289               0.000006586               1.000000000              -0.000000186               0.000005688               1.000000000              -0.000000265               0.000006141               1.000000000              -0.000000164               0.000007499               1.000000000               0.000000036               0.000009222               1.000000000               0.000000098               0.000010748               1.000000000               0.000000132               0.000012238               1.000000000               0.000000152               0.000013822               1.000000000               0.000000297               0.000015401               1.000000000               0.000000694               0.000017134               1.000000000               0.000001385               0.000019188               1.000000000               0.000002476               0.000021701               1.000000000               0.000004053               0.000024789               1.000000000               0.000006132               0.000028523               1.000000000               0.000008711               0.000032962               1.000000000               0.000011779               0.000038135               1.000000000               0.000015305               0.000044065               1.000000000              -0.000000353               0.000008498               1.000000000              -0.000000460               0.000007418               1.000000000              -0.000000431               0.000008153               1.000000000              -0.000000235               0.000010089               1.000000000              -0.000000001               0.000012599               1.000000000               0.000000109               0.000014947               1.000000000               0.000000221               0.000017219               1.000000000               0.000000436               0.000019730               1.000000000               0.000000915               0.000022350               1.000000000               0.000001793               0.000025316               1.000000000               0.000003119               0.000028828               1.000000000               0.000004947               0.000032971               1.000000000               0.000007347               0.000037844               1.000000000               0.000010301               0.000043480               1.000000000               0.000013760               0.000049894               1.000000000               0.000017720               0.000057073               1.000000000               0.000022142               0.000065009               1.000000000              -0.000000376               0.000010564               1.000000000              -0.000000699               0.000009290               1.000000000              -0.000000667               0.000010524               1.000000000              -0.000000343               0.000013212               1.000000000               0.000000087               0.000016634               1.000000000               0.000000323               0.000019818               1.000000000               0.000000572               0.000023122               1.000000000               0.000001023               0.000026774               1.000000000               0.000001895               0.000030739               1.000000000               0.000003302               0.000035244               1.000000000               0.000005231               0.000040502               1.000000000               0.000007770               0.000046563               1.000000000               0.000010956               0.000053465               1.000000000               0.000014703               0.000061232               1.000000000               0.000019001               0.000069841               1.000000000               0.000023825               0.000079289               1.000000000               0.000029114               0.000089540               1.000000000              -0.000000422               0.000012788               1.000000000              -0.000001023               0.000011392               1.000000000              -0.000000834               0.000013166               1.000000000              -0.000000251               0.000016727               1.000000000               0.000000321               0.000021080               1.000000000               0.000000610               0.000025277               1.000000000               0.000000944               0.000029782               1.000000000               0.000001697               0.000034814               1.000000000               0.000003032               0.000040352               1.000000000               0.000004940               0.000046730               1.000000000               0.000007461               0.000054042               1.000000000               0.000010688               0.000062340               1.000000000               0.000014541               0.000071648               1.000000000               0.000019001               0.000081948               1.000000000               0.000024031               0.000093227               1.000000000               0.000029601               0.000105363               1.000000000               0.000035630               0.000118251               1.000000000              -0.000000436               0.000014972               1.000000000              -0.000001288               0.000013648               1.000000000              -0.000000927               0.000016057               1.000000000              -0.000000131               0.000020507               1.000000000               0.000000538               0.000025782               1.000000000               0.000000819               0.000031231               1.000000000               0.000001309               0.000037159               1.000000000               0.000002436               0.000043858               1.000000000               0.000004167               0.000051305               1.000000000               0.000006536               0.000059891               1.000000000               0.000009645               0.000069632               1.000000000               0.000013460               0.000080500               1.000000000               0.000017878               0.000092597               1.000000000               0.000022922               0.000105833               1.000000000               0.000028507               0.000120101               1.000000000               0.000034570               0.000135317               1.000000000               0.000040938               0.000151200               1.000000000              -0.000000311               0.000017169               1.000000000              -0.000001406               0.000015931               1.000000000              -0.000001244               0.000018006               1.000000000              -0.000000481               0.000022109               1.000000000               0.000000320               0.000027318               1.000000000               0.000000703               0.000033018               1.000000000               0.000000957               0.000039131               1.000000000               0.000001732               0.000045832               1.000000000               0.000002945               0.000053216               1.000000000               0.000004604               0.000061353               1.000000000               0.000006819               0.000070530               1.000000000               0.000009549               0.000080662               1.000000000               0.000012795               0.000091821               1.000000000               0.000016484               0.000104035               1.000000000               0.000020637               0.000117342               1.000000000               0.000025213               0.000131588               1.000000000               0.000030194               0.000146891               1.000000000              -0.000000216               0.000019359               1.000000000              -0.000001548               0.000018302               1.000000000              -0.000001507               0.000020014               1.000000000              -0.000000806               0.000023705               1.000000000               0.000000045               0.000028749               1.000000000               0.000000585               0.000034564               1.000000000               0.000000801               0.000040851               1.000000000               0.000001231               0.000047665               1.000000000               0.000002002               0.000055064               1.000000000               0.000003102               0.000063046               1.000000000               0.000004571               0.000071816               1.000000000               0.000006389               0.000081463               1.000000000               0.000008592               0.000091953               1.000000000               0.000011150               0.000103287               1.000000000               0.000014015               0.000115608               1.000000000               0.000017241               0.000128842               1.000000000               0.000020852               0.000143000               1.000000000              -0.000000147               0.000021379               1.000000000              -0.000001568               0.000020542               1.000000000              -0.000001633               0.000022032               1.000000000              -0.000001082               0.000025397               1.000000000              -0.000000270               0.000030187               1.000000000               0.000000360               0.000035978               1.000000000               0.000000644               0.000042336               1.000000000               0.000000840               0.000049271               1.000000000               0.000001266               0.000056722               1.000000000               0.000001915               0.000064711               1.000000000               0.000002818               0.000073272               1.000000000               0.000003969               0.000082578               1.000000000               0.000005342               0.000092671               1.000000000               0.000006978               0.000103486               1.000000000               0.000008815               0.000115032               1.000000000               0.000010835               0.000127457               1.000000000               0.000013061               0.000140668               1.000000000              -0.000000082               0.000023127               1.000000000              -0.000001449               0.000022595               1.000000000              -0.000001630               0.000024011               1.000000000              -0.000001230               0.000027114               1.000000000              -0.000000547               0.000031605               1.000000000               0.000000088               0.000037168               1.000000000               0.000000435               0.000043509               1.000000000               0.000000547               0.000050482               1.000000000               0.000000742               0.000058058               1.000000000               0.000001085               0.000066124               1.000000000               0.000001558               0.000074684               1.000000000               0.000002217               0.000083826               1.000000000               0.000002992               0.000093638               1.000000000               0.000003890               0.000104167               1.000000000               0.000004927               0.000115290               1.000000000               0.000006039               0.000127122               1.000000000               0.000007173               0.000139689               1.000000000              -0.000000045               0.000024573               1.000000000              -0.000001226               0.000024417               1.000000000              -0.000001438               0.000025808               1.000000000              -0.000001187               0.000028666               1.000000000              -0.000000696               0.000032893               1.000000000              -0.000000177               0.000038216               1.000000000               0.000000192               0.000044479               1.000000000               0.000000320               0.000051433               1.000000000               0.000000403               0.000059030               1.000000000               0.000000547               0.000067173               1.000000000               0.000000741               0.000075766               1.000000000               0.000001029               0.000084864               1.000000000               0.000001409               0.000094540               1.000000000               0.000001829               0.000104849               1.000000000               0.000002308               0.000115814               1.000000000               0.000002825               0.000127311               1.000000000               0.000003321               0.000139424               1.000000000              -0.000000023               0.000025646               1.000000000              -0.000000875               0.000025808               1.000000000              -0.000001066               0.000027239               1.000000000              -0.000000961               0.000029992               1.000000000              -0.000000647               0.000033977               1.000000000              -0.000000265               0.000039078               1.000000000               0.000000038               0.000045169               1.000000000               0.000000151               0.000052060               1.000000000               0.000000188               0.000059637               1.000000000               0.000000239               0.000067795               1.000000000               0.000000296               0.000076457               1.000000000               0.000000375               0.000085549               1.000000000               0.000000493               0.000095163               1.000000000               0.000000641               0.000105320               1.000000000               0.000000809               0.000116138               1.000000000               0.000000999               0.000127443               1.000000000               0.000001216               0.000139274               1.000000000              -0.000000006               0.000026298               1.000000000              -0.000000448               0.000026698               1.000000000              -0.000000579               0.000028183               1.000000000              -0.000000536               0.000030885               1.000000000              -0.000000390               0.000034735               1.000000000              -0.000000201               0.000039701               1.000000000              -0.000000032               0.000045641               1.000000000               0.000000054               0.000052434               1.000000000               0.000000082               0.000059982               1.000000000               0.000000092               0.000068131               1.000000000               0.000000087               0.000076823               1.000000000               0.000000087               0.000085927               1.000000000               0.000000096               0.000095489               1.000000000               0.000000119               0.000105542               1.000000000               0.000000158               0.000116200               1.000000000               0.000000222               0.000127368               1.000000000               0.000000321               0.000139049               1.000000000              -0.000000000               0.000026507               1.000000000              -0.000000000               0.000027009               1.000000000               0.000000000               0.000028522               1.000000000               0.000000000               0.000031199               1.000000000               0.000000000               0.000034991               1.000000000               0.000000000               0.000039901               1.000000000              -0.000000000               0.000045798               1.000000000              -0.000000000               0.000052575               1.000000000               0.000000000               0.000060111               1.000000000              -0.000000000               0.000068248               1.000000000              -0.000000000               0.000076949               1.000000000              -0.000000000               0.000086048               1.000000000               0.000000000               0.000095583               1.000000000              -0.000000000               0.000105597               1.000000000              -0.000000000               0.000116175               1.000000000               0.000000000               0.000127274               1.000000000               0.000000000               0.000138900               1.000000000 </DataArray>
<DataArray type="Float64"                                    Name="defo"                                                      NumberOfComponents=" 3" format="ascii">
              0.000000465               0.000000000               1.000000000              -0.000000039               0.000000000               1.000000000              -0.000000095               0.000000000               1.000000000               0.000000004              -0.000000000               1.000000000               0.000000024              -0.000000000               1.000000000              -0.000000006              -0.000000000               1.000000000              -0.000000041              -0.000000000               1.000000000              -0.000000138              -0.000000000               1.000000000              -0.000000270              -0.000000000               1.000000000              -0.000000351              -0.000000000               1.000000000              -0.000000348              -0.000000000               1.000000000              -0.000000255              -0.000000000               1.000000000              -0.000000095              -0.000000000               1.000000000               0.000000055              -0.000000000               1.000000000               0.000000096               0.000000000               1.000000000              -0.000000057               0.000000000               1.000000000              -0.000000474               0.000000000               1.000000000               0.000000379               0.000001517               1.000000000              -0.000000074               0.000001361               1.000000000              -0.000000080               0.000001429               1.000000000               0.000000025               0.000001692               1.000000000               0.000000067               0.000002080               1.000000000              -0.000000006               0.000002329               1.000000000              -0.000000103               0.000002577               1.000000000              -0.000000162               0.000002876               1.000000000              -0.000000193               0.000003050               1.000000000              -0.000000185               0.000003140               1.000000000              -0.000000107               0.000003146               1.000000000               0.000000008               0.000003138               1.000000000               0.000000114               0.000003208               1.000000000               0.000000156               0.000003428               1.000000000               0.000000045               0.000003859               1.000000000              -0.000000309               0.000004511               1.000000000              -0.000000989               0.000005336               1.000000000               0.000000347               0.000003130               1.000000000              -0.000000039               0.000002725               1.000000000              -0.000000035               0.000002918               1.000000000              -0.000000003               0.000003415               1.000000000              -0.000000020               0.000004220               1.000000000              -0.000000034               0.000004730               1.000000000               0.000000001               0.000005280               1.000000000               0.000000070               0.000005878               1.000000000               0.000000145               0.000006285               1.000000000               0.000000215               0.000006633               1.000000000               0.000000255               0.000006918               1.000000000               0.000000189               0.000007251               1.000000000              -0.000000063               0.000007764               1.000000000              -0.000000555               0.000008583               1.000000000              -0.000001327               0.000009812               1.000000000              -0.000002433               0.000011526               1.000000000              -0.000003927               0.000013787               1.000000000               0.000000321               0.000004821               1.000000000               0.000000002               0.000004140               1.000000000               0.000000057               0.000004440               1.000000000               0.000000104               0.000005310               1.000000000               0.000000035               0.000006553               1.000000000               0.000000005               0.000007430               1.000000000              -0.000000029               0.000008376               1.000000000              -0.000000014               0.000009310               1.000000000               0.000000039               0.000010155               1.000000000              -0.000000008               0.000011015               1.000000000              -0.000000204               0.000011982               1.000000000              -0.000000643               0.000013189               1.000000000              -0.000001458               0.000014764               1.000000000              -0.000002688               0.000016810               1.000000000              -0.000004352               0.000019421               1.000000000              -0.000006468               0.000022690               1.000000000              -0.000009018               0.000026704               1.000000000               0.000000289               0.000006586               1.000000000               0.000000186               0.000005688               1.000000000               0.000000265               0.000006141               1.000000000               0.000000164               0.000007499               1.000000000              -0.000000036               0.000009222               1.000000000              -0.000000098               0.000010748               1.000000000              -0.000000132               0.000012238               1.000000000              -0.000000152               0.000013822               1.000000000              -0.000000297               0.000015401               1.000000000              -0.000000694               0.000017134               1.000000000              -0.000001385               0.000019188               1.000000000              -0.000002476               0.000021701               1.000000000              -0.000004053               0.000024789               1.000000000              -0.000006132               0.000028523               1.000000000              -0.000008711               0.000032962               1.000000000              -0.000011779               0.000038135               1.000000000              -0.000015305               0.000044065               1.000000000               0.000000353               0.000008498               1.000000000               0.000000460               0.000007418               1.000000000               0.000000431               0.000008153               1.000000000               0.000000235               0.000010089               1.000000000               0.000000001               0.000012599               1.000000000              -0.000000109               0.000014947               1.000000000              -0.000000221               0.000017219               1.000000000              -0.000000436               0.000019730               1.000000000              -0.000000915               0.000022350               1.000000000              -0.000001793               0.000025316               1.000000000              -0.000003119               0.000028828               1.000000000              -0.000004947               0.000032971               1.000000000              -0.000007347               0.000037844               1.000000000              -0.000010301               0.000043480               1.000000000              -0.000013760               0.000049894               1.000000000              -0.000017720               0.000057073               1.000000000              -0.000022142               0.000065009               1.000000000               0.000000376               0.000010564               1.000000000               0.000000699               0.000009290               1.000000000               0.000000667               0.000010524               1.000000000               0.000000343               0.000013212               1.000000000              -0.000000087               0.000016634               1.000000000              -0.000000323               0.000019818               1.000000000              -0.000000572               0.000023122               1.000000000              -0.000001023               0.000026774               1.000000000              -0.000001895               0.000030739               1.000000000              -0.000003302               0.000035244               1.000000000              -0.000005231               0.000040502               1.000000000              -0.000007770               0.000046563               1.000000000              -0.000010956               0.000053465               1.000000000              -0.000014703               0.000061232               1.000000000              -0.000019001               0.000069841               1.000000000              -0.000023825               0.000079289               1.000000000              -0.000029114               0.000089540               1.000000000               0.000000422               0.000012788               1.000000000               0.000001023               0.000011392               1.000000000               0.000000834               0.000013166               1.000000000               0.000000251               0.000016727               1.000000000              -0.000000321               0.000021080               1.000000000              -0.000000610               0.000025277               1.000000000              -0.000000944               0.000029782               1.000000000              -0.000001697               0.000034814               1.000000000              -0.000003032               0.000040352               1.000000000              -0.000004940               0.000046730               1.000000000              -0.000007461               0.000054042               1.000000000              -0.000010688               0.000062340               1.000000000              -0.000014541               0.000071648               1.000000000              -0.000019001               0.000081948               1.000000000              -0.000024031               0.000093227               1.000000000              -0.000029601               0.000105363               1.000000000              -0.000035630               0.000118251               1.000000000               0.000000436               0.000014972               1.000000000               0.000001288               0.000013648               1.000000000               0.000000927               0.000016057               1.000000000               0.000000131               0.000020507               1.000000000              -0.000000538               0.000025782               1.000000000              -0.000000819               0.000031231               1.000000000              -0.000001309               0.000037159               1.000000000              -0.000002436               0.000043858               1.000000000              -0.000004167               0.000051305               1.000000000              -0.000006536               0.000059891               1.000000000              -0.000009645               0.000069632               1.000000000              -0.000013460               0.000080500               1.000000000              -0.000017878               0.000092597               1.000000000              -0.000022922               0.000105833               1.000000000              -0.000028507               0.000120101               1.000000000              -0.000034570               0.000135317               1.000000000              -0.000040938               0.000151200               1.000000000               0.000000311               0.000017169               1.000000000               0.000001406               0.000015931               1.000000000               0.000001244               0.000018006               1.000000000               0.000000481               0.000022109               1.000000000              -0.000000320               0.000027318               1.000000000              -0.000000703               0.000033018               1.000000000              -0.000000957               0.000039131               1.000000000              -0.000001732               0.000045832               1.000000000              -0.000002945               0.000053216               1.000000000              -0.000004604               0.000061353               1.000000000              -0.000006819               0.000070530               1.000000000              -0.000009549               0.000080662               1.000000000              -0.000012795               0.000091821               1.000000000              -0.000016484               0.000104035               1.000000000              -0.000020637               0.000117342               1.000000000              -0.000025213               0.000131588               1.000000000              -0.000030194               0.000146891               1.000000000               0.000000216               0.000019359               1.000000000               0.000001548               0.000018302               1.000000000               0.000001507               0.000020014               1.000000000               0.000000806               0.000023705               1.000000000              -0.000000045               0.000028749               1.000000000              -0.000000585               0.000034564               1.000000000              -0.000000801               0.000040851               1.000000000              -0.000001231               0.000047665               1.000000000              -0.000002002               0.000055064               1.000000000              -0.000003102               0.000063046               1.000000000              -0.000004571               0.000071816               1.000000000              -0.000006389               0.000081463               1.000000000              -0.000008592               0.000091953               1.000000000              -0.000011150               0.000103287               1.000000000              -0.000014015               0.000115608               1.000000000              -0.000017241               0.000128842               1.000000000              -0.000020852               0.000143000               1.000000000               0.000000147               0.000021379               1.000000000               0.000001568               0.000020542               1.000000000               0.000001633               0.000022032               1.000000000               0.000001082               0.000025397               1.000000000               0.000000270               0.000030187               1.000000000              -0.000000360               0.000035978               1.000000000              -0.000000644               0.000042336               1.000000000              -0.000000840               0.000049271               1.000000000              -0.000001266               0.000056722               1.000000000              -0.000001915               0.000064711               1.000000000              -0.000002818               0.000073272               1.000000000              -0.000003969               0.000082578               1.000000000              -0.000005342               0.000092671               1.000000000              -0.000006978               0.000103486               1.000000000              -0.000008815               0.000115032               1.000000000              -0.000010835               0.000127457               1.000000000              -0.000013061               0.000140668               1.000000000               0.000000082               0.000023127               1.000000000               0.000001449               0.000022595               1.000000000               0.000001630               0.000024011               1.000000000               0.000001230               0.000027114               1.000000000               0.000000547               0.000031605               1.000000000              -0.000000088               0.000037168               1.000000000              -0.000000435               0.000043509               1.000000000              -0.000000547               0.000050482               1.000000000              -0.000000742               0.000058058               1.000000000              -0.000001085               0.000066124               1.000000000              -0.000001558               0.000074684               1.000000000              -0.000002217               0.000083826               1.000000000              -0.000002992               0.000093638               1.000000000              -0.000003890               0.000104167               1.000000000              -0.000004927               0.000115290               1.000000000              -0.000006039               0.000127122               1.000000000              -0.000007173               0.000139689               1.000000000               0.000000045               0.000024573               1.000000000               0.000001226               0.000024417               1.000000000               0.000001438               0.000025808               1.000000000               0.000001187               0.000028666               1.000000000               0.000000696               0.000032893               1.000000000               0.000000177               0.000038216               1.000000000              -0.000000192               0.000044479               1.000000000              -0.000000320               0.000051433               1.000000000              -0.000000403               0.000059030               1.000000000              -0.000000547               0.000067173               1.000000000              -0.000000741               0.000075766               1.000000000              -0.000001029               0.000084864               1.000000000              -0.000001409               0.000094540               1.000000000              -0.000001829               0.000104849               1.000000000              -0.000002308               0.000115814               1.000000000              -0.000002825               0.000127311               1.000000000              -0.000003321               0.000139424               1.000000000               0.000000023               0.000025646               1.000000000               0.000000875               0.000025808               1.000000000               0.000001066               0.000027239               1.000000000               0.000000961               0.000029992               1.000000000               0.000000647               0.000033977               1.000000000               0.000000265               0.000039078               1.000000000              -0.000000038               0.000045169               1.000000000              -0.000000151               0.000052060               1.000000000              -0.000000188               0.000059637               1.000000000              -0.000000239               0.000067795               1.000000000              -0.000000296               0.000076457               1.000000000              -0.000000375               0.000085549               1.000000000              -0.000000493               0.000095163               1.000000000              -0.000000641               0.000105320               1.000000000              -0.000000809               0.000116138               1.000000000              -0.000000999               0.000127443               1.000000000              -0.000001216               0.000139274               1.000000000               0.000000006               0.000026298               1.000000000               0.000000448               0.000026698               1.000000000               0.000000579               0.000028183               1.000000000               0.000000536               0.000030885               1.000000000               0.000000390               0.000034735               1.000000000               0.000000201               0.000039701               1.000000000               0.000000032               0.000045641               1.000000000              -0.000000054               0.000052434               1.000000000              -0.000000082               0.000059982               1.000000000              -0.000000092               0.000068131               1.000000000              -0.000000087               0.000076823               1.000000000              -0.000000087               0.000085927               1.000000000              -0.000000096               0.000095489               1.000000000              -0.000000119               0.000105542               1.000000000              -0.000000158               0.000116200               1.000000000              -0.000000222               0.000127368               1.000000000              -0.000000321               0.000139049               1.000000000              -0.000000000               0.000026507               1.000000000              -0.000000000               0.000027009               1.000000000               0.000000000               0.000028522               1.000000000               0.000000000               0.000031199               1.000000000               0.000000000               0.000034991               1.000000000               0.000000000               0.000039901               1.000000000              -0.000000000               0.000045798               1.000000000              -0.000000000               0.000052575               1.000000000               0.000000000               0.000060111               1.000000000              -0.000000000               0.000068248               1.000000000              -0.000000000               0.000076949               1.000000000              -0.000000000               0.000086048               1.000000000               0.000000000               0.000095583               1.000000000              -0.000000000               0.000105597               1.000000000              -0.000000000               0.000116175               1.000000000               0.000000000               0.000127274               1.000000000               0.000000000               0.000138900               1.000000000               0.000000465               0.000000000               1.000000000              -0.000000039               0.000000000               1.000000000              -0.000000095               0.000000000               1.000000000               0.000000004              -0.000000000               1.000000000               0.000000024              -0.000000000               1.000000000              -0.000000006              -0.000000000               1.000000000              -0.000000041              -0.000000000               1.000000000              -0.000000138              -0.000000000               1.000000000              -0.000000270              -0.000000000               1.000000000              -0.000000351              -0.000000000               1.000000000              -0.000000348              -0.000000000               1.000000000              -0.000000255              -0.000000000               1.000000000              -0.000000095              -0.000000000               1.000000000               0.000000055              -0.000000000               1.000000000               0.000000096               0.000000000               1.000000000              -0.000000057               0.000000000               1.000000000              -0.000000474               0.000000000               1.000000000               0.000000379              -0.000001517               1.000000000              -0.000000074              -0.000001361               1.000000000              -0.000000080              -0.000001429               1.000000000               0.000000025              -0.000001692               1.000000000               0.000000067              -0.000002080               1.000000000              -0.000000006              -0.000002329               1.000000000              -0.000000103              -0.000002577               1.000000000              -0.000000162              -0.000002876               1.000000000              -0.000000193              -0.000003050               1.000000000              -0.000000185              -0.000003140               1.000000000              -0.000000107              -0.000003146               1.000000000               0.000000008              -0.000003138               1.000000000               0.000000114              -0.000003208               1.000000000               0.000000156              -0.000003428               1.000000000               0.000000045              -0.000003859               1.000000000              -0.000000309              -0.000004511               1.000000000              -0.000000989              -0.000005336               1.000000000               0.000000347              -0.000003130               1.000000000              -0.000000039              -0.000002725               1.000000000              -0.000000035              -0.000002918               1.000000000              -0.000000003              -0.000003415               1.000000000              -0.000000020              -0.000004220               1.000000000              -0.000000034              -0.000004730               1.000000000               0.000000001              -0.000005280               1.000000000               0.000000070              -0.000005878               1.000000000               0.000000145              -0.000006285               1.000000000               0.000000215              -0.000006633               1.000000000               0.000000255              -0.000006918               1.000000000               0.000000189              -0.000007251               1.000000000              -0.000000063              -0.000007764               1.000000000              -0.000000555              -0.000008583               1.000000000              -0.000001327              -0.000009812               1.000000000              -0.000002433              -0.000011526               1.000000000              -0.000003927              -0.000013787               1.000000000               0.000000321              -0.000004821               1.000000000               0.000000002              -0.000004140               1.000000000               0.000000057              -0.000004440               1.000000000               0.000000104              -0.000005310               1.000000000               0.000000035              -0.000006553               1.000000000               0.000000005              -0.000007430               1.000000000              -0.000000029              -0.000008376               1.000000000              -0.000000014              -0.000009310               1.000000000               0.000000039              -0.000010155               1.000000000              -0.000000008              -0.000011015               1.000000000              -0.000000204              -0.000011982               1.000000000              -0.000000643              -0.000013189               1.000000000              -0.000001458              -0.000014764               1.000000000              -0.000002688              -0.000016810               1.000000000              -0.000004352              -0.000019421               1.000000000              -0.000006468              -0.000022690               1.000000000              -0.000009018              -0.000026704               1.000000000               0.000000289              -0.000006586               1.000000000               0.000000186              -0.000005688               1.000000000               0.000000265              -0.000006141               1.000000000               0.000000164              -0.000007499               1.000000000              -0.000000036              -0.000009222               1.000000000              -0.000000098              -0.000010748               1.000000000              -0.000000132              -0.000012238               1.000000000              -0.000000152              -0.000013822               1.000000000              -0.000000297              -0.000015401               1.000000000              -0.000000694              -0.000017134               1.000000000              -0.000001385              -0.000019188               1.000000000              -0.000002476              -0.000021701               1.000000000              -0.000004053              -0.000024789               1.000000000              -0.000006132              -0.000028523               1.000000000              -0.000008711              -0.000032962               1.000000000              -0.000011779              -0.000038135               1.000000000              -0.000015305              -0.000044065               1.000000000               0.000000353              -0.000008498               1.000000000               0.000000460              -0.000007418               1.000000000               0.000000431              -0.000008153               1.000000000               0.000000235              -0.000010089               1.000000000               0.000000001              -0.000012599               1.000000000              -0.000000109              -0.000014947               1.000000000              -0.000000221              -0.000017219               1.000000000              -0.000000436              -0.000019730               1.000000000              -0.000000915              -0.000022350               1.000000000              -0.000001793              -0.000025316               1.000000000              -0.000003119              -0.000028828               1.000000000              -0.000004947              -0.000032971               1.000000000              -0.000007347              -0.000037844               1.000000000              -0.000010301              -0.000043480               1.000000000              -0.000013760              -0.000049894               1.000000000              -0.000017720              -0.000057073               1.000000000              -0.000022142              -0.000065009               1.000000000               0.000000376              -0.000010564               1.000000000               0.000000699              -0.000009290               1.000000000               0.000000667              -0.000010524               1.000000000               0.000000343              -0.000013212               1.000000000              -0.000000087              -0.000016634               1.000000000              -0.000000323              -0.000019818               1.000000000              -0.000000572              -0.000023122               1.000000000              -0.000001023              -0.000026774               1.000000000              -0.000001895              -0.000030739               1.000000000              -0.000003302              -0.000035244               1.000000000              -0.000005231              -0.000040502               1.000000000              -0.000007770              -0.000046563               1.000000000              -0.000010956              -0.000053465               1.000000000              -0.000014703              -0.000061232               1.000000000              -0.000019001              -0.000069841               1.000000000              -0.000023825              -0.000079289               1.000000000              -0.000029114              -0.000089540               1.000000000               0.000000422              -0.000012788               1.000000000               0.000001023              -0.000011392               1.000000000               0.000000834              -0.000013166               1.000000000               0.000000251              -0.000016727               1.000000000              -0.000000321              -0.000021080               1.000000000              -0.000000610              -0.000025277               1.000000000              -0.000000944              -0.000029782               1.000000000              -0.000001697              -0.000034814               1.000000000              -0.000003032              -0.000040352               1.000000000              -0.000004940              -0.000046730               1.000000000              -0.000007461              -0.000054042               1.000000000              -0.000010688              -0.000062340               1.000000000              -0.000014541              -0.000071648               1.000000000              -0.000019001              -0.000081948               1.000000000              -0.000024031              -0.000093227               1.000000000              -0.000029601              -0.000105363               1.000000000              -0.000035630              -0.000118251               1.000000000               0.000000436              -0.000014972               1.000000000               0.000001288              -0.000013648               1.000000000               0.000000927              -0.000016057               1.000000000               0.000000131              -0.000020507               1.000000000              -0.000000538              -0.000025782               1.000000000              -0.000000819              -0.000031231               1.000000000              -0.000001309              -0.000037159               1.000000000              -0.000002436              -0.000043858               1.000000000              -0.000004167              -0.000051305               1.000000000              -0.000006536              -0.000059891               1.000000000              -0.000009645              -0.000069632               1.000000000              -0.000013460              -0.000080500               1.000000000              -0.000017878              -0.000092597               1.000000000              -0.000022922              -0.000105833               1.000000000              -0.000028507              -0.000120101               1.000000000              -0.000034570              -0.000135317               1.000000000              -0.000040938              -0.000151200               1.000000000               0.000000311              -0.000017169               1.000000000               0.000001406              -0.000015931               1.000000000               0.000001244              -0.000018006               1.000000000               0.000000481              -0.000022109               1.000000000              -0.000000320              -0.000027318               1.000000000              -0.000000703              -0.000033018               1.000000000              -0.000000957              -0.000039131               1.000000000              -0.000001732              -0.000045832               1.000000000              -0.000002945              -0.000053216               1.000000000              -0.000004604              -0.000061353               1.000000000              -0.000006819              -0.000070530               1.000000000              -0.000009549              -0.000080662               1.000000000              -0.000012795              -0.000091821               1.000000000              -0.000016484              -0.000104035               1.000000000              -0.000020637              -0.000117342               1.000000000              -0.000025213              -0.000131588               1.000000000              -0.000030194              -0.000146891               1.000000000               0.000000216              -0.000019359               1.000000000               0.000001548              -0.000018302               1.000000000               0.000001507              -0.000020014               1.000000000               0.000000806              -0.000023705               1.000000000              -0.000000045              -0.000028749               1.000000000              -0.000000585              -0.000034564               1.000000000              -0.000000801              -0.000040851               1.000000000              -0.000001231              -0.000047665               1.000000000              -0.000002002              -0.000055064               1.000000000              -0.000003102              -0.000063046               1.000000000              -0.000004571              -0.000071816               1.000000000              -0.000006389              -0.000081463               1.000000000              -0.000008592              -0.000091953               1.000000000              -0.000011150              -0.000103287               1.000000000              -0.000014015              -0.000115608               1.000000000              -0.000017241              -0.000128842               1.000000000              -0.000020852              -0.000143000               1.000000000               0.000000147              -0.000021379               1.000000000               0.000001568              -0.000020542               1.000000000               0.000001633              -0.000022032               1.000000000               0.000001082              -0.000025397               1.000000000               0.000000270              -0.000030187               1.000000000              -0.000000360              -0.000035978               1.000000000              -0.000000644              -0.000042336               1.000000000              -0.000000840              -0.000049271               1.000000000              -0.000001266              -0.000056722               1.000000000              -0.000001915              -0.000064711               1.000000000              -0.000002818              -0.000073272               1.000000000              -0.000003969              -0.000082578               1.000000000              -0.000005342              -0.000092671               1.000000000              -0.000006978              -0.000103486               1.000000000              -0.000008815              -0.000115032               1.000000000              -0.000010835              -0.000127457               1.000000000              -0.000013061              -0.000140668               1.000000000               0.000000082              -0.000023127               1.000000000               0.000001449              -0.000022595               1.000000000               0.000001630              -0.000024011               1.000000000               0.000001230              -0.000027114               1.000000000               0.000000547              -0.000031605               1.000000000              -0.000000088              -0.000037168               1.000000000              -0.000000435              -0.000043509               1.000000000              -0.000000547              -0.000050482               1.000000000              -0.000000742              -0.000058058               1.000000000              -0.000001085              -0.000066124               1.000000000              -0.000001558              -0.000074684               1.000000000              -0.000002217              -0.000083826               1.000000000              -0.000002992              -0.000093638               1.000000000              -0.000003890              -0.000104167               1.000000000              -0.000004927              -0.000115290               1.000000000              -0.000006039              -0.000127122               1.000000000              -0.000007173              -0.000139689               1.000000000               0.000000045              -0.000024573               1.000000000               0.000001226              -0.000024417               1.000000000               0.000001438              -0.000025808               1.000000000               0.000001187              -0.000028666               1.000000000               0.000000696              -0.000032893               1.000000000               0.000000177              -0.000038216               1.000000000              -0.000000192              -0.000044479               1.000000000              -0.000000320              -0.000051433               1.000000000              -0.000000403              -0.000059030               1.000000000              -0.000000547              -0.000067173               1.000000000              -0.000000741              -0.000075766               1.000000000              -0.000001029              -0.000084864               1.000000000              -0.000001409              -0.000094540               1.000000000              -0.000001829              -0.000104849               1.000000000              -0.000002308              -0.000115814               1.000000000              -0.000002825              -0.000127311               1.000000000              -0.000003321              -0.000139424               1.000000000               0.000000023              -0.000025646               1.000000000               0.000000875              -0.000025808               1.000000000               0.000001066              -0.000027239               1.000000000               0.000000961              -0.000029992               1.000000000               0.000000647              -0.000033977               1.000000000               0.000000265              -0.000039078               1.000000000              -0.000000038              -0.000045169               1.000000000              -0.000000151              -0.000052060               1.000000000              -0.000000188              -0.000059637               1.000000000              -0.000000239              -0.000067795               1.000000000              -0.000000296              -0.000076457               1.000000000              -0.000000375              -0.000085549               1.000000000              -0.000000493              -0.000095163               1.000000000              -0.000000641              -0.000105320               1.000000000              -0.000000809              -0.000116138               1.000000000              -0.000000999              -0.000127443               1.000000000              -0.000001216              -0.000139274               1.000000000               0.000000006              -0.000026298               1.000000000               0.000000448              -0.000026698               1.000000000               0.000000579              -0.000028183               1.000000000               0.000000536              -0.000030885               1.000000000               0.000000390              -0.000034735               1.000000000               0.000000201              -0.000039701               1.000000000               0.000000032              -0.000045641               1.000000000              -0.000000054              -0.000052434               1.000000000              -0.000000082              -0.000059982               1.000000000              -0.000000092              -0.000068131               1.000000000              -0.000000087              -0.000076823               1.000000000              -0.000000087              -0.000085927               1.000000000              -0.000000096              -0.000095489               1.000000000              -0.000000119              -0.000105542               1.000000000              -0.000000158              -0.000116200               1.000000000              -0.000000222              -0.000127368               1.000000000              -0.000000321              -0.000139049               1.000000000              -0.000000000              -0.000026507               1.000000000               0.000000000              -0.000027009               1.000000000               0.000000000              -0.000028522               1.000000000              -0.000000000              -0.000031199               1.000000000              -0.000000000              -0.000034991               1.000000000              -0.000000000              -0.000039901               1.000000000              -0.000000000              -0.000045798               1.000000000              -0.000000000              -0.000052575               1.000000000              -0.000000000              -0.000060111               1.000000000               0.000000000              -0.000068248               1.000000000               0.000000000              -0.000076949               1.000000000              -0.000000000              -0.000086048               1.000000000              -0.000000000              -0.000095583               1.000000000              -0.000000000              -0.000105597               1.000000000              -0.000000000              -0.000116175               1.000000000               0.000000000              -0.000127274               1.000000000               0.000000000              -0.000138900               1.000000000              -0.000000465               0.000000000               1.000000000               0.000000039               0.000000000               1.000000000               0.000000095              -0.000000000               1.000000000              -0.000000004               0.000000000               1.000000000              -0.000000024               0.000000000               1.000000000               0.000000006              -0.000000000               1.000000000               0.000000041              -0.000000000               1.000000000               0.000000138              -0.000000000               1.000000000               0.000000270               0.000000000               1.000000000               0.000000351               0.000000000               1.000000000               0.000000348               0.000000000               1.000000000               0.000000255               0.000000000               1.000000000               0.000000095               0.000000000               1.000000000              -0.000000055               0.000000000               1.000000000              -0.000000096               0.000000000               1.000000000               0.000000057               0.000000000               1.000000000               0.000000474               0.000000000               1.000000000              -0.000000379              -0.000001517               1.000000000               0.000000074              -0.000001361               1.000000000               0.000000080              -0.000001429               1.000000000              -0.000000025              -0.000001692               1.000000000              -0.000000067              -0.000002080               1.000000000               0.000000006              -0.000002329               1.000000000               0.000000103              -0.000002577               1.000000000               0.000000162              -0.000002876               1.000000000               0.000000193              -0.000003050               1.000000000               0.000000185              -0.000003140               1.000000000               0.000000107              -0.000003146               1.000000000              -0.000000008              -0.000003138               1.000000000              -0.000000114              -0.000003208               1.000000000              -0.000000156              -0.000003428               1.000000000              -0.000000045              -0.000003859               1.000000000               0.000000309              -0.000004511               1.000000000               0.000000989              -0.000005336               1.000000000              -0.000000347              -0.000003130               1.000000000               0.000000039              -0.000002725               1.000000000               0.000000035              -0.000002918               1.000000000               0.000000003              -0.000003415               1.000000000               0.000000020              -0.000004220               1.000000000               0.000000034              -0.000004730               1.000000000              -0.000000001              -0.000005280               1.000000000              -0.000000070              -0.000005878               1.000000000              -0.000000145              -0.000006285               1.000000000              -0.000000215              -0.000006633               1.000000000              -0.000000255              -0.000006918               1.000000000              -0.000000189              -0.000007251               1.000000000               0.000000063              -0.000007764               1.000000000               0.000000555              -0.000008583               1.000000000               0.000001327              -0.000009812               1.000000000               0.000002433              -0.000011526               1.000000000               0.000003927              -0.000013787               1.000000000              -0.000000321              -0.000004821               1.000000000              -0.000000002              -0.000004140               1.000000000              -0.000000057              -0.000004440               1.000000000              -0.000000104              -0.000005310               1.000000000              -0.000000035              -0.000006553               1.000000000              -0.000000005              -0.000007430               1.000000000               0.000000029              -0.000008376               1.000000000               0.000000014              -0.000009310               1.000000000              -0.000000039              -0.000010155               1.000000000               0.000000008              -0.000011015               1.000000000               0.000000204              -0.000011982               1.000000000               0.000000643              -0.000013189               1.000000000               0.000001458              -0.000014764               1.000000000               0.000002688              -0.000016810               1.000000000               0.000004352              -0.000019421               1.000000000               0.000006468              -0.000022690               1.000000000               0.000009018              -0.000026704               1.000000000              -0.000000289              -0.000006586               1.000000000              -0.000000186              -0.000005688               1.000000000              -0.000000265              -0.000006141               1.000000000              -0.000000164              -0.000007499               1.000000000               0.000000036              -0.000009222               1.000000000               0.000000098              -0.000010748               1.000000000               0.000000132              -0.000012238               1.000000000               0.000000152              -0.000013822               1.000000000               0.000000297              -0.000015401               1.000000000               0.000000694              -0.000017134               1.000000000               0.000001385              -0.000019188               1.000000000               0.000002476              -0.000021701               1.000000000               0.000004053              -0.000024789               1.000000000               0.000006132              -0.000028523               1.000000000               0.000008711              -0.000032962               1.000000000               0.000011779              -0.000038135               1.000000000               0.000015305              -0.000044065               1.000000000              -0.000000353              -0.000008498               1.000000000              -0.000000460              -0.000007418               1.000000000              -0.000000431              -0.000008153               1.000000000              -0.000000235              -0.000010089               1.000000000              -0.000000001              -0.000012599               1.000000000               0.000000109              -0.000014947               1.000000000               0.000000221              -0.000017219               1.000000000               0.000000436              -0.000019730               1.000000000               0.000000915              -0.000022350               1.000000000               0.000001793              -0.000025316               1.000000000               0.000003119              -0.000028828               1.000000000               0.000004947              -0.000032971               1.000000000               0.000007347              -0.000037844               1.000000000               0.000010301              -0.000043480               1.000000000               0.000013760              -0.000049894               1.000000000               0.000017720              -0.000057073               1.000000000               0.000022142              -0.000065009               1.000000000              -0.000000376              -0.000010564               1.000000000              -0.000000699              -0.000009290               1.000000000              -0.000000667              -0.000010524               1.000000000              -0.000000343              -0.000013212               1.000000000               0.000000087              -0.000016634               1.000000000               0.000000323              -0.000019818               1.000000000               0.000000572              -0.000023122               1.000000000               0.000001023              -0.000026774               1.000000000               0.000001895              -0.000030739               1.000000000               0.000003302              -0.000035244               1.000000000               0.000005231              -0.000040502               1.000000000               0.000007770              -0.000046563               1.000000000               0.000010956              -0.000053465               1.000000000               0.000014703              -0.000061232               1.000000000               0.000019001              -0.000069841               1.000000000               0.000023825              -0.000079289               1.000000000               0.000029114              -0.000089540               1.000000000              -0.000000422              -0.000012788               1.000000000              -0.000001023              -0.000011392               1.000000000              -0.000000834              -0.000013166               1.000000000              -0.000000251              -0.000016727               1.000000000               0.000000321              -0.000021080               1.000000000               0.000000610              -0.000025277               1.000000000               0.000000944              -0.000029782               1.000000000               0.000001697              -0.000034814               1.000000000               0.000003032              -0.000040352               1.000000000               0.000004940              -0.000046730               1.000000000               0.000007461              -0.000054042               1.000000000               0.000010688              -0.000062340               1.000000000               0.000014541              -0.000071648               1.000000000               0.000019001              -0.000081948               1.000000000               0.000024031              -0.000093227               1.000000000               0.000029601              -0.000105363               1.000000000               0.000035630              -0.000118251               1.000000000              -0.000000436              -0.000014972               1.000000000              -0.000001288              -0.000013648               1.000000000              -0.000000927              -0.000016057               1.000000000              -0.000000131              -0.000020507               1.000000000               0.000000538              -0.000025782               1.000000000               0.000000819              -0.000031231               1.000000000               0.000001309              -0.000037159               1.000000000               0.000002436              -0.000043858               1.000000000               0.000004167              -0.000051305               1.000000000               0.000006536              -0.000059891               1.000000000               0.000009645              -0.000069632               1.000000000               0.000013460              -0.000080500               1.000000000               0.000017878              -0.000092597               1.000000000               0.000022922              -0.000105833               1.000000000               0.000028507              -0.000120101               1.000000000               0.000034570              -0.000135317               1.000000000               0.000040938              -0.000151200               1.000000000              -0.000000311              -0.000017169               1.000000000              -0.000001406              -0.000015931               1.000000000              -0.000001244              -0.000018006               1.000000000              -0.000000481              -0.000022109               1.000000000               0.000000320              -0.000027318               1.000000000               0.000000703              -0.000033018               1.000000000               0.000000957              -0.000039131               1.000000000               0.000001732              -0.000045832               1.000000000               0.000002945              -0.000053216               1.000000000               0.000004604              -0.000061353               1.000000000               0.000006819              -0.000070530               1.000000000               0.000009549              -0.000080662               1.000000000               0.000012795              -0.000091821               1.000000000               0.000016484              -0.000104035               1.000000000               0.000020637              -0.000117342               1.000000000               0.000025213              -0.000131588               1.000000000               0.000030194              -0.000146891               1.000000000              -0.000000216              -0.000019359               1.000000000              -0.000001548              -0.000018302               1.000000000              -0.000001507              -0.000020014               1.000000000              -0.000000806              -0.000023705               1.000000000               0.000000045              -0.000028749               1.000000000               0.000000585              -0.000034564               1.000000000               0.000000801              -0.000040851               1.000000000               0.000001231              -0.000047665               1.000000000               0.000002002              -0.000055064               1.000000000               0.000003102              -0.000063046               1.000000000               0.000004571              -0.000071816               1.000000000               0.000006389              -0.000081463               1.000000000               0.000008592              -0.000091953               1.000000000               0.000011150              -0.000103287               1.000000000               0.000014015              -0.000115608               1.000000000               0.000017241              -0.000128842               1.000000000               0.000020852              -0.000143000               1.000000000              -0.000000147              -0.000021379               1.000000000              -0.000001568              -0.000020542               1.000000000              -0.000001633              -0.000022032               1.000000000              -0.000001082              -0.000025397               1.000000000              -0.000000270              -0.000030187               1.000000000               0.000000360              -0.000035978               1.000000000               0.000000644              -0.000042336               1.000000000               0.000000840              -0.000049271               1.000000000               0.000001266              -0.000056722               1.000000000               0.000001915              -0.000064711               1.000000000               0.000002818              -0.000073272               1.000000000               0.000003969              -0.000082578               1.000000000               0.000005342              -0.000092671               1.000000000               0.000006978              -0.000103486               1.000000000               0.000008815              -0.000115032               1.000000000               0.000010835              -0.000127457               1.000000000               0.000013061              -0.000140668               1.000000000              -0.000000082              -0.000023127               1.000000000              -0.000001449              -0.000022595               1.000000000              -0.000001630              -0.000024011               1.000000000              -0.000001230              -0.000027114               1.000000000              -0.000000547              -0.000031605               1.000000000               0.000000088              -0.000037168               1.000000000               0.000000435              -0.000043509               1.000000000               0.000000547              -0.000050482               1.000000000               0.000000742              -0.000058058               1.000000000               0.000001085              -0.000066124               1.000000000               0.000001558              -0.000074684               1.000000000               0.000002217              -0.000083826               1.000000000               0.000002992              -0.000093638               1.000000000               0.000003890              -0.000104167               1.000000000               0.000004927              -0.000115290               1.000000000               0.000006039              -0.000127122               1.000000000               0.000007173              -0.000139689               1.000000000              -0.000000045              -0.000024573               1.000000000              -0.000001226              -0.000024417               1.000000000              -0.000001438              -0.000025808               1.000000000              -0.000001187              -0.000028666               1.000000000              -0.000000696              -0.000032893               1.000000000              -0.000000177              -0.000038216               1.000000000               0.000000192              -0.000044479               1.000000000               0.000000320              -0.000051433               1.000000000               0.000000403              -0.000059030               1.000000000               0.000000547              -0.000067173               1.000000000               0.000000741              -0.000075766               1.000000000               0.000001029              -0.000084864               1.000000000               0.000001409              -0.000094540               1.000000000               0.000001829              -0.000104849               1.000000000               0.000002308              -0.000115814               1.000000000               0.000002825              -0.000127311               1.000000000               0.000003321              -0.000139424               1.000000000              -0.000000023              -0.000025646               1.000000000              -0.000000875              -0.000025808               1.000000000              -0.000001066              -0.000027239               1.000000000              -0.000000961              -0.000029992               1.000000000              -0.000000647              -0.000033977               1.000000000              -0.000000265              -0.000039078               1.000000000               0.000000038              -0.000045169               1.000000000               0.000000151              -0.000052060               1.000000000               0.000000188              -0.000059637               1.000000000               0.000000239              -0.000067795               1.000000000               0.000000296              -0.000076457               1.000000000               0.000000375              -0.000085549               1.000000000               0.000000493              -0.000095163               1.000000000               0.000000641              -0.000105320               1.000000000               0.000000809              -0.000116138               1.000000000               0.000000999              -0.000127443               1.000000000               0.000001216              -0.000139274               1.000000000              -0.000000006              -0.000026298               1.000000000              -0.000000448              -0.000026698               1.000000000              -0.000000579              -0.000028183               1.000000000              -0.000000536              -0.000030885               1.000000000              -0.000000390              -0.000034735               1.000000000              -0.000000201              -0.000039701               1.000000000              -0.000000032              -0.000045641               1.000000000               0.000000054              -0.000052434               1.000000000               0.000000082              -0.000059982               1.000000000               0.000000092              -0.000068131               1.000000000               0.000000087              -0.000076823               1.000000000               0.000000087              -0.000085927               1.000000000               0.000000096              -0.000095489               1.000000000               0.000000119              -0.000105542               1.000000000               0.000000158              -0.000116200               1.000000000               0.000000222              -0.000127368               1.000000000               0.000000321              -0.000139049               1.000000000              -0.000000000              -0.000026507               1.000000000               0.000000000              -0.000027009               1.000000000               0.000000000              -0.000028522               1.000000000              -0.000000000              -0.000031199               1.000000000              -0.000000000              -0.000034991               1.000000000              -0.000000000              -0.000039901               1.000000000              -0.000000000              -0.000045798               1.000000000              -0.000000000              -0.000052575               1.000000000              -0.000000000              -0.000060111               1.000000000               0.000000000              -0.000068248               1.000000000               0.000000000              -0.000076949               1.000000000              -0.000000000              -0.000086048               1.000000000              -0.000000000              -0.000095583               1.000000000              -0.000000000              -0.000105597               1.000000000              -0.000000000              -0.000116175               1.000000000               0.000000000              -0.000127274               1.000000000               0.000000000              -0.000138900               1.000000000              -0.000000465               0.000000000               1.000000000               0.000000039               0.000000000               1.000000000               0.000000095              -0.000000000               1.000000000              -0.000000004               0.000000000               1.000000000              -0.000000024               0.000000000               1.000000000               0.000000006              -0.000000000               1.000000000               0.000000041              -0.000000000               1.000000000               0.000000138              -0.000000000               1.000000000               0.000000270               0.000000000               1.000000000               0.000000351               0.000000000               1.000000000               0.000000348               0.000000000               1.000000000               0.000000255               0.000000000               1.000000000               0.000000095               0.000000000               1.000000000              -0.000000055               0.000000000               1.000000000              -0.000000096               0.000000000               1.000000000               0.000000057               0.000000000               1.000000000               0.000000474               0.000000000               1.000000000              -0.000000379               0.000001517               1.000000000               0.000000074               0.000001361               1.000000000               0.000000080               0.000001429               1.000000000              -0.000000025               0.000001692               1.000000000              -0.000000067               0.000002080               1.000000000               0.000000006               0.000002329               1.000000000               0.000000103               0.000002577               1.000000000               0.000000162               0.000002876               1.000000000               0.000000193               0.000003050               1.000000000               0.000000185               0.000003140               1.000000000               0.000000107               0.000003146               1.000000000              -0.000000008               0.000003138               1.000000000              -0.000000114               0.000003208               1.000000000              -0.000000156               0.000003428               1.000000000              -0.000000045               0.000003859               1.000000000               0.000000309               0.000004511               1.000000000               0.000000989               0.000005336               1.000000000              -0.000000347               0.000003130               1.000000000               0.000000039               0.000002725               1.000000000               0.000000035               0.000002918               1.000000000               0.000000003               0.000003415               1.000000000               0.000000020               0.000004220               1.000000000               0.000000034               0.000004730               1.000000000              -0.000000001               0.000005280               1.000000000              -0.000000070               0.000005878               1.000000000              -0.000000145               0.000006285               1.000000000              -0.000000215               0.000006633               1.000000000              -0.000000255               0.000006918               1.000000000              -0.000000189               0.000007251               1.000000000               0.000000063               0.000007764               1.000000000               0.000000555               0.000008583               1.000000000               0.000001327               0.000009812               1.000000000               0.000002433               0.000011526               1.000000000               0.000003927               0.000013787               1.000000000              -0.000000321               0.000004821               1.000000000              -0.000000002               0.000004140               1.000000000              -0.000000057               0.000004440               1.000000000              -0.000000104               0.000005310               1.000000000              -0.000000035               0.000006553               1.000000000              -0.000000005               0.000007430               1.000000000               0.000000029               0.000008376               1.000000000               0.000000014               0.000009310               1.000000000              -0.000000039               0.000010155               1.000000000               0.000000008               0.000011015               1.000000000               0.000000204               0.000011982               1.000000000               0.000000643               0.000013189               1.000000000               0.000001458               0.000014764               1.000000000               0.000002688               0.000016810               1.000000000               0.000004352               0.000019421               1.000000000               0.000006468               0.000022690               1.000000000               0.000009018               0.000026704               1.000000000              -0.000000289               0.000006586               1.000000000              -0.000000186               0.000005688               1.000000000              -0.000000265               0.000006141               1.000000000              -0.000000164               0.000007499               1.000000000               0.000000036               0.000009222               1.000000000               0.000000098               0.000010748               1.000000000               0.000000132               0.000012238               1.000000000               0.000000152               0.000013822               1.000000000               0.000000297               0.000015401               1.000000000               0.000000694               0.000017134               1.000000000               0.000001385               0.000019188               1.000000000               0.000002476               0.000021701               1.000000000               0.000004053               0.000024789               1.000000000               0.000006132               0.000028523               1.000000000               0.000008711               0.000032962               1.000000000               0.000011779               0.000038135               1.000000000               0.000015305               0.000044065               1.000000000              -0.000000353               0.000008498               1.000000000              -0.000000460               0.000007418               1.000000000              -0.000000431               0.000008153               1.000000000              -0.000000235               0.000010089               1.000000000              -0.000000001               0.000012599               1.000000000               0.000000109               0.000014947               1.000000000               0.000000221               0.000017219               1.000000000               0.000000436               0.000019730               1.000000000               0.000000915               0.000022350               1.000000000               0.000001793               0.000025316               1.000000000               0.000003119               0.000028828               1.000000000               0.000004947               0.000032971               1.000000000               0.000007347               0.000037844               1.000000000               0.000010301               0.000043480               1.000000000               0.000013760               0.000049894               1.000000000               0.000017720               0.000057073               1.000000000               0.000022142               0.000065009               1.000000000              -0.000000376               0.000010564               1.000000000              -0.000000699               0.000009290               1.000000000              -0.000000667               0.000010524               1.000000000              -0.000000343               0.000013212               1.000000000               0.000000087               0.000016634               1.000000000               0.000000323               0.000019818               1.000000000               0.000000572               0.000023122               1.000000000               0.000001023               0.000026774               1.000000000               0.000001895               0.000030739               1.000000000               0.000003302               0.000035244               1.000000000               0.000005231               0.000040502               1.000000000               0.000007770               0.000046563               1.000000000               0.000010956               0.000053465               1.000000000               0.000014703               0.000061232               1.000000000               0.000019001               0.000069841               1.000000000               0.000023825               0.000079289               1.000000000               0.000029114               0.000089540               1.000000000              -0.000000422               0.000012788               1.000000000              -0.000001023               0.000011392               1.000000000              -0.000000834               0.000013166               1.000000000              -0.000000251               0.000016727               1.000000000               0.000000321               0.000021080               1.000000000               0.000000610               0.000025277               1.000000000               0.000000944               0.000029782               1.000000000               0.000001697               0.000034814               1.000000000               0.000003032               0.000040352               1.000000000               0.000004940               0.000046730               1.000000000               0.000007461               0.000054042               1.000000000               0.000010688               0.000062340               1.000000000               0.000014541               0.000071648               1.000000000               0.000019001               0.000081948               1.000000000               0.000024031               0.000093227               1.000000000               0.000029601               0.000105363               1.000000000               0.000035630               0.000118251               1.000000000              -0.000000436               0.000014972               1.000000000              -0.000001288               0.000013648               1.000000000              -0.000000927               0.000016057               1.000000000              -0.000000131               0.000020507               1.000000000               0.000000538               0.000025782               1.000000000               0.000000819               0.000031231               1.000000000               0.000001309               0.000037159               1.000000000               0.000002436               0.000043858               1.000000000               0.000004167               0.000051305               1.000000000               0.000006536               0.000059891               1.000000000               0.000009645               0.000069632               1.000000000               0.000013460               0.000080500               1.000000000               0.000017878               0.000092597               1.000000000               0.000022922               0.000105833               1.000000000               0.000028507               0.000120101               1.000000000               0.000034570               0.000135317               1.000000000               0.000040938               0.000151200               1.000000000              -0.000000311               0.000017169               1.000000000              -0.000001406               0.000015931               1.000000000              -0.000001244               0.000018006               1.000000000              -0.000000481               0.000022109               1.000000000               0.000000320               0.000027318               1.000000000               0.000000703               0.000033018               1.000000000               0.000000957               0.000039131               1.000000000               0.000001732               0.000045832               1.000000000               0.000002945               0.000053216               1.000000000               0.000004604               0.000061353               1.000000000               0.000006819               0.000070530               1.000000000               0.000009549               0.000080662               1.000000000               0.000012795               0.000091821               1.000000000               0.000016484               0.000104035               1.000000000               0.000020637               0.000117342               1.000000000               0.000025213               0.000131588               1.000000000               0.000030194               0.000146891               1.000000000              -0.000000216               0.000019359               1.000000000              -0.000001548               0.000018302               1.000000000              -0.000001507               0.000020014               1.000000000              -0.000000806               0.000023705               1.000000000               0.000000045               0.000028749               1.000000000               0.000000585               0.000034564               1.000000000               0.000000801               0.000040851               1.000000000               0.000001231               0.000047665               1.000000000               0.000002002               0.000055064               1.000000000               0.000003102               0.000063046               1.000000000               0.000004571               0.000071816               1.000000000               0.000006389               0.000081463               1.000000000               0.000008592               0.000091953               1.000000000               0.000011150               0.000103287               1.000000000               0.000014015               0.000115608               1.000000000               0.000017241               0.000128842               1.000000000               0.000020852               0.000143000               1.000000000              -0.000000147               0.000021379               1.000000000              -0.000001568               0.000020542               1.000000000              -0.000001633               0.000022032               1.000000000              -0.000001082               0.000025397               1.000000000              -0.000000270               0.000030187               1.000000000               0.000000360               0.000035978               1.000000000               0.000000644               0.000042336               1.000000000               0.000000840               0.000049271               1.000000000               0.000001266               0.000056722               1.000000000               0.000001915               0.000064711               1.000000000               0.000002818               0.000073272               1.000000000               0.000003969               0.000082578               1.000000000               0.000005342               0.000092671               1.000000000               0.000006978               0.000103486               1.000000000               0.000008815               0.000115032               1.000000000               0.000010835               0.000127457               1.000000000               0.000013061               0.000140668               1.000000000              -0.000000082               0.000023127               1.000000000              -0.000001449               0.000022595               1.000000000              -0.000001630               0.000024011               1.000000000              -0.000001230               0.000027114               1.000000000              -0.000000547               0.000031605               1.000000000               0.000000088               0.000037168               1.000000000               0.000000435               0.000043509               1.000000000               0.000000547               0.000050482               1.000000000               0.000000742               0.000058058               1.000000000               0.000001085               0.000066124               1.000000000               0.000001558               0.000074684               1.000000000               0.000002217               0.000083826               1.000000000               0.000002992               0.000093638               1.000000000               0.000003890               0.000104167               1.000000000               0.000004927               0.000115290               1.000000000               0.000006039               0.000127122               1.000000000               0.000007173               0.000139689               1.000000000              -0.000000045               0.000024573               1.000000000              -0.000001226               0.000024417               1.000000000              -0.000001438               0.000025808               1.000000000              -0.000001187               0.000028666               1.000000000              -0.000000696               0.000032893               1.000000000              -0.000000177               0.000038216               1.000000000               0.000000192               0.000044479               1.000000000               0.000000320               0.000051433               1.000000000               0.000000403               0.000059030               1.000000000               0.000000547               0.000067173               1.000000000               0.000000741               0.000075766               1.000000000               0.000001029               0.000084864               1.000000000               0.000001409               0.000094540               1.000000000               0.000001829               0.000104849               1.000000000               0.000002308               0.000115814               1.000000000               0.000002825               0.000127311               1.000000000               0.000003321               0.000139424               1.000000000              -0.000000023               0.000025646               1.000000000              -0.000000875               0.000025808               1.000000000              -0.000001066               0.000027239               1.000000000              -0.000000961               0.000029992               1.000000000              -0.000000647               0.000033977               1.000000000              -0.000000265               0.000039078               1.000000000               0.000000038               0.000045169               1.000000000               0.000000151               0.000052060               1.000000000               0.000000188               0.000059637               1.000000000               0.000000239               0.000067795               1.000000000               0.000000296               0.000076457               1.000000000               0.000000375               0.000085549               1.000000000               0.000000493               0.000095163               1.000000000               0.000000641               0.000105320               1.000000000               0.000000809               0.000116138               1.000000000               0.000000999               0.000127443               1.000000000               0.000001216               0.000139274               1.000000000              -0.000000006               0.000026298               1.000000000              -0.000000448               0.000026698               1.000000000              -0.000000579               0.000028183               1.000000000              -0.000000536               0.000030885               1.000000000              -0.000000390               0.000034735               1.000000000              -0.000000201               0.000039701               1.000000000              -0.000000032               0.000045641               1.000000000               0.000000054               0.000052434               1.000000000               0.000000082               0.000059982               1.000000000               0.000000092               0.000068131               1.000000000               0.000000087               0.000076823               1.000000000               0.000000087               0.000085927               1.000000000               0.000000096               0.000095489               1.000000000               0.000000119               0.000105542               1.000000000               0.000000158               0.000116200               1.000000000               0.000000222               0.000127368               1.000000000               0.000000321               0.000139049               1.000000000              -0.000000000               0.000026507               1.000000000              -0.000000000               0.000027009               1.000000000               0.000000000               0.000028522               1.000000000               0.000000000               0.000031199               1.000000000               0.000000000               0.000034991               1.000000000               0.000000000               0.000039901               1.000000000              -0.000000000               0.000045798               1.000000000              -0.000000000               0.000052575               1.000000000               0.000000000               0.000060111               1.000000000              -0.000000000               0.000068248               1.000000000              -0.000000000               0.000076949               1.000000000              -0.000000000               0.000086048               1.000000000               0.000000000               0.000095583               1.000000000              -0.000000000               0.000105597               1.000000000              -0.000000000               0.000116175               1.000000000               0.000000000               0.000127274               1.000000000               0.000000000               0.000138900               1.000000000 </DataArray>
<DataArray type="Float64"                                    Name="stress"                                                      NumberOfComponents="10" format="ascii">
              0.000040905               0.000290520              -0.000000000              -0.000020975               0.000103831               0.000082856               0.000000000               0.000000000               0.000000000               0.000000000               0.000054308               0.000248848              -0.000000000              -0.000010740               0.000086529               0.000075788               0.000000000               0.000000000               0.000000000               0.000000000               0.000080446               0.000229487              -0.000000000               0.000001481               0.000076001               0.000077482               0.000000000               0.000000000               0.000000000               0.000000000               0.000084837               0.000233094              -0.000000000               0.000002677               0.000076805               0.000079482               0.000000000               0.000000000               0.000000000               0.000000000               0.000079575               0.000242503               0.000000000              -0.000000472               0.000080991               0.000080519               0.000000000               0.000000000               0.000000000               0.000000000               0.000075201               0.000242999              -0.000000000              -0.000002175               0.000081724               0.000079549               0.000000000               0.000000000               0.000000000               0.000000000               0.000072790               0.000242548              -0.000000000              -0.000003022               0.000081856               0.000078834               0.000000000               0.000000000               0.000000000               0.000000000               0.000070418               0.000243051              -0.000000000              -0.000003975               0.000082341               0.000078366               0.000000000               0.000000000               0.000000000               0.000000000               0.000070460               0.000237826              -0.000000000              -0.000003306               0.000080377               0.000077071               0.000000000               0.000000000               0.000000000               0.000000000               0.000074544               0.000228838              -0.000000000              -0.000000651               0.000076495               0.000075845               0.000000000               0.000000000               0.000000000               0.000000000               0.000079290               0.000217137              -0.000000000               0.000002592               0.000071514               0.000074106               0.000000000               0.000000000               0.000000000               0.000000000               0.000082182               0.000205980               0.000000000               0.000005071               0.000066969               0.000072040               0.000000000               0.000000000               0.000000000               0.000000000               0.000080620               0.000198827               0.000000000               0.000005379               0.000064482               0.000069861               0.000000000               0.000000000               0.000000000               0.000000000               0.000071491               0.000197348               0.000000000               0.000002141               0.000065068               0.000067209               0.000000000               0.000000000               0.000000000               0.000000000               0.000054080               0.000202524               0.000000000              -0.000005036               0.000069186               0.000064150               0.000000000               0.000000000               0.000000000               0.000000000               0.000029315               0.000213564               0.000000000              -0.000015702               0.000076422               0.000060719               0.000000000               0.000000000               0.000000000               0.000000000               0.000017287               0.000225325              -0.000000000              -0.000021683               0.000082335               0.000060652               0.000000000               0.000000000               0.000000000               0.000000000               0.000047445               0.000294917              -0.000026079              -0.000019073               0.000104662               0.000085590               0.000000000               0.000000000               0.000000000               0.000000000               0.000058467               0.000250669              -0.000014431              -0.000009409               0.000086692               0.000077283               0.000000000               0.000000000               0.000000000               0.000000000               0.000082238               0.000233408              -0.000001839               0.000001663               0.000077248               0.000078911               0.000000000               0.000000000               0.000000000               0.000000000               0.000085850               0.000236782               0.000003812               0.000002596               0.000078061               0.000080657               0.000000000               0.000000000               0.000000000               0.000000000               0.000080968               0.000246679               0.000002017              -0.000000472               0.000082383               0.000081911               0.000000000               0.000000000               0.000000000               0.000000000               0.000075562               0.000247184              -0.000000633              -0.000002562               0.000083248               0.000080686               0.000000000               0.000000000               0.000000000               0.000000000               0.000076102               0.000248959               0.000001626              -0.000002582               0.000083846               0.000081264               0.000000000               0.000000000               0.000000000               0.000000000               0.000077849               0.000250936               0.000002070              -0.000002174               0.000084369               0.000082195               0.000000000               0.000000000               0.000000000               0.000000000               0.000078797               0.000247762               0.000000596              -0.000001421               0.000083060               0.000081639               0.000000000               0.000000000               0.000000000               0.000000000               0.000082095               0.000243338              -0.000000736               0.000000368               0.000080989               0.000081357               0.000000000               0.000000000               0.000000000               0.000000000               0.000085144               0.000238365              -0.000002195               0.000002133               0.000078743               0.000080876               0.000000000               0.000000000               0.000000000               0.000000000               0.000084660               0.000234551              -0.000002592               0.000002429               0.000077373               0.000079802               0.000000000               0.000000000               0.000000000               0.000000000               0.000080135               0.000234636              -0.000002071               0.000000721               0.000077971               0.000078692               0.000000000               0.000000000               0.000000000               0.000000000               0.000069926               0.000240210              -0.000000748              -0.000003804               0.000081337               0.000077533               0.000000000               0.000000000               0.000000000               0.000000000               0.000052536               0.000251943               0.000000900              -0.000011792               0.000087911               0.000076119               0.000000000               0.000000000               0.000000000               0.000000000               0.000028290               0.000270335               0.000001559              -0.000023183               0.000097838               0.000074655               0.000000000               0.000000000               0.000000000               0.000000000               0.000017916               0.000288799              -0.000000208              -0.000029381               0.000106059               0.000076678               0.000000000               0.000000000               0.000000000               0.000000000               0.000057138               0.000297919              -0.000049113              -0.000015813               0.000104576               0.000088763               0.000000000               0.000000000               0.000000000               0.000000000               0.000063550               0.000253085              -0.000026558              -0.000007804               0.000086962               0.000079158               0.000000000               0.000000000               0.000000000               0.000000000               0.000081261               0.000240780              -0.000002679               0.000000376               0.000080134               0.000080509               0.000000000               0.000000000               0.000000000               0.000000000               0.000083556               0.000250213               0.000008121               0.000000057               0.000083384               0.000083441               0.000000000               0.000000000               0.000000000               0.000000000               0.000085460               0.000264203               0.000004592              -0.000000978               0.000088393               0.000087415               0.000000000               0.000000000               0.000000000               0.000000000               0.000088418               0.000270141              -0.000000523              -0.000000611               0.000090250               0.000089639               0.000000000               0.000000000               0.000000000               0.000000000               0.000094108               0.000277080               0.000001598               0.000000655               0.000092141               0.000092796               0.000000000               0.000000000               0.000000000               0.000000000               0.000097989               0.000281089              -0.000000533               0.000001610               0.000093159               0.000094769               0.000000000               0.000000000               0.000000000               0.000000000               0.000098983               0.000284666              -0.000004914               0.000001535               0.000094376               0.000095911               0.000000000               0.000000000               0.000000000               0.000000000               0.000099439               0.000291240              -0.000008677               0.000000884               0.000096784               0.000097669               0.000000000               0.000000000               0.000000000               0.000000000               0.000097595               0.000301979              -0.000012658              -0.000001149               0.000101042               0.000099893               0.000000000               0.000000000               0.000000000               0.000000000               0.000089881               0.000316564              -0.000014854              -0.000005865               0.000107475               0.000101610               0.000000000               0.000000000               0.000000000               0.000000000               0.000077853               0.000335361              -0.000015219              -0.000012725               0.000116028               0.000103302               0.000000000               0.000000000               0.000000000               0.000000000               0.000063317               0.000358672              -0.000013769              -0.000021090               0.000126586               0.000105496               0.000000000               0.000000000               0.000000000               0.000000000               0.000045350               0.000386147              -0.000010568              -0.000031262               0.000139135               0.000107873               0.000000000               0.000000000               0.000000000               0.000000000               0.000023526               0.000418635              -0.000005846              -0.000043507               0.000154046               0.000110539               0.000000000               0.000000000               0.000000000               0.000000000               0.000016840               0.000446444              -0.000006052              -0.000049490               0.000165310               0.000115820               0.000000000               0.000000000               0.000000000               0.000000000               0.000066491               0.000294997              -0.000071583              -0.000011941               0.000102312               0.000090371               0.000000000               0.000000000               0.000000000               0.000000000               0.000068681               0.000259864              -0.000037679              -0.000006727               0.000088863               0.000082135               0.000000000               0.000000000               0.000000000               0.000000000               0.000082988               0.000259865              -0.000001828              -0.000001363               0.000087075               0.000085712               0.000000000               0.000000000               0.000000000               0.000000000               0.000086694               0.000281736               0.000011308              -0.000002707               0.000094813               0.000092106               0.000000000               0.000000000               0.000000000               0.000000000               0.000094431               0.000301432               0.000005422              -0.000002267               0.000101232               0.000098965               0.000000000               0.000000000               0.000000000               0.000000000               0.000105016               0.000319543              -0.000003677              -0.000000562               0.000106701               0.000106139               0.000000000               0.000000000               0.000000000               0.000000000               0.000113906               0.000334986              -0.000005178               0.000000841               0.000111380               0.000112222               0.000000000               0.000000000               0.000000000               0.000000000               0.000122711               0.000349611              -0.000010039               0.000002315               0.000115764               0.000118079               0.000000000               0.000000000               0.000000000               0.000000000               0.000125567               0.000366290              -0.000016851               0.000001301               0.000121662               0.000122963               0.000000000               0.000000000               0.000000000               0.000000000               0.000123567               0.000387235              -0.000022626              -0.000002067               0.000129766               0.000127699               0.000000000               0.000000000               0.000000000               0.000000000               0.000118531               0.000415361              -0.000027208              -0.000007471               0.000140942               0.000133472               0.000000000               0.000000000               0.000000000               0.000000000               0.000105316               0.000448460              -0.000029534              -0.000016564               0.000155006               0.000138442               0.000000000               0.000000000               0.000000000               0.000000000               0.000086321               0.000485323              -0.000029479              -0.000028295               0.000171204               0.000142910               0.000000000               0.000000000               0.000000000               0.000000000               0.000066059               0.000525077              -0.000026836              -0.000040862               0.000188645               0.000147782               0.000000000               0.000000000               0.000000000               0.000000000               0.000044330               0.000565896              -0.000021209              -0.000054113               0.000206668               0.000152555               0.000000000               0.000000000               0.000000000               0.000000000               0.000021709               0.000606599              -0.000012098              -0.000067684               0.000224759               0.000157075               0.000000000               0.000000000               0.000000000               0.000000000               0.000015929               0.000636265              -0.000009836              -0.000073560               0.000236606               0.000163046               0.000000000               0.000000000               0.000000000               0.000000000               0.000080677               0.000296312              -0.000087016              -0.000006785               0.000101031               0.000094246               0.000000000               0.000000000               0.000000000               0.000000000               0.000075152               0.000276011              -0.000046805              -0.000006320               0.000094109               0.000087790               0.000000000               0.000000000               0.000000000               0.000000000               0.000084977               0.000296786              -0.000005167              -0.000005232               0.000100672               0.000095440               0.000000000               0.000000000               0.000000000               0.000000000               0.000092224               0.000332840               0.000008856              -0.000007021               0.000113286               0.000106265               0.000000000               0.000000000               0.000000000               0.000000000               0.000110241               0.000367964               0.000003137              -0.000004655               0.000124205               0.000119550               0.000000000               0.000000000               0.000000000               0.000000000               0.000130438               0.000401300              -0.000008293              -0.000001248               0.000134181               0.000132933               0.000000000               0.000000000               0.000000000               0.000000000               0.000142419               0.000428148              -0.000012577              -0.000000111               0.000142752               0.000142640               0.000000000               0.000000000               0.000000000               0.000000000               0.000149883               0.000456360              -0.000019189              -0.000000839               0.000152398               0.000151559               0.000000000               0.000000000               0.000000000               0.000000000               0.000148224               0.000485563              -0.000028472              -0.000005111               0.000163557               0.000158445               0.000000000               0.000000000               0.000000000               0.000000000               0.000142492               0.000520455              -0.000035012              -0.000011622               0.000177357               0.000165735               0.000000000               0.000000000               0.000000000               0.000000000               0.000133759               0.000562050              -0.000038949              -0.000020096               0.000194047               0.000173950               0.000000000               0.000000000               0.000000000               0.000000000               0.000116962               0.000606282              -0.000039928              -0.000031924               0.000212733               0.000180809               0.000000000               0.000000000               0.000000000               0.000000000               0.000095070               0.000651847              -0.000037857              -0.000045830               0.000232557               0.000186727               0.000000000               0.000000000               0.000000000               0.000000000               0.000072262               0.000697736              -0.000032786              -0.000060118               0.000252616               0.000192497               0.000000000               0.000000000               0.000000000               0.000000000               0.000048165               0.000741681              -0.000024600              -0.000074648               0.000272107               0.000197459               0.000000000               0.000000000               0.000000000               0.000000000               0.000023475               0.000781826              -0.000013419              -0.000088925               0.000290248               0.000201323               0.000000000               0.000000000               0.000000000               0.000000000               0.000016513               0.000809067              -0.000010083              -0.000094941               0.000301333               0.000206392               0.000000000               0.000000000               0.000000000               0.000000000               0.000096812               0.000299351              -0.000102018              -0.000001115               0.000100154               0.000099039               0.000000000               0.000000000               0.000000000               0.000000000               0.000082460               0.000295536              -0.000058086              -0.000006019               0.000100517               0.000094498               0.000000000               0.000000000               0.000000000               0.000000000               0.000089607               0.000347097              -0.000011869              -0.000009785               0.000118959               0.000109175               0.000000000               0.000000000               0.000000000               0.000000000               0.000105693               0.000403518               0.000005421              -0.000010805               0.000138106               0.000127302               0.000000000               0.000000000               0.000000000               0.000000000               0.000133982               0.000453354              -0.000000856              -0.000006426               0.000153258               0.000146833               0.000000000               0.000000000               0.000000000               0.000000000               0.000158421               0.000491222              -0.000014967              -0.000001995               0.000164404               0.000162409               0.000000000               0.000000000               0.000000000               0.000000000               0.000171323               0.000528557              -0.000022349              -0.000001824               0.000176792               0.000174968               0.000000000               0.000000000               0.000000000               0.000000000               0.000174239               0.000567095              -0.000030399              -0.000005547               0.000190879               0.000185332               0.000000000               0.000000000               0.000000000               0.000000000               0.000166489               0.000607373              -0.000040211              -0.000013488               0.000206952               0.000193463               0.000000000               0.000000000               0.000000000               0.000000000               0.000155010               0.000653576              -0.000045043              -0.000023568               0.000225713               0.000202144               0.000000000               0.000000000               0.000000000               0.000000000               0.000140662               0.000704405              -0.000046291              -0.000035302               0.000246567               0.000211264               0.000000000               0.000000000               0.000000000               0.000000000               0.000119524               0.000755121              -0.000044730              -0.000049569               0.000268227               0.000218659               0.000000000               0.000000000               0.000000000               0.000000000               0.000095096               0.000804240              -0.000040091              -0.000064869               0.000289700               0.000224832               0.000000000               0.000000000               0.000000000               0.000000000               0.000071525               0.000851576              -0.000032824              -0.000079625               0.000310398               0.000230773               0.000000000               0.000000000               0.000000000               0.000000000               0.000047267               0.000895222              -0.000023388              -0.000094177               0.000329797               0.000235619               0.000000000               0.000000000               0.000000000               0.000000000               0.000022792               0.000934819              -0.000012249              -0.000108305               0.000347705               0.000239400               0.000000000               0.000000000               0.000000000               0.000000000               0.000016312               0.000962069              -0.000009371              -0.000114141               0.000358733               0.000244592               0.000000000               0.000000000               0.000000000               0.000000000               0.000111126               0.000300988              -0.000116140               0.000004048               0.000098979               0.000103027               0.000000000               0.000000000               0.000000000               0.000000000               0.000091653               0.000318871              -0.000067882              -0.000005489               0.000108119               0.000102630               0.000000000               0.000000000               0.000000000               0.000000000               0.000099201               0.000401531              -0.000018891              -0.000012991               0.000138173               0.000125182               0.000000000               0.000000000               0.000000000               0.000000000               0.000123274               0.000474915              -0.000002900              -0.000013137               0.000162682               0.000149546               0.000000000               0.000000000               0.000000000               0.000000000               0.000157724               0.000528187              -0.000010015              -0.000006877               0.000178353               0.000171476               0.000000000               0.000000000               0.000000000               0.000000000               0.000184602               0.000569215              -0.000022924              -0.000001926               0.000190379               0.000188453               0.000000000               0.000000000               0.000000000               0.000000000               0.000194110               0.000615441              -0.000029168              -0.000004139               0.000206524               0.000202386               0.000000000               0.000000000               0.000000000               0.000000000               0.000190136               0.000662733              -0.000037213              -0.000011541               0.000224756               0.000213215               0.000000000               0.000000000               0.000000000               0.000000000               0.000177030               0.000713315              -0.000045725              -0.000022778               0.000245362               0.000222584               0.000000000               0.000000000               0.000000000               0.000000000               0.000162074               0.000771080              -0.000048227              -0.000035607               0.000268893               0.000233286               0.000000000               0.000000000               0.000000000               0.000000000               0.000143100               0.000830730              -0.000046831              -0.000050179               0.000293634               0.000243455               0.000000000               0.000000000               0.000000000               0.000000000               0.000118020               0.000888745              -0.000043549              -0.000066835               0.000318524               0.000251688               0.000000000               0.000000000               0.000000000               0.000000000               0.000092618               0.000945077              -0.000037513              -0.000083403               0.000342823               0.000259421               0.000000000               0.000000000               0.000000000               0.000000000               0.000068912               0.000999259              -0.000029572              -0.000099065               0.000366105               0.000267040               0.000000000               0.000000000               0.000000000               0.000000000               0.000044647               0.001049838              -0.000020652              -0.000114487               0.000388105               0.000273618               0.000000000               0.000000000               0.000000000               0.000000000               0.000021631               0.001095817              -0.000010777              -0.000128865               0.000408224               0.000279359               0.000000000               0.000000000               0.000000000               0.000000000               0.000016278               0.001126527              -0.000008910              -0.000134711               0.000420409               0.000285698               0.000000000               0.000000000               0.000000000               0.000000000               0.000121751               0.000294489              -0.000122466               0.000008845               0.000095214               0.000104059               0.000000000               0.000000000               0.000000000               0.000000000               0.000099737               0.000341018              -0.000076957              -0.000005226               0.000115413               0.000110187               0.000000000               0.000000000               0.000000000               0.000000000               0.000107906               0.000451242              -0.000029172              -0.000015941               0.000155726               0.000139785               0.000000000               0.000000000               0.000000000               0.000000000               0.000138817               0.000533243              -0.000012015              -0.000014599               0.000182612               0.000168013               0.000000000               0.000000000               0.000000000               0.000000000               0.000177052               0.000587280              -0.000014552              -0.000007015               0.000198096               0.000191081               0.000000000               0.000000000               0.000000000               0.000000000               0.000204498               0.000638917              -0.000024362              -0.000003178               0.000214029               0.000210852               0.000000000               0.000000000               0.000000000               0.000000000               0.000207303               0.000695069              -0.000030262              -0.000009145               0.000234736               0.000225591               0.000000000               0.000000000               0.000000000               0.000000000               0.000196876               0.000753547              -0.000039422              -0.000020365               0.000257968               0.000237603               0.000000000               0.000000000               0.000000000               0.000000000               0.000182431               0.000817459              -0.000045725              -0.000033771               0.000283740               0.000249970               0.000000000               0.000000000               0.000000000               0.000000000               0.000166530               0.000888830              -0.000045912              -0.000048655               0.000312492               0.000263837               0.000000000               0.000000000               0.000000000               0.000000000               0.000145098               0.000959569              -0.000043993              -0.000065534               0.000341698               0.000276164               0.000000000               0.000000000               0.000000000               0.000000000               0.000120525               0.001027789              -0.000039179              -0.000083277               0.000370352               0.000287075               0.000000000               0.000000000               0.000000000               0.000000000               0.000096114               0.001094883              -0.000031959              -0.000100817               0.000398563               0.000297746               0.000000000               0.000000000               0.000000000               0.000000000               0.000071702               0.001158836              -0.000023699              -0.000117966               0.000425597               0.000307631               0.000000000               0.000000000               0.000000000               0.000000000               0.000046766               0.001217916              -0.000015222              -0.000134702               0.000450869               0.000316167               0.000000000               0.000000000               0.000000000               0.000000000               0.000023210               0.001271127              -0.000007600              -0.000150187               0.000473767               0.000323580               0.000000000               0.000000000               0.000000000               0.000000000               0.000016010               0.001304676              -0.000006838              -0.000157080               0.000487248               0.000330167               0.000000000               0.000000000               0.000000000               0.000000000               0.000134644               0.000278709              -0.000122232               0.000015653               0.000087684               0.000103337               0.000000000               0.000000000               0.000000000               0.000000000               0.000111649               0.000352819              -0.000084073              -0.000002234               0.000118350               0.000116116               0.000000000               0.000000000               0.000000000               0.000000000               0.000112558               0.000485804              -0.000038589              -0.000018516               0.000168105               0.000149589               0.000000000               0.000000000               0.000000000               0.000000000               0.000142096               0.000572199              -0.000017880              -0.000018239               0.000196811               0.000178572               0.000000000               0.000000000               0.000000000               0.000000000               0.000184283               0.000631817              -0.000013486              -0.000009871               0.000213894               0.000204023               0.000000000               0.000000000               0.000000000               0.000000000               0.000214403               0.000694401              -0.000019420              -0.000006399               0.000233598               0.000227199               0.000000000               0.000000000               0.000000000               0.000000000               0.000215922               0.000761954              -0.000028088              -0.000014274               0.000258740               0.000244467               0.000000000               0.000000000               0.000000000               0.000000000               0.000206932               0.000830921              -0.000038165              -0.000026266               0.000285726               0.000259460               0.000000000               0.000000000               0.000000000               0.000000000               0.000195915               0.000906731              -0.000043060              -0.000039873               0.000315532               0.000275658               0.000000000               0.000000000               0.000000000               0.000000000               0.000180363               0.000987052              -0.000042297              -0.000055745               0.000347596               0.000291850               0.000000000               0.000000000               0.000000000               0.000000000               0.000159976               0.001065265              -0.000040366              -0.000073167               0.000379474               0.000306307               0.000000000               0.000000000               0.000000000               0.000000000               0.000138040               0.001141318              -0.000034338              -0.000090899               0.000410735               0.000319836               0.000000000               0.000000000               0.000000000               0.000000000               0.000115782               0.001216175              -0.000025861              -0.000108603               0.000441589               0.000332985               0.000000000               0.000000000               0.000000000               0.000000000               0.000091692               0.001286836              -0.000017166              -0.000126470               0.000471098               0.000344628               0.000000000               0.000000000               0.000000000               0.000000000               0.000068332               0.001353570              -0.000008837              -0.000143571               0.000499042               0.000355471               0.000000000               0.000000000               0.000000000               0.000000000               0.000047753               0.001415117              -0.000002008              -0.000158982               0.000524695               0.000365713               0.000000000               0.000000000               0.000000000               0.000000000               0.000037639               0.001448957              -0.000000049              -0.000167004               0.000538649               0.000371645               0.000000000               0.000000000               0.000000000               0.000000000               0.000141186               0.000255975              -0.000118102               0.000020948               0.000078342               0.000099289               0.000000000               0.000000000               0.000000000               0.000000000               0.000117751               0.000341371              -0.000088903               0.000001485               0.000113294               0.000114779               0.000000000               0.000000000               0.000000000               0.000000000               0.000114476               0.000484059              -0.000050403              -0.000017579               0.000167211               0.000149632               0.000000000               0.000000000               0.000000000               0.000000000               0.000140407               0.000582827              -0.000028172              -0.000020201               0.000201007               0.000180807               0.000000000               0.000000000               0.000000000               0.000000000               0.000184101               0.000660426              -0.000017685              -0.000013515               0.000224645               0.000211130               0.000000000               0.000000000               0.000000000               0.000000000               0.000223841               0.000732307              -0.000016977              -0.000007598               0.000246632               0.000239035               0.000000000               0.000000000               0.000000000               0.000000000               0.000236573               0.000802786              -0.000025607              -0.000011634               0.000271471               0.000259837               0.000000000               0.000000000               0.000000000               0.000000000               0.000232598               0.000872742              -0.000036330              -0.000021868               0.000298200               0.000276332               0.000000000               0.000000000               0.000000000               0.000000000               0.000224572               0.000944245              -0.000042053              -0.000033816               0.000326017               0.000292201               0.000000000               0.000000000               0.000000000               0.000000000               0.000213545               0.001021195              -0.000043337              -0.000047570               0.000356252               0.000308682               0.000000000               0.000000000               0.000000000               0.000000000               0.000198063               0.001099636              -0.000041397              -0.000063181               0.000387602               0.000324421               0.000000000               0.000000000               0.000000000               0.000000000               0.000178546               0.001175074              -0.000036473              -0.000079929               0.000418330               0.000338401               0.000000000               0.000000000               0.000000000               0.000000000               0.000158577               0.001250201              -0.000028747              -0.000096808               0.000448999               0.000352191               0.000000000               0.000000000               0.000000000               0.000000000               0.000138383               0.001326288              -0.000019239              -0.000113892               0.000480056               0.000366164               0.000000000               0.000000000               0.000000000               0.000000000               0.000117717               0.001400089              -0.000010397              -0.000130867               0.000510314               0.000379447               0.000000000               0.000000000               0.000000000               0.000000000               0.000100028               0.001474467              -0.000003085              -0.000146797               0.000540417               0.000393619               0.000000000               0.000000000               0.000000000               0.000000000               0.000086642               0.001510477               0.000002396              -0.000156319               0.000555594               0.000399275               0.000000000               0.000000000               0.000000000               0.000000000               0.000137286               0.000224832              -0.000106821               0.000023378               0.000067150               0.000090528               0.000000000               0.000000000               0.000000000               0.000000000               0.000118941               0.000312806              -0.000090103               0.000005502               0.000102434               0.000107935               0.000000000               0.000000000               0.000000000               0.000000000               0.000119669               0.000462562              -0.000063784              -0.000012944               0.000158501               0.000145556               0.000000000               0.000000000               0.000000000               0.000000000               0.000143548               0.000579204              -0.000041564              -0.000018570               0.000199256               0.000180686               0.000000000               0.000000000               0.000000000               0.000000000               0.000184241               0.000675097              -0.000025712              -0.000015297               0.000230129               0.000214832               0.000000000               0.000000000               0.000000000               0.000000000               0.000228454               0.000754809              -0.000017292              -0.000008681               0.000254494               0.000245813               0.000000000               0.000000000               0.000000000               0.000000000               0.000253862               0.000825778              -0.000019437              -0.000008024               0.000277931               0.000269907               0.000000000               0.000000000               0.000000000               0.000000000               0.000256821               0.000894459              -0.000027690              -0.000015500               0.000303317               0.000287817               0.000000000               0.000000000               0.000000000               0.000000000               0.000252344               0.000959858              -0.000034553              -0.000025353               0.000328400               0.000303047               0.000000000               0.000000000               0.000000000               0.000000000               0.000246349               0.001030193              -0.000038552              -0.000036393               0.000355526               0.000319132               0.000000000               0.000000000               0.000000000               0.000000000               0.000238424               0.001106525              -0.000038233              -0.000048906               0.000385140               0.000336234               0.000000000               0.000000000               0.000000000               0.000000000               0.000227525               0.001182730              -0.000035632              -0.000062519               0.000415079               0.000352560               0.000000000               0.000000000               0.000000000               0.000000000               0.000213098               0.001255076              -0.000031249              -0.000076973               0.000444012               0.000367040               0.000000000               0.000000000               0.000000000               0.000000000               0.000199095               0.001329807              -0.000023882              -0.000091565               0.000473786               0.000382221               0.000000000               0.000000000               0.000000000               0.000000000               0.000183924               0.001404666              -0.000014789              -0.000106611               0.000503755               0.000397143               0.000000000               0.000000000               0.000000000               0.000000000               0.000167308               0.001477867              -0.000006779              -0.000121993               0.000533282               0.000411289               0.000000000               0.000000000               0.000000000               0.000000000               0.000149902               0.001507182               0.000000902              -0.000132184               0.000546450               0.000414266               0.000000000               0.000000000               0.000000000               0.000000000               0.000127076               0.000181503              -0.000090056               0.000024965               0.000052178               0.000077144               0.000000000               0.000000000               0.000000000               0.000000000               0.000122566               0.000275463              -0.000086740               0.000011529               0.000087977               0.000099506               0.000000000               0.000000000               0.000000000               0.000000000               0.000130390               0.000436741              -0.000073596              -0.000005697               0.000147478               0.000141781               0.000000000               0.000000000               0.000000000               0.000000000               0.000152352               0.000569502              -0.000054358              -0.000014056               0.000194517               0.000180462               0.000000000               0.000000000               0.000000000               0.000000000               0.000186169               0.000679002              -0.000035633              -0.000015062               0.000231352               0.000216291               0.000000000               0.000000000               0.000000000               0.000000000               0.000226547               0.000765848              -0.000020174              -0.000010776               0.000258872               0.000248096               0.000000000               0.000000000               0.000000000               0.000000000               0.000259345               0.000841150              -0.000013685              -0.000007889               0.000283010               0.000275121               0.000000000               0.000000000               0.000000000               0.000000000               0.000273417               0.000911726              -0.000016896              -0.000011434               0.000307717               0.000296283               0.000000000               0.000000000               0.000000000               0.000000000               0.000276552               0.000976967              -0.000024145              -0.000018414               0.000331790               0.000313377               0.000000000               0.000000000               0.000000000               0.000000000               0.000276076               0.001041803              -0.000029865              -0.000026697               0.000356163               0.000329466               0.000000000               0.000000000               0.000000000               0.000000000               0.000274378               0.001112546              -0.000032472              -0.000036176               0.000382904               0.000346727               0.000000000               0.000000000               0.000000000               0.000000000               0.000272890               0.001189243              -0.000031831              -0.000046321               0.000411851               0.000365529               0.000000000               0.000000000               0.000000000               0.000000000               0.000267587               0.001263204              -0.000029648              -0.000057555               0.000440249               0.000382694               0.000000000               0.000000000               0.000000000               0.000000000               0.000259129               0.001333530              -0.000025814              -0.000069518               0.000467678               0.000398160               0.000000000               0.000000000               0.000000000               0.000000000               0.000250786               0.001407147              -0.000018640              -0.000081848               0.000496327               0.000414479               0.000000000               0.000000000               0.000000000               0.000000000               0.000239877               0.001481197              -0.000009955              -0.000095195               0.000525459               0.000430264               0.000000000               0.000000000               0.000000000               0.000000000               0.000223983               0.001509883              -0.000002274              -0.000104741               0.000538203               0.000433462               0.000000000               0.000000000               0.000000000               0.000000000               0.000110376               0.000142340              -0.000071505               0.000023598               0.000039580               0.000063178               0.000000000               0.000000000               0.000000000               0.000000000               0.000124472               0.000241785              -0.000079077               0.000016454               0.000075110               0.000091563               0.000000000               0.000000000               0.000000000               0.000000000               0.000143760               0.000406736              -0.000076493               0.000003068               0.000134555               0.000137623               0.000000000               0.000000000               0.000000000               0.000000000               0.000165586               0.000546556              -0.000060857              -0.000006225               0.000184258               0.000178034               0.000000000               0.000000000               0.000000000               0.000000000               0.000191591               0.000664496              -0.000042392              -0.000011215               0.000225235               0.000214020               0.000000000               0.000000000               0.000000000               0.000000000               0.000225118               0.000762399              -0.000023942              -0.000010881               0.000257757               0.000246877               0.000000000               0.000000000               0.000000000               0.000000000               0.000260731               0.000848442              -0.000011683              -0.000008281               0.000285571               0.000277290               0.000000000               0.000000000               0.000000000               0.000000000               0.000286097               0.000926534              -0.000009235              -0.000008530               0.000311685               0.000303155               0.000000000               0.000000000               0.000000000               0.000000000               0.000299124               0.000996113              -0.000014236              -0.000012342               0.000336148               0.000323806               0.000000000               0.000000000               0.000000000               0.000000000               0.000305175               0.001058308              -0.000019603              -0.000017848               0.000358715               0.000340867               0.000000000               0.000000000               0.000000000               0.000000000               0.000308417               0.001122655              -0.000023593              -0.000024676               0.000382440               0.000357764               0.000000000               0.000000000               0.000000000               0.000000000               0.000312034               0.001193820              -0.000024839              -0.000032215               0.000408674               0.000376460               0.000000000               0.000000000               0.000000000               0.000000000               0.000315666               0.001268857              -0.000023314              -0.000040232               0.000436359               0.000396126               0.000000000               0.000000000               0.000000000               0.000000000               0.000315519               0.001339458              -0.000021119              -0.000049113               0.000462853               0.000413740               0.000000000               0.000000000               0.000000000               0.000000000               0.000314149               0.001409327              -0.000017294              -0.000058360               0.000489224               0.000430864               0.000000000               0.000000000               0.000000000               0.000000000               0.000312923               0.001482291              -0.000009721              -0.000067940               0.000516739               0.000448799               0.000000000               0.000000000               0.000000000               0.000000000               0.000305804               0.001514588              -0.000003157              -0.000074647               0.000529740               0.000455093               0.000000000               0.000000000               0.000000000               0.000000000               0.000091030               0.000112512              -0.000051892               0.000020072               0.000030813               0.000050885               0.000000000               0.000000000               0.000000000               0.000000000               0.000124673               0.000210149              -0.000065808               0.000020483               0.000063221               0.000083705               0.000000000               0.000000000               0.000000000               0.000000000               0.000157326               0.000370465              -0.000070263               0.000012689               0.000119258               0.000131947               0.000000000               0.000000000               0.000000000               0.000000000               0.000180651               0.000514856              -0.000058838               0.000003387               0.000170488               0.000173875               0.000000000               0.000000000               0.000000000               0.000000000               0.000203411               0.000641790              -0.000043200              -0.000003945               0.000215243               0.000211298               0.000000000               0.000000000               0.000000000               0.000000000               0.000232012               0.000753198              -0.000026782              -0.000007145               0.000253445               0.000246300               0.000000000               0.000000000               0.000000000               0.000000000               0.000265284               0.000850352              -0.000012746              -0.000006812               0.000285719               0.000278906               0.000000000               0.000000000               0.000000000               0.000000000               0.000294958               0.000935136              -0.000005879              -0.000006283               0.000313803               0.000307520               0.000000000               0.000000000               0.000000000               0.000000000               0.000315902               0.001010229              -0.000006524              -0.000007816               0.000339345               0.000331529               0.000000000               0.000000000               0.000000000               0.000000000               0.000329088               0.001074070              -0.000009608              -0.000010851               0.000361637               0.000350786               0.000000000               0.000000000               0.000000000               0.000000000               0.000338330               0.001134538              -0.000012909              -0.000014943               0.000383157               0.000368213               0.000000000               0.000000000               0.000000000               0.000000000               0.000346632               0.001199955              -0.000015093              -0.000020007               0.000406650               0.000386643               0.000000000               0.000000000               0.000000000               0.000000000               0.000356262               0.001271495              -0.000014802              -0.000025338               0.000432274               0.000406935               0.000000000               0.000000000               0.000000000               0.000000000               0.000366141               0.001345797              -0.000013064              -0.000030922               0.000458902               0.000427980               0.000000000               0.000000000               0.000000000               0.000000000               0.000373518               0.001414960              -0.000011254              -0.000036801               0.000483916               0.000447115               0.000000000               0.000000000               0.000000000               0.000000000               0.000380466               0.001481451              -0.000006891              -0.000042507               0.000507981               0.000465474               0.000000000               0.000000000               0.000000000               0.000000000               0.000381981               0.001514170              -0.000002819              -0.000046028               0.000520061               0.000474033               0.000000000               0.000000000               0.000000000               0.000000000               0.000073307               0.000089770              -0.000032978               0.000016269               0.000024500               0.000040769               0.000000000               0.000000000               0.000000000               0.000000000               0.000123658               0.000182843              -0.000046817               0.000023516               0.000053108               0.000076625               0.000000000               0.000000000               0.000000000               0.000000000               0.000168349               0.000338486              -0.000053642               0.000020820               0.000105887               0.000126707               0.000000000               0.000000000               0.000000000               0.000000000               0.000196045               0.000484454              -0.000047684               0.000012960               0.000157163               0.000170123               0.000000000               0.000000000               0.000000000               0.000000000               0.000218588               0.000617025              -0.000037287               0.000004842               0.000204059               0.000208901               0.000000000               0.000000000               0.000000000               0.000000000               0.000243477               0.000737993              -0.000025089              -0.000000945               0.000246310               0.000245365               0.000000000               0.000000000               0.000000000               0.000000000               0.000271983               0.000844326              -0.000012216              -0.000003547               0.000282621               0.000279074               0.000000000               0.000000000               0.000000000               0.000000000               0.000301865               0.000937396              -0.000003977              -0.000003975               0.000313787               0.000309812               0.000000000               0.000000000               0.000000000               0.000000000               0.000327593               0.001018586              -0.000002249              -0.000004476               0.000341017               0.000336541               0.000000000               0.000000000               0.000000000               0.000000000               0.000347275               0.001087880              -0.000003187              -0.000005757               0.000364542               0.000358785               0.000000000               0.000000000               0.000000000               0.000000000               0.000362259               0.001148161              -0.000005044              -0.000007673               0.000385274               0.000377601               0.000000000               0.000000000               0.000000000               0.000000000               0.000375567               0.001208591              -0.000006649              -0.000010236               0.000406272               0.000396036               0.000000000               0.000000000               0.000000000               0.000000000               0.000389634               0.001274647              -0.000006898              -0.000013218               0.000429284               0.000416066               0.000000000               0.000000000               0.000000000               0.000000000               0.000406311               0.001348522              -0.000005777              -0.000016199               0.000454902               0.000438704               0.000000000               0.000000000               0.000000000               0.000000000               0.000421781               0.001418622              -0.000004375              -0.000019160               0.000479256               0.000460096               0.000000000               0.000000000               0.000000000               0.000000000               0.000435600               0.001481767              -0.000002882              -0.000021871               0.000501208               0.000479337               0.000000000               0.000000000               0.000000000               0.000000000               0.000442215               0.001513482              -0.000001538              -0.000023355               0.000512274               0.000488919               0.000000000               0.000000000               0.000000000               0.000000000               0.000059867               0.000077543              -0.000015744               0.000012757               0.000021595               0.000034352               0.000000000               0.000000000               0.000000000               0.000000000               0.000120749               0.000165667              -0.000024392               0.000024572               0.000047031               0.000071603               0.000000000               0.000000000               0.000000000               0.000000000               0.000175871               0.000316541              -0.000029348               0.000026384               0.000096718               0.000123102               0.000000000               0.000000000               0.000000000               0.000000000               0.000208370               0.000461763              -0.000026882               0.000020418               0.000147113               0.000167532               0.000000000               0.000000000               0.000000000               0.000000000               0.000231661               0.000597905              -0.000021598               0.000012135               0.000195255               0.000207389               0.000000000               0.000000000               0.000000000               0.000000000               0.000253505               0.000723832              -0.000015252               0.000004585               0.000239747               0.000244332               0.000000000               0.000000000               0.000000000               0.000000000               0.000277931               0.000835829              -0.000008188              -0.000000255               0.000278692               0.000278437               0.000000000               0.000000000               0.000000000               0.000000000               0.000306757               0.000936612              -0.000002985              -0.000002043               0.000312882               0.000310839               0.000000000               0.000000000               0.000000000               0.000000000               0.000334258               0.001023040              -0.000001051              -0.000002533               0.000341854               0.000339321               0.000000000               0.000000000               0.000000000               0.000000000               0.000357757               0.001096785              -0.000000688              -0.000002939               0.000366571               0.000363632               0.000000000               0.000000000               0.000000000               0.000000000               0.000377086               0.001158531              -0.000001221              -0.000003409               0.000387310               0.000383900               0.000000000               0.000000000               0.000000000               0.000000000               0.000394294               0.001215362              -0.000001918              -0.000004060               0.000406470               0.000402410               0.000000000               0.000000000               0.000000000               0.000000000               0.000412415               0.001277069              -0.000002008              -0.000004978               0.000427345               0.000422367               0.000000000               0.000000000               0.000000000               0.000000000               0.000433094               0.001347803              -0.000001498              -0.000006065               0.000451285               0.000445220               0.000000000               0.000000000               0.000000000               0.000000000               0.000453615               0.001418647              -0.000000663              -0.000007225               0.000475286               0.000468061               0.000000000               0.000000000               0.000000000               0.000000000               0.000472028               0.001483745              -0.000000420              -0.000008458               0.000497396               0.000488938               0.000000000               0.000000000               0.000000000               0.000000000               0.000480436               0.001515794              -0.000000287              -0.000009311               0.000508363               0.000499053               0.000000000               0.000000000               0.000000000               0.000000000               0.000054668               0.000074567              -0.000000000               0.000011179               0.000021129               0.000032309               0.000000000               0.000000000               0.000000000               0.000000000               0.000119220               0.000160137              -0.000000000               0.000024690               0.000045149               0.000069839               0.000000000               0.000000000               0.000000000               0.000000000               0.000179075               0.000308452              -0.000000000               0.000028596               0.000093284               0.000121881               0.000000000               0.000000000               0.000000000               0.000000000               0.000212689               0.000452596               0.000000000               0.000023184               0.000143136               0.000166320               0.000000000               0.000000000               0.000000000               0.000000000               0.000236714               0.000590089               0.000000000               0.000015006               0.000191692               0.000206699               0.000000000               0.000000000               0.000000000               0.000000000               0.000258453               0.000718399               0.000000000               0.000007120               0.000237091               0.000244210               0.000000000               0.000000000               0.000000000               0.000000000               0.000281475               0.000833095              -0.000000000               0.000001416               0.000277223               0.000278640               0.000000000               0.000000000               0.000000000               0.000000000               0.000308654               0.000936331               0.000000000              -0.000001296               0.000312539               0.000311243               0.000000000               0.000000000               0.000000000               0.000000000               0.000335715               0.001023921              -0.000000000              -0.000002097               0.000342003               0.000339906               0.000000000               0.000000000               0.000000000               0.000000000               0.000360605               0.001099356              -0.000000000              -0.000002193               0.000367179               0.000364987               0.000000000               0.000000000               0.000000000               0.000000000               0.000382015               0.001161998              -0.000000000              -0.000001994               0.000387993               0.000385999               0.000000000               0.000000000               0.000000000               0.000000000               0.000400821               0.001217468               0.000000000              -0.000001876               0.000406444               0.000404568               0.000000000               0.000000000               0.000000000               0.000000000               0.000420738               0.001277878              -0.000000000              -0.000001958               0.000426608               0.000424650               0.000000000               0.000000000               0.000000000               0.000000000               0.000442856               0.001346866              -0.000000000              -0.000002287               0.000449713               0.000447426               0.000000000               0.000000000               0.000000000               0.000000000               0.000464850               0.001417582               0.000000000              -0.000002879               0.000473482               0.000470603               0.000000000               0.000000000               0.000000000               0.000000000               0.000484594               0.001484433               0.000000000              -0.000003831               0.000496083               0.000492252               0.000000000               0.000000000               0.000000000               0.000000000               0.000493212               0.001517113               0.000000000              -0.000004684               0.000507261               0.000502576               0.000000000               0.000000000               0.000000000               0.000000000               0.000000000               0.000000000               0.000000000               0.000000000               0.000000000               0.000000000               0.000000000               0.000000000               0.000000000               0.000000000               0.000000000               0.000000000               0.000000000               0.000000000               0.000000000               0.000000000               0.000000000               0.000000000               0.000000000               0.000000000               0.000000000               0.000000000               0.000000000               0.000000000               0.000000000               0.000000000               0.000000000               0.000000000               0.000000000               0.000000000               0.000000000               0.000000000               0.000000000               0.000000000               0.000000000               0.000000000               0.000000000               0.000000000               0.000000000               0.000000000               0.000000000               0.000000000               0.000000000               0.000000000               0.000000000               0.000000000               0.000000000               0.000000000               0.000000000               0.000000000               0.000000000               0.000000000               0.000000000               0.000000000               0.000000000               0.000000000               0.000000000               0.000000000               0.000000000               0.000000000               0.000000000               0.000000000               0.000000000               0.000000000               0.000000000               0.000000000               0.000000000               0.000000000               0.000000000               0.000000000               0.000000000               0.000000000               0.000000000               0.000000000               0.000000000               0.000000000               0.000000000               0.000000000               0.000000000               0.000000000               0.000000000               0.000000000               0.000000000               0.000000000               0.000000000               0.000000000               0.000000000               0.000000000               0.000000000               0.000000000               0.000000000               0.000000000               0.000000000               0.000000000               0.000000000               0.000000000               0.000000000               0.000000000               0.000000000               0.000000000               0.000000000               0.000000000               0.000000000               0.000000000               0.000000000               0.000000000               0.000000000               0.000000000               0.000000000               0.000000000               0.000000000               0.000000000               0.000000000               0.000000000               0.000000000               0.000000000               0.000000000               0.000000000               0.000000000               0.000000000               0.000000000               0.000000000               0.000000000               0.000000000               0.000000000               0.000000000               0.000000000               0.000000000               0.000000000               0.000000000               0.000000000               0.000000000               0.000000000               0.000000000               0.000000000               0.000000000               0.000000000               0.000000000               0.000000000               0.000000000               0.000000000               0.000000000               0.000000000               0.000000000               0.000000000               0.000000000               0.000000000               0.000000000               0.000000000               0.000000000               0.000000000               0.000000000               0.000000000               0.000000000               0.000000000               0.000000000               0.000000000               0.000000000               0.000000000               0.000000000               0.000000000               0.000000000               0.000000000               0.000000000               0.000000000               0.000000000               0.000000000               0.000000000               0.000000000               0.000000000               0.000047445               0.000294917               0.000026079              -0.000019073               0.000104662               0.000085590               0.000000000               0.000000000               0.000000000               0.000000000               0.000058467               0.000250669               0.000014431              -0.000009409               0.000086692               0.000077283               0.000000000               0.000000000               0.000000000               0.000000000               0.000082238               0.000233408               0.000001839               0.000001663               0.000077248               0.000078911               0.000000000               0.000000000               0.000000000               0.000000000               0.000085850               0.000236782              -0.000003812               0.000002596               0.000078061               0.000080657               0.000000000               0.000000000               0.000000000               0.000000000               0.000080968               0.000246679              -0.000002017              -0.000000472               0.000082383               0.000081911               0.000000000               0.000000000               0.000000000               0.000000000               0.000075562               0.000247184               0.000000633              -0.000002562               0.000083248               0.000080686               0.000000000               0.000000000               0.000000000               0.000000000               0.000076102               0.000248959              -0.000001626              -0.000002582               0.000083846               0.000081264               0.000000000               0.000000000               0.000000000               0.000000000               0.000077849               0.000250936              -0.000002070              -0.000002174               0.000084369               0.000082195               0.000000000               0.000000000               0.000000000               0.000000000               0.000078797               0.000247762              -0.000000596              -0.000001421               0.000083060               0.000081639               0.000000000               0.000000000               0.000000000               0.000000000               0.000082095               0.000243338               0.000000736               0.000000368               0.000080989               0.000081357               0.000000000               0.000000000               0.000000000               0.000000000               0.000085144               0.000238365               0.000002195               0.000002133               0.000078743               0.000080876               0.000000000               0.000000000               0.000000000               0.000000000               0.000084660               0.000234551               0.000002592               0.000002429               0.000077373               0.000079802               0.000000000               0.000000000               0.000000000               0.000000000               0.000080135               0.000234636               0.000002071               0.000000721               0.000077971               0.000078692               0.000000000               0.000000000               0.000000000               0.000000000               0.000069926               0.000240210               0.000000748              -0.000003804               0.000081337               0.000077533               0.000000000               0.000000000               0.000000000               0.000000000               0.000052536               0.000251943              -0.000000900              -0.000011792               0.000087911               0.000076119               0.000000000               0.000000000               0.000000000               0.000000000               0.000028290               0.000270335              -0.000001559              -0.000023183               0.000097838               0.000074655               0.000000000               0.000000000               0.000000000               0.000000000               0.000017916               0.000288799               0.000000208              -0.000029381               0.000106059               0.000076678               0.000000000               0.000000000               0.000000000               0.000000000               0.000057138               0.000297919               0.000049113              -0.000015813               0.000104576               0.000088763               0.000000000               0.000000000               0.000000000               0.000000000               0.000063550               0.000253085               0.000026558              -0.000007804               0.000086962               0.000079158               0.000000000               0.000000000               0.000000000               0.000000000               0.000081261               0.000240780               0.000002679               0.000000376               0.000080134               0.000080509               0.000000000               0.000000000               0.000000000               0.000000000               0.000083556               0.000250213              -0.000008121               0.000000057               0.000083384               0.000083441               0.000000000               0.000000000               0.000000000               0.000000000               0.000085460               0.000264203              -0.000004592              -0.000000978               0.000088393               0.000087415               0.000000000               0.000000000               0.000000000               0.000000000               0.000088418               0.000270141               0.000000523              -0.000000611               0.000090250               0.000089639               0.000000000               0.000000000               0.000000000               0.000000000               0.000094108               0.000277080              -0.000001598               0.000000655               0.000092141               0.000092796               0.000000000               0.000000000               0.000000000               0.000000000               0.000097989               0.000281089               0.000000533               0.000001610               0.000093159               0.000094769               0.000000000               0.000000000               0.000000000               0.000000000               0.000098983               0.000284666               0.000004914               0.000001535               0.000094376               0.000095911               0.000000000               0.000000000               0.000000000               0.000000000               0.000099439               0.000291240               0.000008677               0.000000884               0.000096784               0.000097669               0.000000000               0.000000000               0.000000000               0.000000000               0.000097595               0.000301979               0.000012658              -0.000001149               0.000101042               0.000099893               0.000000000               0.000000000               0.000000000               0.000000000               0.000089881               0.000316564               0.000014854              -0.000005865               0.000107475               0.000101610               0.000000000               0.000000000               0.000000000               0.000000000               0.000077853               0.000335361               0.000015219              -0.000012725               0.000116028               0.000103302               0.000000000               0.000000000               0.000000000               0.000000000               0.000063317               0.000358672               0.000013769              -0.000021090               0.000126586               0.000105496               0.000000000               0.000000000               0.000000000               0.000000000               0.000045350               0.000386147               0.000010568              -0.000031262               0.000139135               0.000107873               0.000000000               0.000000000               0.000000000               0.000000000               0.000023526               0.000418635               0.000005846              -0.000043507               0.000154046               0.000110539               0.000000000               0.000000000               0.000000000               0.000000000               0.000016840               0.000446444               0.000006052              -0.000049490               0.000165310               0.000115820               0.000000000               0.000000000               0.000000000               0.000000000               0.000066491               0.000294997               0.000071583              -0.000011941               0.000102312               0.000090371               0.000000000               0.000000000               0.000000000               0.000000000               0.000068681               0.000259864               0.000037679              -0.000006727               0.000088863               0.000082135               0.000000000               0.000000000               0.000000000               0.000000000               0.000082988               0.000259865               0.000001828              -0.000001363               0.000087075               0.000085712               0.000000000               0.000000000               0.000000000               0.000000000               0.000086694               0.000281736              -0.000011308              -0.000002707               0.000094813               0.000092106               0.000000000               0.000000000               0.000000000               0.000000000               0.000094431               0.000301432              -0.000005422              -0.000002267               0.000101232               0.000098965               0.000000000               0.000000000               0.000000000               0.000000000               0.000105016               0.000319543               0.000003677              -0.000000562               0.000106701               0.000106139               0.000000000               0.000000000               0.000000000               0.000000000               0.000113906               0.000334986               0.000005178               0.000000841               0.000111380               0.000112222               0.000000000               0.000000000               0.000000000               0.000000000               0.000122711               0.000349611               0.000010039               0.000002315               0.000115764               0.000118079               0.000000000               0.000000000               0.000000000               0.000000000               0.000125567               0.000366290               0.000016851               0.000001301               0.000121662               0.000122963               0.000000000               0.000000000               0.000000000               0.000000000               0.000123567               0.000387235               0.000022626              -0.000002067               0.000129766               0.000127699               0.000000000               0.000000000               0.000000000               0.000000000               0.000118531               0.000415361               0.000027208              -0.000007471               0.000140942               0.000133472               0.000000000               0.000000000               0.000000000               0.000000000               0.000105316               0.000448460               0.000029534              -0.000016564               0.000155006               0.000138442               0.000000000               0.000000000               0.000000000               0.000000000               0.000086321               0.000485323               0.000029479              -0.000028295               0.000171204               0.000142910               0.000000000               0.000000000               0.000000000               0.000000000               0.000066059               0.000525077               0.000026836              -0.000040862               0.000188645               0.000147782               0.000000000               0.000000000               0.000000000               0.000000000               0.000044330               0.000565896               0.000021209              -0.000054113               0.000206668               0.000152555               0.000000000               0.000000000               0.000000000               0.000000000               0.000021709               0.000606599               0.000012098              -0.000067684               0.000224759               0.000157075               0.000000000               0.000000000               0.000000000               0.000000000               0.000015929               0.000636265               0.000009836              -0.000073560               0.000236606               0.000163046               0.000000000               0.000000000               0.000000000               0.000000000               0.000080677               0.000296312               0.000087016              -0.000006785               0.000101031               0.000094246               0.000000000               0.000000000               0.000000000               0.000000000               0.000075152               0.000276011               0.000046805              -0.000006320               0.000094109               0.000087790               0.000000000               0.000000000               0.000000000               0.000000000               0.000084977               0.000296786               0.000005167              -0.000005232               0.000100672               0.000095440               0.000000000               0.000000000               0.000000000               0.000000000               0.000092224               0.000332840              -0.000008856              -0.000007021               0.000113286               0.000106265               0.000000000               0.000000000               0.000000000               0.000000000               0.000110241               0.000367964              -0.000003137              -0.000004655               0.000124205               0.000119550               0.000000000               0.000000000               0.000000000               0.000000000               0.000130438               0.000401300               0.000008293              -0.000001248               0.000134181               0.000132933               0.000000000               0.000000000               0.000000000               0.000000000               0.000142419               0.000428148               0.000012577              -0.000000111               0.000142752               0.000142640               0.000000000               0.000000000               0.000000000               0.000000000               0.000149883               0.000456360               0.000019189              -0.000000839               0.000152398               0.000151559               0.000000000               0.000000000               0.000000000               0.000000000               0.000148224               0.000485563               0.000028472              -0.000005111               0.000163557               0.000158445               0.000000000               0.000000000               0.000000000               0.000000000               0.000142492               0.000520455               0.000035012              -0.000011622               0.000177357               0.000165735               0.000000000               0.000000000               0.000000000               0.000000000               0.000133759               0.000562050               0.000038949              -0.000020096               0.000194047               0.000173950               0.000000000               0.000000000               0.000000000               0.000000000               0.000116962               0.000606282               0.000039928              -0.000031924               0.000212733               0.000180809               0.000000000               0.000000000               0.000000000               0.000000000               0.000095070               0.000651847               0.000037857              -0.000045830               0.000232557               0.000186727               0.000000000               0.000000000               0.000000000               0.000000000               0.000072262               0.000697736               0.000032786              -0.000060118               0.000252616               0.000192497               0.000000000               0.000000000               0.000000000               0.000000000               0.000048165               0.000741681               0.000024600              -0.000074648               0.000272107               0.000197459               0.000000000               0.000000000               0.000000000               0.000000000               0.000023475               0.000781826               0.000013419              -0.000088925               0.000290248               0.000201323               0.000000000               0.000000000               0.000000000               0.000000000               0.000016513               0.000809067               0.000010083              -0.000094941               0.000301333               0.000206392               0.000000000               0.000000000               0.000000000               0.000000000               0.000096812               0.000299351               0.000102018              -0.000001115               0.000100154               0.000099039               0.000000000               0.000000000               0.000000000               0.000000000               0.000082460               0.000295536               0.000058086              -0.000006019               0.000100517               0.000094498               0.000000000               0.000000000               0.000000000               0.000000000               0.000089607               0.000347097               0.000011869              -0.000009785               0.000118959               0.000109175               0.000000000               0.000000000               0.000000000               0.000000000               0.000105693               0.000403518              -0.000005421              -0.000010805               0.000138106               0.000127302               0.000000000               0.000000000               0.000000000               0.000000000               0.000133982               0.000453354               0.000000856              -0.000006426               0.000153258               0.000146833               0.000000000               0.000000000               0.000000000               0.000000000               0.000158421               0.000491222               0.000014967              -0.000001995               0.000164404               0.000162409               0.000000000               0.000000000               0.000000000               0.000000000               0.000171323               0.000528557               0.000022349              -0.000001824               0.000176792               0.000174968               0.000000000               0.000000000               0.000000000               0.000000000               0.000174239               0.000567095               0.000030399              -0.000005547               0.000190879               0.000185332               0.000000000               0.000000000               0.000000000               0.000000000               0.000166489               0.000607373               0.000040211              -0.000013488               0.000206952               0.000193463               0.000000000               0.000000000               0.000000000               0.000000000               0.000155010               0.000653576               0.000045043              -0.000023568               0.000225713               0.000202144               0.000000000               0.000000000               0.000000000               0.000000000               0.000140662               0.000704405               0.000046291              -0.000035302               0.000246567               0.000211264               0.000000000               0.000000000               0.000000000               0.000000000               0.000119524               0.000755121               0.000044730              -0.000049569               0.000268227               0.000218659               0.000000000               0.000000000               0.000000000               0.000000000               0.000095096               0.000804240               0.000040091              -0.000064869               0.000289700               0.000224832               0.000000000               0.000000000               0.000000000               0.000000000               0.000071525               0.000851576               0.000032824              -0.000079625               0.000310398               0.000230773               0.000000000               0.000000000               0.000000000               0.000000000               0.000047267               0.000895222               0.000023388              -0.000094177               0.000329797               0.000235619               0.000000000               0.000000000               0.000000000               0.000000000               0.000022792               0.000934819               0.000012249              -0.000108305               0.000347705               0.000239400               0.000000000               0.000000000               0.000000000               0.000000000               0.000016312               0.000962069               0.000009371              -0.000114141               0.000358733               0.000244592               0.000000000               0.000000000               0.000000000               0.000000000               0.000111126               0.000300988               0.000116140               0.000004048               0.000098979               0.000103027               0.000000000               0.000000000               0.000000000               0.000000000               0.000091653               0.000318871               0.000067882              -0.000005489               0.000108119               0.000102630               0.000000000               0.000000000               0.000000000               0.000000000               0.000099201               0.000401531               0.000018891              -0.000012991               0.000138173               0.000125182               0.000000000               0.000000000               0.000000000               0.000000000               0.000123274               0.000474915               0.000002900              -0.000013137               0.000162682               0.000149546               0.000000000               0.000000000               0.000000000               0.000000000               0.000157724               0.000528187               0.000010015              -0.000006877               0.000178353               0.000171476               0.000000000               0.000000000               0.000000000               0.000000000               0.000184602               0.000569215               0.000022924              -0.000001926               0.000190379               0.000188453               0.000000000               0.000000000               0.000000000               0.000000000               0.000194110               0.000615441               0.000029168              -0.000004139               0.000206524               0.000202386               0.000000000               0.000000000               0.000000000               0.000000000               0.000190136               0.000662733               0.000037213              -0.000011541               0.000224756               0.000213215               0.000000000               0.000000000               0.000000000               0.000000000               0.000177030               0.000713315               0.000045725              -0.000022778               0.000245362               0.000222584               0.000000000               0.000000000               0.000000000               0.000000000               0.000162074               0.000771080               0.000048227              -0.000035607               0.000268893               0.000233286               0.000000000               0.000000000               0.000000000               0.000000000               0.000143100               0.000830730               0.000046831              -0.000050179               0.000293634               0.000243455               0.000000000               0.000000000               0.000000000               0.000000000               0.000118020               0.000888745               0.000043549              -0.000066835               0.000318524               0.000251688               0.000000000               0.000000000               0.000000000               0.000000000               0.000092618               0.000945077               0.000037513              -0.000083403               0.000342823               0.000259421               0.000000000               0.000000000               0.000000000               0.000000000               0.000068912               0.000999259               0.000029572              -0.000099065               0.000366105               0.000267040               0.000000000               0.000000000               0.000000000               0.000000000               0.000044647               0.001049838               0.000020652              -0.000114487               0.000388105               0.000273618               0.000000000               0.000000000               0.000000000               0.000000000               0.000021631               0.001095817               0.000010777              -0.000128865               0.000408224               0.000279359               0.000000000               0.000000000               0.000000000               0.000000000               0.000016278               0.001126527               0.000008910              -0.000134711               0.000420409               0.000285698               0.000000000               0.000000000               0.000000000               0.000000000               0.000121751               0.000294489               0.000122466               0.000008845               0.000095214               0.000104059               0.000000000               0.000000000               0.000000000               0.000000000               0.000099737               0.000341018               0.000076957              -0.000005226               0.000115413               0.000110187               0.000000000               0.000000000               0.000000000               0.000000000               0.000107906               0.000451242               0.000029172              -0.000015941               0.000155726               0.000139785               0.000000000               0.000000000               0.000000000               0.000000000               0.000138817               0.000533243               0.000012015              -0.000014599               0.000182612               0.000168013               0.000000000               0.000000000               0.000000000               0.000000000               0.000177052               0.000587280               0.000014552              -0.000007015               0.000198096               0.000191081               0.000000000               0.000000000               0.000000000               0.000000000               0.000204498               0.000638917               0.000024362              -0.000003178               0.000214029               0.000210852               0.000000000               0.000000000               0.000000000               0.000000000               0.000207303               0.000695069               0.000030262              -0.000009145               0.000234736               0.000225591               0.000000000               0.000000000               0.000000000               0.000000000               0.000196876               0.000753547               0.000039422              -0.000020365               0.000257968               0.000237603               0.000000000               0.000000000               0.000000000               0.000000000               0.000182431               0.000817459               0.000045725              -0.000033771               0.000283740               0.000249970               0.000000000               0.000000000               0.000000000               0.000000000               0.000166530               0.000888830               0.000045912              -0.000048655               0.000312492               0.000263837               0.000000000               0.000000000               0.000000000               0.000000000               0.000145098               0.000959569               0.000043993              -0.000065534               0.000341698               0.000276164               0.000000000               0.000000000               0.000000000               0.000000000               0.000120525               0.001027789               0.000039179              -0.000083277               0.000370352               0.000287075               0.000000000               0.000000000               0.000000000               0.000000000               0.000096114               0.001094883               0.000031959              -0.000100817               0.000398563               0.000297746               0.000000000               0.000000000               0.000000000               0.000000000               0.000071702               0.001158836               0.000023699              -0.000117966               0.000425597               0.000307631               0.000000000               0.000000000               0.000000000               0.000000000               0.000046766               0.001217916               0.000015222              -0.000134702               0.000450869               0.000316167               0.000000000               0.000000000               0.000000000               0.000000000               0.000023210               0.001271127               0.000007600              -0.000150187               0.000473767               0.000323580               0.000000000               0.000000000               0.000000000               0.000000000               0.000016010               0.001304676               0.000006838              -0.000157080               0.000487248               0.000330167               0.000000000               0.000000000               0.000000000               0.000000000               0.000134644               0.000278709               0.000122232               0.000015653               0.000087684               0.000103337               0.000000000               0.000000000               0.000000000               0.000000000               0.000111649               0.000352819               0.000084073              -0.000002234               0.000118350               0.000116116               0.000000000               0.000000000               0.000000000               0.000000000               0.000112558               0.000485804               0.000038589              -0.000018516               0.000168105               0.000149589               0.000000000               0.000000000               0.000000000               0.000000000               0.000142096               0.000572199               0.000017880              -0.000018239               0.000196811               0.000178572               0.000000000               0.000000000               0.000000000               0.000000000               0.000184283               0.000631817               0.000013486              -0.000009871               0.000213894               0.000204023               0.000000000               0.000000000               0.000000000               0.000000000               0.000214403               0.000694401               0.000019420              -0.000006399               0.000233598               0.000227199               0.000000000               0.000000000               0.000000000               0.000000000               0.000215922               0.000761954               0.000028088              -0.000014274               0.000258740               0.000244467               0.000000000               0.000000000               0.000000000               0.000000000               0.000206932               0.000830921               0.000038165              -0.000026266               0.000285726               0.000259460               0.000000000               0.000000000               0.000000000               0.000000000               0.000195915               0.000906731               0.000043060              -0.000039873               0.000315532               0.000275658               0.000000000               0.000000000               0.000000000               0.000000000               0.000180363               0.000987052               0.000042297              -0.000055745               0.000347596               0.000291850               0.000000000               0.000000000               0.000000000               0.000000000               0.000159976               0.001065265               0.000040366              -0.000073167               0.000379474               0.000306307               0.000000000               0.000000000               0.000000000               0.000000000               0.000138040               0.001141318               0.000034338              -0.000090899               0.000410735               0.000319836               0.000000000               0.000000000               0.000000000               0.000000000               0.000115782               0.001216175               0.000025861              -0.000108603               0.000441589               0.000332985               0.000000000               0.000000000               0.000000000               0.000000000               0.000091692               0.001286836               0.000017166              -0.000126470               0.000471098               0.000344628               0.000000000               0.000000000               0.000000000               0.000000000               0.000068332               0.001353570               0.000008837              -0.000143571               0.000499042               0.000355471               0.000000000               0.000000000               0.000000000               0.000000000               0.000047753               0.001415117               0.000002008              -0.000158982               0.000524695               0.000365713               0.000000000               0.000000000               0.000000000               0.000000000               0.000037639               0.001448957               0.000000049              -0.000167004               0.000538649               0.000371645               0.000000000               0.000000000               0.000000000               0.000000000               0.000141186               0.000255975               0.000118102               0.000020948               0.000078342               0.000099289               0.000000000               0.000000000               0.000000000               0.000000000               0.000117751               0.000341371               0.000088903               0.000001485               0.000113294               0.000114779               0.000000000               0.000000000               0.000000000               0.000000000               0.000114476               0.000484059               0.000050403              -0.000017579               0.000167211               0.000149632               0.000000000               0.000000000               0.000000000               0.000000000               0.000140407               0.000582827               0.000028172              -0.000020201               0.000201007               0.000180807               0.000000000               0.000000000               0.000000000               0.000000000               0.000184101               0.000660426               0.000017685              -0.000013515               0.000224645               0.000211130               0.000000000               0.000000000               0.000000000               0.000000000               0.000223841               0.000732307               0.000016977              -0.000007598               0.000246632               0.000239035               0.000000000               0.000000000               0.000000000               0.000000000               0.000236573               0.000802786               0.000025607              -0.000011634               0.000271471               0.000259837               0.000000000               0.000000000               0.000000000               0.000000000               0.000232598               0.000872742               0.000036330              -0.000021868               0.000298200               0.000276332               0.000000000               0.000000000               0.000000000               0.000000000               0.000224572               0.000944245               0.000042053              -0.000033816               0.000326017               0.000292201               0.000000000               0.000000000               0.000000000               0.000000000               0.000213545               0.001021195               0.000043337              -0.000047570               0.000356252               0.000308682               0.000000000               0.000000000               0.000000000               0.000000000               0.000198063               0.001099636               0.000041397              -0.000063181               0.000387602               0.000324421               0.000000000               0.000000000               0.000000000               0.000000000               0.000178546               0.001175074               0.000036473              -0.000079929               0.000418330               0.000338401               0.000000000               0.000000000               0.000000000               0.000000000               0.000158577               0.001250201               0.000028747              -0.000096808               0.000448999               0.000352191               0.000000000               0.000000000               0.000000000               0.000000000               0.000138383               0.001326288               0.000019239              -0.000113892               0.000480056               0.000366164               0.000000000               0.000000000               0.000000000               0.000000000               0.000117717               0.001400089               0.000010397              -0.000130867               0.000510314               0.000379447               0.000000000               0.000000000               0.000000000               0.000000000               0.000100028               0.001474467               0.000003085              -0.000146797               0.000540417               0.000393619               0.000000000               0.000000000               0.000000000               0.000000000               0.000086642               0.001510477              -0.000002396              -0.000156319               0.000555594               0.000399275               0.000000000               0.000000000               0.000000000               0.000000000               0.000137286               0.000224832               0.000106821               0.000023378               0.000067150               0.000090528               0.000000000               0.000000000               0.000000000               0.000000000               0.000118941               0.000312806               0.000090103               0.000005502               0.000102434               0.000107935               0.000000000               0.000000000               0.000000000               0.000000000               0.000119669               0.000462562               0.000063784              -0.000012944               0.000158501               0.000145556               0.000000000               0.000000000               0.000000000               0.000000000               0.000143548               0.000579204               0.000041564              -0.000018570               0.000199256               0.000180686               0.000000000               0.000000000               0.000000000               0.000000000               0.000184241               0.000675097               0.000025712              -0.000015297               0.000230129               0.000214832               0.000000000               0.000000000               0.000000000               0.000000000               0.000228454               0.000754809               0.000017292              -0.000008681               0.000254494               0.000245813               0.000000000               0.000000000               0.000000000               0.000000000               0.000253862               0.000825778               0.000019437              -0.000008024               0.000277931               0.000269907               0.000000000               0.000000000               0.000000000               0.000000000               0.000256821               0.000894459               0.000027690              -0.000015500               0.000303317               0.000287817               0.000000000               0.000000000               0.000000000               0.000000000               0.000252344               0.000959858               0.000034553              -0.000025353               0.000328400               0.000303047               0.000000000               0.000000000               0.000000000               0.000000000               0.000246349               0.001030193               0.000038552              -0.000036393               0.000355526               0.000319132               0.000000000               0.000000000               0.000000000               0.000000000               0.000238424               0.001106525               0.000038233              -0.000048906               0.000385140               0.000336234               0.000000000               0.000000000               0.000000000               0.000000000               0.000227525               0.001182730               0.000035632              -0.000062519               0.000415079               0.000352560               0.000000000               0.000000000               0.000000000               0.000000000               0.000213098               0.001255076               0.000031249              -0.000076973               0.000444012               0.000367040               0.000000000               0.000000000               0.000000000               0.000000000               0.000199095               0.001329807               0.000023882              -0.000091565               0.000473786               0.000382221               0.000000000               0.000000000               0.000000000               0.000000000               0.000183924               0.001404666               0.000014789              -0.000106611               0.000503755               0.000397143               0.000000000               0.000000000               0.000000000               0.000000000               0.000167308               0.001477867               0.000006779              -0.000121993               0.000533282               0.000411289               0.000000000               0.000000000               0.000000000               0.000000000               0.000149902               0.001507182              -0.000000902              -0.000132184               0.000546450               0.000414266               0.000000000               0.000000000               0.000000000               0.000000000               0.000127076               0.000181503               0.000090056               0.000024965               0.000052178               0.000077144               0.000000000               0.000000000               0.000000000               0.000000000               0.000122566               0.000275463               0.000086740               0.000011529               0.000087977               0.000099506               0.000000000               0.000000000               0.000000000               0.000000000               0.000130390               0.000436741               0.000073596              -0.000005697               0.000147478               0.000141781               0.000000000               0.000000000               0.000000000               0.000000000               0.000152352               0.000569502               0.000054358              -0.000014056               0.000194517               0.000180462               0.000000000               0.000000000               0.000000000               0.000000000               0.000186169               0.000679002               0.000035633              -0.000015062               0.000231352               0.000216291               0.000000000               0.000000000               0.000000000               0.000000000               0.000226547               0.000765848               0.000020174              -0.000010776               0.000258872               0.000248096               0.000000000               0.000000000               0.000000000               0.000000000               0.000259345               0.000841150               0.000013685              -0.000007889               0.000283010               0.000275121               0.000000000               0.000000000               0.000000000               0.000000000               0.000273417               0.000911726               0.000016896              -0.000011434               0.000307717               0.000296283               0.000000000               0.000000000               0.000000000               0.000000000               0.000276552               0.000976967               0.000024145              -0.000018414               0.000331790               0.000313377               0.000000000               0.000000000               0.000000000               0.000000000               0.000276076               0.001041803               0.000029865              -0.000026697               0.000356163               0.000329466               0.000000000               0.000000000               0.000000000               0.000000000               0.000274378               0.001112546               0.000032472              -0.000036176               0.000382904               0.000346727               0.000000000               0.000000000               0.000000000               0.000000000               0.000272890               0.001189243               0.000031831              -0.000046321               0.000411851               0.000365529               0.000000000               0.000000000               0.000000000               0.000000000               0.000267587               0.001263204               0.000029648              -0.000057555               0.000440249               0.000382694               0.000000000               0.000000000               0.000000000               0.000000000               0.000259129               0.001333530               0.000025814              -0.000069518               0.000467678               0.000398160               0.000000000               0.000000000               0.000000000               0.000000000               0.000250786               0.001407147               0.000018640              -0.000081848               0.000496327               0.000414479               0.000000000               0.000000000               0.000000000               0.000000000               0.000239877               0.001481197               0.000009955              -0.000095195               0.000525459               0.000430264               0.000000000               0.000000000               0.000000000               0.000000000               0.000223983               0.001509883               0.000002274              -0.000104741               0.000538203               0.000433462               0.000000000               0.000000000               0.000000000               0.000000000               0.000110376               0.000142340               0.000071505               0.000023598               0.000039580               0.000063178               0.000000000               0.000000000               0.000000000               0.000000000               0.000124472               0.000241785               0.000079077               0.000016454               0.000075110               0.000091563               0.000000000               0.000000000               0.000000000               0.000000000               0.000143760               0.000406736               0.000076493               0.000003068               0.000134555               0.000137623               0.000000000               0.000000000               0.000000000               0.000000000               0.000165586               0.000546556               0.000060857              -0.000006225               0.000184258               0.000178034               0.000000000               0.000000000               0.000000000               0.000000000               0.000191591               0.000664496               0.000042392              -0.000011215               0.000225235               0.000214020               0.000000000               0.000000000               0.000000000               0.000000000               0.000225118               0.000762399               0.000023942              -0.000010881               0.000257757               0.000246877               0.000000000               0.000000000               0.000000000               0.000000000               0.000260731               0.000848442               0.000011683              -0.000008281               0.000285571               0.000277290               0.000000000               0.000000000               0.000000000               0.000000000               0.000286097               0.000926534               0.000009235              -0.000008530               0.000311685               0.000303155               0.000000000               0.000000000               0.000000000               0.000000000               0.000299124               0.000996113               0.000014236              -0.000012342               0.000336148               0.000323806               0.000000000               0.000000000               0.000000000               0.000000000               0.000305175               0.001058308               0.000019603              -0.000017848               0.000358715               0.000340867               0.000000000               0.000000000               0.000000000               0.000000000               0.000308417               0.001122655               0.000023593              -0.000024676               0.000382440               0.000357764               0.000000000               0.000000000               0.000000000               0.000000000               0.000312034               0.001193820               0.000024839              -0.000032215               0.000408674               0.000376460               0.000000000               0.000000000               0.000000000               0.000000000               0.000315666               0.001268857               0.000023314              -0.000040232               0.000436359               0.000396126               0.000000000               0.000000000               0.000000000               0.000000000               0.000315519               0.001339458               0.000021119              -0.000049113               0.000462853               0.000413740               0.000000000               0.000000000               0.000000000               0.000000000               0.000314149               0.001409327               0.000017294              -0.000058360               0.000489224               0.000430864               0.000000000               0.000000000               0.000000000               0.000000000               0.000312923               0.001482291               0.000009721              -0.000067940               0.000516739               0.000448799               0.000000000               0.000000000               0.000000000               0.000000000               0.000305804               0.001514588               0.000003157              -0.000074647               0.000529740               0.000455093               0.000000000               0.000000000               0.000000000               0.000000000               0.000091030               0.000112512               0.000051892               0.000020072               0.000030813               0.000050885               0.000000000               0.000000000               0.000000000               0.000000000               0.000124673               0.000210149               0.000065808               0.000020483               0.000063221               0.000083705               0.000000000               0.000000000               0.000000000               0.000000000               0.000157326               0.000370465               0.000070263               0.000012689               0.000119258               0.000131947               0.000000000               0.000000000               0.000000000               0.000000000               0.000180651               0.000514856               0.000058838               0.000003387               0.000170488               0.000173875               0.000000000               0.000000000               0.000000000               0.000000000               0.000203411               0.000641790               0.000043200              -0.000003945               0.000215243               0.000211298               0.000000000               0.000000000               0.000000000               0.000000000               0.000232012               0.000753198               0.000026782              -0.000007145               0.000253445               0.000246300               0.000000000               0.000000000               0.000000000               0.000000000               0.000265284               0.000850352               0.000012746              -0.000006812               0.000285719               0.000278906               0.000000000               0.000000000               0.000000000               0.000000000               0.000294958               0.000935136               0.000005879              -0.000006283               0.000313803               0.000307520               0.000000000               0.000000000               0.000000000               0.000000000               0.000315902               0.001010229               0.000006524              -0.000007816               0.000339345               0.000331529               0.000000000               0.000000000               0.000000000               0.000000000               0.000329088               0.001074070               0.000009608              -0.000010851               0.000361637               0.000350786               0.000000000               0.000000000               0.000000000               0.000000000               0.000338330               0.001134538               0.000012909              -0.000014943               0.000383157               0.000368213               0.000000000               0.000000000               0.000000000               0.000000000               0.000346632               0.001199955               0.000015093              -0.000020007               0.000406650               0.000386643               0.000000000               0.000000000               0.000000000               0.000000000               0.000356262               0.001271495               0.000014802              -0.000025338               0.000432274               0.000406935               0.000000000               0.000000000               0.000000000               0.000000000               0.000366141               0.001345797               0.000013064              -0.000030922               0.000458902               0.000427980               0.000000000               0.000000000               0.000000000               0.000000000               0.000373518               0.001414960               0.000011254              -0.000036801               0.000483916               0.000447115               0.000000000               0.000000000               0.000000000               0.000000000               0.000380466               0.001481451               0.000006891              -0.000042507               0.000507981               0.000465474               0.000000000               0.000000000               0.000000000               0.000000000               0.000381981               0.001514170               0.000002819              -0.000046028               0.000520061               0.000474033               0.000000000               0.000000000               0.000000000               0.000000000               0.000073307               0.000089770               0.000032978               0.000016269               0.000024500               0.000040769               0.000000000               0.000000000               0.000000000               0.000000000               0.000123658               0.000182843               0.000046817               0.000023516               0.000053108               0.000076625               0.000000000               0.000000000               0.000000000               0.000000000               0.000168349               0.000338486               0.000053642               0.000020820               0.000105887               0.000126707               0.000000000               0.000000000               0.000000000               0.000000000               0.000196045               0.000484454               0.000047684               0.000012960               0.000157163               0.000170123               0.000000000               0.000000000               0.000000000               0.000000000               0.000218588               0.000617025               0.000037287               0.000004842               0.000204059               0.000208901               0.000000000               0.000000000               0.000000000               0.000000000               0.000243477               0.000737993               0.000025089              -0.000000945               0.000246310               0.000245365               0.000000000               0.000000000               0.000000000               0.000000000               0.000271983               0.000844326               0.000012216              -0.000003547               0.000282621               0.000279074               0.000000000               0.000000000               0.000000000               0.000000000               0.000301865               0.000937396               0.000003977              -0.000003975               0.000313787               0.000309812               0.000000000               0.000000000               0.000000000               0.000000000               0.000327593               0.001018586               0.000002249              -0.000004476               0.000341017               0.000336541               0.000000000               0.000000000               0.000000000               0.000000000               0.000347275               0.001087880               0.000003187              -0.000005757               0.000364542               0.000358785               0.000000000               0.000000000               0.000000000               0.000000000               0.000362259               0.001148161               0.000005044              -0.000007673               0.000385274               0.000377601               0.000000000               0.000000000               0.000000000               0.000000000               0.000375567               0.001208591               0.000006649              -0.000010236               0.000406272               0.000396036               0.000000000               0.000000000               0.000000000               0.000000000               0.000389634               0.001274647               0.000006898              -0.000013218               0.000429284               0.000416066               0.000000000               0.000000000               0.000000000               0.000000000               0.000406311               0.001348522               0.000005777              -0.000016199               0.000454902               0.000438704               0.000000000               0.000000000               0.000000000               0.000000000               0.000421781               0.001418622               0.000004375              -0.000019160               0.000479256               0.000460096               0.000000000               0.000000000               0.000000000               0.000000000               0.000435600               0.001481767               0.000002882              -0.000021871               0.000501208               0.000479337               0.000000000               0.000000000               0.000000000               0.000000000               0.000442215               0.001513482               0.000001538              -0.000023355               0.000512274               0.000488919               0.000000000               0.000000000               0.000000000               0.000000000               0.000059867               0.000077543               0.000015744               0.000012757               0.000021595               0.000034352               0.000000000               0.000000000               0.000000000               0.000000000               0.000120749               0.000165667               0.000024392               0.000024572               0.000047031               0.000071603               0.000000000               0.000000000               0.000000000               0.000000000               0.000175871               0.000316541               0.000029348               0.000026384               0.000096718               0.000123102               0.000000000               0.000000000               0.000000000               0.000000000               0.000208370               0.000461763               0.000026882               0.000020418               0.000147113               0.000167532               0.000000000               0.000000000               0.000000000               0.000000000               0.000231661               0.000597905               0.000021598               0.000012135               0.000195255               0.000207389               0.000000000               0.000000000               0.000000000               0.000000000               0.000253505               0.000723832               0.000015252               0.000004585               0.000239747               0.000244332               0.000000000               0.000000000               0.000000000               0.000000000               0.000277931               0.000835829               0.000008188              -0.000000255               0.000278692               0.000278437               0.000000000               0.000000000               0.000000000               0.000000000               0.000306757               0.000936612               0.000002985              -0.000002043               0.000312882               0.000310839               0.000000000               0.000000000               0.000000000               0.000000000               0.000334258               0.001023040               0.000001051              -0.000002533               0.000341854               0.000339321               0.000000000               0.000000000               0.000000000               0.000000000               0.000357757               0.001096785               0.000000688              -0.000002939               0.000366571               0.000363632               0.000000000               0.000000000               0.000000000               0.000000000               0.000377086               0.001158531               0.000001221              -0.000003409               0.000387310               0.000383900               0.000000000               0.000000000               0.000000000               0.000000000               0.000394294               0.001215362               0.000001918              -0.000004060               0.000406470               0.000402410               0.000000000               0.000000000               0.000000000               0.000000000               0.000412415               0.001277069               0.000002008              -0.000004978               0.000427345               0.000422367               0.000000000               0.000000000               0.000000000               0.000000000               0.000433094               0.001347803               0.000001498              -0.000006065               0.000451285               0.000445220               0.000000000               0.000000000               0.000000000               0.000000000               0.000453615               0.001418647               0.000000663              -0.000007225               0.000475286               0.000468061               0.000000000               0.000000000               0.000000000               0.000000000               0.000472028               0.001483745               0.000000420              -0.000008458               0.000497396               0.000488938               0.000000000               0.000000000               0.000000000               0.000000000               0.000480436               0.001515794               0.000000287              -0.000009311               0.000508363               0.000499053               0.000000000               0.000000000               0.000000000               0.000000000               0.000054668               0.000074567               0.000000000               0.000011179               0.000021129               0.000032309               0.000000000               0.000000000               0.000000000               0.000000000               0.000119220               0.000160137               0.000000000               0.000024690               0.000045149               0.000069839               0.000000000               0.000000000               0.000000000               0.000000000               0.000179075               0.000308452               0.000000000               0.000028596               0.000093284               0.000121881               0.000000000               0.000000000               0.000000000               0.000000000               0.000212689               0.000452596               0.000000000               0.000023184               0.000143136               0.000166320               0.000000000               0.000000000               0.000000000               0.000000000               0.000236714               0.000590089              -0.000000000               0.000015006               0.000191692               0.000206699               0.000000000               0.000000000               0.000000000               0.000000000               0.000258453               0.000718399              -0.000000000               0.000007120               0.000237091               0.000244210               0.000000000               0.000000000               0.000000000               0.000000000               0.000281475               0.000833095              -0.000000000               0.000001416               0.000277223               0.000278640               0.000000000               0.000000000               0.000000000               0.000000000               0.000308654               0.000936331              -0.000000000              -0.000001296               0.000312539               0.000311243               0.000000000               0.000000000               0.000000000               0.000000000               0.000335715               0.001023921              -0.000000000              -0.000002097               0.000342003               0.000339906               0.000000000               0.000000000               0.000000000               0.000000000               0.000360605               0.001099356              -0.000000000              -0.000002193               0.000367179               0.000364987               0.000000000               0.000000000               0.000000000               0.000000000               0.000382015               0.001161998               0.000000000              -0.000001994               0.000387993               0.000385999               0.000000000               0.000000000               0.000000000               0.000000000               0.000400821               0.001217468               0.000000000              -0.000001876               0.000406444               0.000404568               0.000000000               0.000000000               0.000000000               0.000000000               0.000420738               0.001277878               0.000000000              -0.000001958               0.000426608               0.000424650               0.000000000               0.000000000               0.000000000               0.000000000               0.000442856               0.001346866               0.000000000              -0.000002287               0.000449713               0.000447426               0.000000000               0.000000000               0.000000000               0.000000000               0.000464850               0.001417582               0.000000000              -0.000002879               0.000473482               0.000470603               0.000000000               0.000000000               0.000000000               0.000000000               0.000484594               0.001484433              -0.000000000              -0.000003831               0.000496083               0.000492252               0.000000000               0.000000000               0.000000000               0.000000000               0.000493212               0.001517113              -0.000000000              -0.000004684               0.000507261               0.000502576               0.000000000               0.000000000               0.000000000               0.000000000               0.000040905               0.000290520              -0.000000000              -0.000020975               0.000103831               0.000082856               0.000000000               0.000000000               0.000000000               0.000000000               0.000054308               0.000248848              -0.000000000              -0.000010740               0.000086529               0.000075788               0.000000000               0.000000000               0.000000000               0.000000000               0.000080446               0.000229487               0.000000000               0.000001481               0.000076001               0.000077482               0.000000000               0.000000000               0.000000000               0.000000000               0.000084837               0.000233094               0.000000000               0.000002677               0.000076805               0.000079482               0.000000000               0.000000000               0.000000000               0.000000000               0.000079575               0.000242503               0.000000000              -0.000000472               0.000080991               0.000080519               0.000000000               0.000000000               0.000000000               0.000000000               0.000075201               0.000242999               0.000000000              -0.000002175               0.000081724               0.000079549               0.000000000               0.000000000               0.000000000               0.000000000               0.000072790               0.000242548               0.000000000              -0.000003022               0.000081856               0.000078834               0.000000000               0.000000000               0.000000000               0.000000000               0.000070418               0.000243051              -0.000000000              -0.000003975               0.000082341               0.000078366               0.000000000               0.000000000               0.000000000               0.000000000               0.000070460               0.000237826              -0.000000000              -0.000003306               0.000080377               0.000077071               0.000000000               0.000000000               0.000000000               0.000000000               0.000074544               0.000228838              -0.000000000              -0.000000651               0.000076495               0.000075845               0.000000000               0.000000000               0.000000000               0.000000000               0.000079290               0.000217137              -0.000000000               0.000002592               0.000071514               0.000074106               0.000000000               0.000000000               0.000000000               0.000000000               0.000082182               0.000205980              -0.000000000               0.000005071               0.000066969               0.000072040               0.000000000               0.000000000               0.000000000               0.000000000               0.000080620               0.000198827               0.000000000               0.000005379               0.000064482               0.000069861               0.000000000               0.000000000               0.000000000               0.000000000               0.000071491               0.000197348              -0.000000000               0.000002141               0.000065068               0.000067209               0.000000000               0.000000000               0.000000000               0.000000000               0.000054080               0.000202524              -0.000000000              -0.000005036               0.000069186               0.000064150               0.000000000               0.000000000               0.000000000               0.000000000               0.000029315               0.000213564              -0.000000000              -0.000015702               0.000076422               0.000060719               0.000000000               0.000000000               0.000000000               0.000000000               0.000017287               0.000225325               0.000000000              -0.000021683               0.000082335               0.000060652               0.000000000               0.000000000               0.000000000               0.000000000               0.000047445               0.000294917              -0.000026079              -0.000019073               0.000104662               0.000085590               0.000000000               0.000000000               0.000000000               0.000000000               0.000058467               0.000250669              -0.000014431              -0.000009409               0.000086692               0.000077283               0.000000000               0.000000000               0.000000000               0.000000000               0.000082238               0.000233408              -0.000001839               0.000001663               0.000077248               0.000078911               0.000000000               0.000000000               0.000000000               0.000000000               0.000085850               0.000236782               0.000003812               0.000002596               0.000078061               0.000080657               0.000000000               0.000000000               0.000000000               0.000000000               0.000080968               0.000246679               0.000002017              -0.000000472               0.000082383               0.000081911               0.000000000               0.000000000               0.000000000               0.000000000               0.000075562               0.000247184              -0.000000633              -0.000002562               0.000083248               0.000080686               0.000000000               0.000000000               0.000000000               0.000000000               0.000076102               0.000248959               0.000001626              -0.000002582               0.000083846               0.000081264               0.000000000               0.000000000               0.000000000               0.000000000               0.000077849               0.000250936               0.000002070              -0.000002174               0.000084369               0.000082195               0.000000000               0.000000000               0.000000000               0.000000000               0.000078797               0.000247762               0.000000596              -0.000001421               0.000083060               0.000081639               0.000000000               0.000000000               0.000000000               0.000000000               0.000082095               0.000243338              -0.000000736               0.000000368               0.000080989               0.000081357               0.000000000               0.000000000               0.000000000               0.000000000               0.000085144               0.000238365              -0.000002195               0.000002133               0.000078743               0.000080876               0.000000000               0.000000000               0.000000000               0.000000000               0.000084660               0.000234551              -0.000002592               0.000002429               0.000077373               0.000079802               0.000000000               0.000000000               0.000000000               0.000000000               0.000080135               0.000234636              -0.000002071               0.000000721               0.000077971               0.000078692               0.000000000               0.000000000               0.000000000               0.000000000               0.000069926               0.000240210              -0.000000748              -0.000003804               0.000081337               0.000077533               0.000000000               0.000000000               0.000000000               0.000000000               0.000052536               0.000251943               0.000000900              -0.000011792               0.000087911               0.000076119               0.000000000               0.000000000               0.000000000               0.000000000               0.000028290               0.000270335               0.000001559              -0.000023183               0.000097838               0.000074655               0.000000000               0.000000000               0.000000000               0.000000000               0.000017916               0.000288799              -0.000000208              -0.000029381               0.000106059               0.000076678               0.000000000               0.000000000               0.000000000               0.000000000               0.000057138               0.000297919              -0.000049113              -0.000015813               0.000104576               0.000088763               0.000000000               0.000000000               0.000000000               0.000000000               0.000063550               0.000253085              -0.000026558              -0.000007804               0.000086962               0.000079158               0.000000000               0.000000000               0.000000000               0.000000000               0.000081261               0.000240780              -0.000002679               0.000000376               0.000080134               0.000080509               0.000000000               0.000000000               0.000000000               0.000000000               0.000083556               0.000250213               0.000008121               0.000000057               0.000083384               0.000083441               0.000000000               0.000000000               0.000000000               0.000000000               0.000085460               0.000264203               0.000004592              -0.000000978               0.000088393               0.000087415               0.000000000               0.000000000               0.000000000               0.000000000               0.000088418               0.000270141              -0.000000523              -0.000000611               0.000090250               0.000089639               0.000000000               0.000000000               0.000000000               0.000000000               0.000094108               0.000277080               0.000001598               0.000000655               0.000092141               0.000092796               0.000000000               0.000000000               0.000000000               0.000000000               0.000097989               0.000281089              -0.000000533               0.000001610               0.000093159               0.000094769               0.000000000               0.000000000               0.000000000               0.000000000               0.000098983               0.000284666              -0.000004914               0.000001535               0.000094376               0.000095911               0.000000000               0.000000000               0.000000000               0.000000000               0.000099439               0.000291240              -0.000008677               0.000000884               0.000096784               0.000097669               0.000000000               0.000000000               0.000000000               0.000000000               0.000097595               0.000301979              -0.000012658              -0.000001149               0.000101042               0.000099893               0.000000000               0.000000000               0.000000000               0.000000000               0.000089881               0.000316564              -0.000014854              -0.000005865               0.000107475               0.000101610               0.000000000               0.000000000               0.000000000               0.000000000               0.000077853               0.000335361              -0.000015219              -0.000012725               0.000116028               0.000103302               0.000000000               0.000000000               0.000000000               0.000000000               0.000063317               0.000358672              -0.000013769              -0.000021090               0.000126586               0.000105496               0.000000000               0.000000000               0.000000000               0.000000000               0.000045350               0.000386147              -0.000010568              -0.000031262               0.000139135               0.000107873               0.000000000               0.000000000               0.000000000               0.000000000               0.000023526               0.000418635              -0.000005846              -0.000043507               0.000154046               0.000110539               0.000000000               0.000000000               0.000000000               0.000000000               0.000016840               0.000446444              -0.000006052              -0.000049490               0.000165310               0.000115820               0.000000000               0.000000000               0.000000000               0.000000000               0.000066491               0.000294997              -0.000071583              -0.000011941               0.000102312               0.000090371               0.000000000               0.000000000               0.000000000               0.000000000               0.000068681               0.000259864              -0.000037679              -0.000006727               0.000088863               0.000082135               0.000000000               0.000000000               0.000000000               0.000000000               0.000082988               0.000259865              -0.000001828              -0.000001363               0.000087075               0.000085712               0.000000000               0.000000000               0.000000000               0.000000000               0.000086694               0.000281736               0.000011308              -0.000002707               0.000094813               0.000092106               0.000000000               0.000000000               0.000000000               0.000000000               0.000094431               0.000301432               0.000005422              -0.000002267               0.000101232               0.000098965               0.000000000               0.000000000               0.000000000               0.000000000               0.000105016               0.000319543              -0.000003677              -0.000000562               0.000106701               0.000106139               0.000000000               0.000000000               0.000000000               0.000000000               0.000113906               0.000334986              -0.000005178               0.000000841               0.000111380               0.000112222               0.000000000               0.000000000               0.000000000               0.000000000               0.000122711               0.000349611              -0.000010039               0.000002315               0.000115764               0.000118079               0.000000000               0.000000000               0.000000000               0.000000000               0.000125567               0.000366290              -0.000016851               0.000001301               0.000121662               0.000122963               0.000000000               0.000000000               0.000000000               0.000000000               0.000123567               0.000387235              -0.000022626              -0.000002067               0.000129766               0.000127699               0.000000000               0.000000000               0.000000000               0.000000000               0.000118531               0.000415361              -0.000027208              -0.000007471               0.000140942               0.000133472               0.000000000               0.000000000               0.000000000               0.000000000               0.000105316               0.000448460              -0.000029534              -0.000016564               0.000155006               0.000138442               0.000000000               0.000000000               0.000000000               0.000000000               0.000086321               0.000485323              -0.000029479              -0.000028295               0.000171204               0.000142910               0.000000000               0.000000000               0.000000000               0.000000000               0.000066059               0.000525077              -0.000026836              -0.000040862               0.000188645               0.000147782               0.000000000               0.000000000               0.000000000               0.000000000               0.000044330               0.000565896              -0.000021209              -0.000054113               0.000206668               0.000152555               0.000000000               0.000000000               0.000000000               0.000000000               0.000021709               0.000606599              -0.000012098              -0.000067684               0.000224759               0.000157075               0.000000000               0.000000000               0.000000000               0.000000000               0.000015929               0.000636265              -0.000009836              -0.000073560               0.000236606               0.000163046               0.000000000               0.000000000               0.000000000               0.000000000               0.000080677               0.000296312              -0.000087016              -0.000006785               0.000101031               0.000094246               0.000000000               0.000000000               0.000000000               0.000000000               0.000075152               0.000276011              -0.000046805              -0.000006320               0.000094109               0.000087790               0.000000000               0.000000000               0.000000000               0.000000000               0.000084977               0.000296786              -0.000005167              -0.000005232               0.000100672               0.000095440               0.000000000               0.000000000               0.000000000               0.000000000               0.000092224               0.000332840               0.000008856              -0.000007021               0.000113286               0.000106265               0.000000000               0.000000000               0.000000000               0.000000000               0.000110241               0.000367964               0.000003137              -0.000004655               0.000124205               0.000119550               0.000000000               0.000000000               0.000000000               0.000000000               0.000130438               0.000401300              -0.000008293              -0.000001248               0.000134181               0.000132933               0.000000000               0.000000000               0.000000000               0.000000000               0.000142419               0.000428148              -0.000012577              -0.000000111               0.000142752               0.000142640               0.000000000               0.000000000               0.000000000               0.000000000               0.000149883               0.000456360              -0.000019189              -0.000000839               0.000152398               0.000151559               0.000000000               0.000000000               0.000000000               0.000000000               0.000148224               0.000485563              -0.000028472              -0.000005111               0.000163557               0.000158445               0.000000000               0.000000000               0.000000000               0.000000000               0.000142492               0.000520455              -0.000035012              -0.000011622               0.000177357               0.000165735               0.000000000               0.000000000               0.000000000               0.000000000               0.000133759               0.000562050              -0.000038949              -0.000020096               0.000194047               0.000173950               0.000000000               0.000000000               0.000000000               0.000000000               0.000116962               0.000606282              -0.000039928              -0.000031924               0.000212733               0.000180809               0.000000000               0.000000000               0.000000000               0.000000000               0.000095070               0.000651847              -0.000037857              -0.000045830               0.000232557               0.000186727               0.000000000               0.000000000               0.000000000               0.000000000               0.000072262               0.000697736              -0.000032786              -0.000060118               0.000252616               0.000192497               0.000000000               0.000000000               0.000000000               0.000000000               0.000048165               0.000741681              -0.000024600              -0.000074648               0.000272107               0.000197459               0.000000000               0.000000000               0.000000000               0.000000000               0.000023475               0.000781826              -0.000013419              -0.000088925               0.000290248               0.000201323               0.000000000               0.000000000               0.000000000               0.000000000               0.000016513               0.000809067              -0.000010083              -0.000094941               0.000301333               0.000206392               0.000000000               0.000000000               0.000000000               0.000000000               0.000096812               0.000299351              -0.000102018              -0.000001115               0.000100154               0.000099039               0.000000000               0.000000000               0.000000000               0.000000000               0.000082460               0.000295536              -0.000058086              -0.000006019               0.000100517               0.000094498               0.000000000               0.000000000               0.000000000               0.000000000               0.000089607               0.000347097              -0.000011869              -0.000009785               0.000118959               0.000109175               0.000000000               0.000000000               0.000000000               0.000000000               0.000105693               0.000403518               0.000005421              -0.000010805               0.000138106               0.000127302               0.000000000               0.000000000               0.000000000               0.000000000               0.000133982               0.000453354              -0.000000856              -0.000006426               0.000153258               0.000146833               0.000000000               0.000000000               0.000000000               0.000000000               0.000158421               0.000491222              -0.000014967              -0.000001995               0.000164404               0.000162409               0.000000000               0.000000000               0.000000000               0.000000000               0.000171323               0.000528557              -0.000022349              -0.000001824               0.000176792               0.000174968               0.000000000               0.000000000               0.000000000               0.000000000               0.000174239               0.000567095              -0.000030399              -0.000005547               0.000190879               0.000185332               0.000000000               0.000000000               0.000000000               0.000000000               0.000166489               0.000607373              -0.000040211              -0.000013488               0.000206952               0.000193463               0.000000000               0.000000000               0.000000000               0.000000000               0.000155010               0.000653576              -0.000045043              -0.000023568               0.000225713               0.000202144               0.000000000               0.000000000               0.000000000               0.000000000               0.000140662               0.000704405              -0.000046291              -0.000035302               0.000246567               0.000211264               0.000000000               0.000000000               0.000000000               0.000000000               0.000119524               0.000755121              -0.000044730              -0.000049569               0.000268227               0.000218659               0.000000000               0.000000000               0.000000000               0.000000000               0.000095096               0.000804240              -0.000040091              -0.000064869               0.000289700               0.000224832               0.000000000               0.000000000               0.000000000               0.000000000               0.000071525               0.000851576              -0.000032824              -0.000079625               0.000310398               0.000230773               0.000000000               0.000000000               0.000000000               0.000000000               0.000047267               0.000895222              -0.000023388              -0.000094177               0.000329797               0.000235619               0.000000000               0.000000000               0.000000000               0.000000000               0.000022792               0.000934819              -0.000012249              -0.000108305               0.000347705               0.000239400               0.000000000               0.000000000               0.000000000               0.000000000               0.000016312               0.000962069              -0.000009371              -0.000114141               0.000358733               0.000244592               0.000000000               0.000000000               0.000000000               0.000000000               0.000111126               0.000300988              -0.000116140               0.000004048               0.000098979               0.000103027               0.000000000               0.000000000               0.000000000               0.000000000               0.000091653               0.000318871              -0.000067882              -0.000005489               0.000108119               0.000102630               0.000000000               0.000000000               0.000000000               0.000000000               0.000099201               0.000401531              -0.000018891              -0.000012991               0.000138173               0.000125182               0.000000000               0.000000000               0.000000000               0.000000000               0.000123274               0.000474915              -0.000002900              -0.000013137               0.000162682               0.000149546               0.000000000               0.000000000               0.000000000               0.000000000               0.000157724               0.000528187              -0.000010015              -0.000006877               0.000178353               0.000171476               0.000000000               0.000000000               0.000000000               0.000000000               0.000184602               0.000569215              -0.000022924              -0.000001926               0.000190379               0.000188453               0.000000000               0.000000000               0.000000000               0.000000000               0.000194110               0.000615441              -0.000029168              -0.000004139               0.000206524               0.000202386               0.000000000               0.000000000               0.000000000               0.000000000               0.000190136               0.000662733              -0.000037213              -0.000011541               0.000224756               0.000213215               0.000000000               0.000000000               0.000000000               0.000000000               0.000177030               0.000713315              -0.000045725              -0.000022778               0.000245362               0.000222584               0.000000000               0.000000000               0.000000000               0.000000000               0.000162074               0.000771080              -0.000048227              -0.000035607               0.000268893               0.000233286               0.000000000               0.000000000               0.000000000               0.000000000               0.000143100               0.000830730              -0.000046831              -0.000050179               0.000293634               0.000243455               0.000000000               0.000000000               0.000000000               0.000000000               0.000118020               0.000888745              -0.000043549              -0.000066835               0.000318524               0.000251688               0.000000000               0.000000000               0.000000000               0.000000000               0.000092618               0.000945077              -0.000037513              -0.000083403               0.000342823               0.000259421               0.000000000               0.000000000               0.000000000               0.000000000               0.000068912               0.000999259              -0.000029572              -0.000099065               0.000366105               0.000267040               0.000000000               0.000000000               0.000000000               0.000000000               0.000044647               0.001049838              -0.000020652              -0.000114487               0.000388105               0.000273618               0.000000000               0.000000000               0.000000000               0.000000000               0.000021631               0.001095817              -0.000010777              -0.000128865               0.000408224               0.000279359               0.000000000               0.000000000               0.000000000               0.000000000               0.000016278               0.001126527              -0.000008910              -0.000134711               0.000420409               0.000285698               0.000000000               0.000000000               0.000000000               0.000000000               0.000121751               0.000294489              -0.000122466               0.000008845               0.000095214               0.000104059               0.000000000               0.000000000               0.000000000               0.000000000               0.000099737               0.000341018              -0.000076957              -0.000005226               0.000115413               0.000110187               0.000000000               0.000000000               0.000000000               0.000000000               0.000107906               0.000451242              -0.000029172              -0.000015941               0.000155726               0.000139785               0.000000000               0.000000000               0.000000000               0.000000000               0.000138817               0.000533243              -0.000012015              -0.000014599               0.000182612               0.000168013               0.000000000               0.000000000               0.000000000               0.000000000               0.000177052               0.000587280              -0.000014552              -0.000007015               0.000198096               0.000191081               0.000000000               0.000000000               0.000000000               0.000000000               0.000204498               0.000638917              -0.000024362              -0.000003178               0.000214029               0.000210852               0.000000000               0.000000000               0.000000000               0.000000000               0.000207303               0.000695069              -0.000030262              -0.000009145               0.000234736               0.000225591               0.000000000               0.000000000               0.000000000               0.000000000               0.000196876               0.000753547              -0.000039422              -0.000020365               0.000257968               0.000237603               0.000000000               0.000000000               0.000000000               0.000000000               0.000182431               0.000817459              -0.000045725              -0.000033771               0.000283740               0.000249970               0.000000000               0.000000000               0.000000000               0.000000000               0.000166530               0.000888830              -0.000045912              -0.000048655               0.000312492               0.000263837               0.000000000               0.000000000               0.000000000               0.000000000               0.000145098               0.000959569              -0.000043993              -0.000065534               0.000341698               0.000276164               0.000000000               0.000000000               0.000000000               0.000000000               0.000120525               0.001027789              -0.000039179              -0.000083277               0.000370352               0.000287075               0.000000000               0.000000000               0.000000000               0.000000000               0.000096114               0.001094883              -0.000031959              -0.000100817               0.000398563               0.000297746               0.000000000               0.000000000               0.000000000               0.000000000               0.000071702               0.001158836              -0.000023699              -0.000117966               0.000425597               0.000307631               0.000000000               0.000000000               0.000000000               0.000000000               0.000046766               0.001217916              -0.000015222              -0.000134702               0.000450869               0.000316167               0.000000000               0.000000000               0.000000000               0.000000000               0.000023210               0.001271127              -0.000007600              -0.000150187               0.000473767               0.000323580               0.000000000               0.000000000               0.000000000               0.000000000               0.000016010               0.001304676              -0.000006838              -0.000157080               0.000487248               0.000330167               0.000000000               0.000000000               0.000000000               0.000000000               0.000134644               0.000278709              -0.000122232               0.000015653               0.000087684               0.000103337               0.000000000               0.000000000               0.000000000               0.000000000               0.000111649               0.000352819              -0.000084073              -0.000002234               0.000118350               0.000116116               0.000000000               0.000000000               0.000000000               0.000000000               0.000112558               0.000485804              -0.000038589              -0.000018516               0.000168105               0.000149589               0.000000000               0.000000000               0.000000000               0.000000000               0.000142096               0.000572199              -0.000017880              -0.000018239               0.000196811               0.000178572               0.000000000               0.000000000               0.000000000               0.000000000               0.000184283               0.000631817              -0.000013486              -0.000009871               0.000213894               0.000204023               0.000000000               0.000000000               0.000000000               0.000000000               0.000214403               0.000694401              -0.000019420              -0.000006399               0.000233598               0.000227199               0.000000000               0.000000000               0.000000000               0.000000000               0.000215922               0.000761954              -0.000028088              -0.000014274               0.000258740               0.000244467               0.000000000               0.000000000               0.000000000               0.000000000               0.000206932               0.000830921              -0.000038165              -0.000026266               0.000285726               0.000259460               0.000000000               0.000000000               0.000000000               0.000000000               0.000195915               0.000906731              -0.000043060              -0.000039873               0.000315532               0.000275658               0.000000000               0.000000000               0.000000000               0.000000000               0.000180363               0.000987052              -0.000042297              -0.000055745               0.000347596               0.000291850               0.000000000               0.000000000               0.000000000               0.000000000               0.000159976               0.001065265              -0.000040366              -0.000073167               0.000379474               0.000306307               0.000000000               0.000000000               0.000000000               0.000000000               0.000138040               0.001141318              -0.000034338              -0.000090899               0.000410735               0.000319836               0.000000000               0.000000000               0.000000000               0.000000000               0.000115782               0.001216175              -0.000025861              -0.000108603               0.000441589               0.000332985               0.000000000               0.000000000               0.000000000               0.000000000               0.000091692               0.001286836              -0.000017166              -0.000126470               0.000471098               0.000344628               0.000000000               0.000000000               0.000000000               0.000000000               0.000068332               0.001353570              -0.000008837              -0.000143571               0.000499042               0.000355471               0.000000000               0.000000000               0.000000000               0.000000000               0.000047753               0.001415117              -0.000002008              -0.000158982               0.000524695               0.000365713               0.000000000               0.000000000               0.000000000               0.000000000               0.000037639               0.001448957              -0.000000049              -0.000167004               0.000538649               0.000371645               0.000000000               0.000000000               0.000000000               0.000000000               0.000141186               0.000255975              -0.000118102               0.000020948               0.000078342               0.000099289               0.000000000               0.000000000               0.000000000               0.000000000               0.000117751               0.000341371              -0.000088903               0.000001485               0.000113294               0.000114779               0.000000000               0.000000000               0.000000000               0.000000000               0.000114476               0.000484059              -0.000050403              -0.000017579               0.000167211               0.000149632               0.000000000               0.000000000               0.000000000               0.000000000               0.000140407               0.000582827              -0.000028172              -0.000020201               0.000201007               0.000180807               0.000000000               0.000000000               0.000000000               0.000000000               0.000184101               0.000660426              -0.000017685              -0.000013515               0.000224645               0.000211130               0.000000000               0.000000000               0.000000000               0.000000000               0.000223841               0.000732307              -0.000016977              -0.000007598               0.000246632               0.000239035               0.000000000               0.000000000               0.000000000               0.000000000               0.000236573               0.000802786              -0.000025607              -0.000011634               0.000271471               0.000259837               0.000000000               0.000000000               0.000000000               0.000000000               0.000232598               0.000872742              -0.000036330              -0.000021868               0.000298200               0.000276332               0.000000000               0.000000000               0.000000000               0.000000000               0.000224572               0.000944245              -0.000042053              -0.000033816               0.000326017               0.000292201               0.000000000               0.000000000               0.000000000               0.000000000               0.000213545               0.001021195              -0.000043337              -0.000047570               0.000356252               0.000308682               0.000000000               0.000000000               0.000000000               0.000000000               0.000198063               0.001099636              -0.000041397              -0.000063181               0.000387602               0.000324421               0.000000000               0.000000000               0.000000000               0.000000000               0.000178546               0.001175074              -0.000036473              -0.000079929               0.000418330               0.000338401               0.000000000               0.000000000               0.000000000               0.000000000               0.000158577               0.001250201              -0.000028747              -0.000096808               0.000448999               0.000352191               0.000000000               0.000000000               0.000000000               0.000000000               0.000138383               0.001326288              -0.000019239              -0.000113892               0.000480056               0.000366164               0.000000000               0.000000000               0.000000000               0.000000000               0.000117717               0.001400089              -0.000010397              -0.000130867               0.000510314               0.000379447               0.000000000               0.000000000               0.000000000               0.000000000               0.000100028               0.001474467              -0.000003085              -0.000146797               0.000540417               0.000393619               0.000000000               0.000000000               0.000000000               0.000000000               0.000086642               0.001510477               0.000002396              -0.000156319               0.000555594               0.000399275               0.000000000               0.000000000               0.000000000               0.000000000               0.000137286               0.000224832              -0.000106821               0.000023378               0.000067150               0.000090528               0.000000000               0.000000000               0.000000000               0.000000000               0.000118941               0.000312806              -0.000090103               0.000005502               0.000102434               0.000107935               0.000000000               0.000000000               0.000000000               0.000000000               0.000119669               0.000462562              -0.000063784              -0.000012944               0.000158501               0.000145556               0.000000000               0.000000000               0.000000000               0.000000000               0.000143548               0.000579204              -0.000041564              -0.000018570               0.000199256               0.000180686               0.000000000               0.000000000               0.000000000               0.000000000               0.000184241               0.000675097              -0.000025712              -0.000015297               0.000230129               0.000214832               0.000000000               0.000000000               0.000000000               0.000000000               0.000228454               0.000754809              -0.000017292              -0.000008681               0.000254494               0.000245813               0.000000000               0.000000000               0.000000000               0.000000000               0.000253862               0.000825778              -0.000019437              -0.000008024               0.000277931               0.000269907               0.000000000               0.000000000               0.000000000               0.000000000               0.000256821               0.000894459              -0.000027690              -0.000015500               0.000303317               0.000287817               0.000000000               0.000000000               0.000000000               0.000000000               0.000252344               0.000959858              -0.000034553              -0.000025353               0.000328400               0.000303047               0.000000000               0.000000000               0.000000000               0.000000000               0.000246349               0.001030193              -0.000038552              -0.000036393               0.000355526               0.000319132               0.000000000               0.000000000               0.000000000               0.000000000               0.000238424               0.001106525              -0.000038233              -0.000048906               0.000385140               0.000336234               0.000000000               0.000000000               0.000000000               0.000000000               0.000227525               0.001182730              -0.000035632              -0.000062519               0.000415079               0.000352560               0.000000000               0.000000000               0.000000000               0.000000000               0.000213098               0.001255076              -0.000031249              -0.000076973               0.000444012               0.000367040               0.000000000               0.000000000               0.000000000               0.000000000               0.000199095               0.001329807              -0.000023882              -0.000091565               0.000473786               0.000382221               0.000000000               0.000000000               0.000000000               0.000000000               0.000183924               0.001404666              -0.000014789              -0.000106611               0.000503755               0.000397143               0.000000000               0.000000000               0.000000000               0.000000000               0.000167308               0.001477867              -0.000006779              -0.000121993               0.000533282               0.000411289               0.000000000               0.000000000               0.000000000               0.000000000               0.000149902               0.001507182               0.000000902              -0.000132184               0.000546450               0.000414266               0.000000000               0.000000000               0.000000000               0.000000000               0.000127076               0.000181503              -0.000090056               0.000024965               0.000052178               0.000077144               0.000000000               0.000000000               0.000000000               0.000000000               0.000122566               0.000275463              -0.000086740               0.000011529               0.000087977               0.000099506               0.000000000               0.000000000               0.000000000               0.000000000               0.000130390               0.000436741              -0.000073596              -0.000005697               0.000147478               0.000141781               0.000000000               0.000000000               0.000000000               0.000000000               0.000152352               0.000569502              -0.000054358              -0.000014056               0.000194517               0.000180462               0.000000000               0.000000000               0.000000000               0.000000000               0.000186169               0.000679002              -0.000035633              -0.000015062               0.000231352               0.000216291               0.000000000               0.000000000               0.000000000               0.000000000               0.000226547               0.000765848              -0.000020174              -0.000010776               0.000258872               0.000248096               0.000000000               0.000000000               0.000000000               0.000000000               0.000259345               0.000841150              -0.000013685              -0.000007889               0.000283010               0.000275121               0.000000000               0.000000000               0.000000000               0.000000000               0.000273417               0.000911726              -0.000016896              -0.000011434               0.000307717               0.000296283               0.000000000               0.000000000               0.000000000               0.000000000               0.000276552               0.000976967              -0.000024145              -0.000018414               0.000331790               0.000313377               0.000000000               0.000000000               0.000000000               0.000000000               0.000276076               0.001041803              -0.000029865              -0.000026697               0.000356163               0.000329466               0.000000000               0.000000000               0.000000000               0.000000000               0.000274378               0.001112546              -0.000032472              -0.000036176               0.000382904               0.000346727               0.000000000               0.000000000               0.000000000               0.000000000               0.000272890               0.001189243              -0.000031831              -0.000046321               0.000411851               0.000365529               0.000000000               0.000000000               0.000000000               0.000000000               0.000267587               0.001263204              -0.000029648              -0.000057555               0.000440249               0.000382694               0.000000000               0.000000000               0.000000000               0.000000000               0.000259129               0.001333530              -0.000025814              -0.000069518               0.000467678               0.000398160               0.000000000               0.000000000               0.000000000               0.000000000               0.000250786               0.001407147              -0.000018640              -0.000081848               0.000496327               0.000414479               0.000000000               0.000000000               0.000000000               0.000000000               0.000239877               0.001481197              -0.000009955              -0.000095195               0.000525459               0.000430264               0.000000000               0.000000000               0.000000000               0.000000000               0.000223983               0.001509883              -0.000002274              -0.000104741               0.000538203               0.000433462               0.000000000               0.000000000               0.000000000               0.000000000               0.000110376               0.000142340              -0.000071505               0.000023598               0.000039580               0.000063178               0.000000000               0.000000000               0.000000000               0.000000000               0.000124472               0.000241785              -0.000079077               0.000016454               0.000075110               0.000091563               0.000000000               0.000000000               0.000000000               0.000000000               0.000143760               0.000406736              -0.000076493               0.000003068               0.000134555               0.000137623               0.000000000               0.000000000               0.000000000               0.000000000               0.000165586               0.000546556              -0.000060857              -0.000006225               0.000184258               0.000178034               0.000000000               0.000000000               0.000000000               0.000000000               0.000191591               0.000664496              -0.000042392              -0.000011215               0.000225235               0.000214020               0.000000000               0.000000000               0.000000000               0.000000000               0.000225118               0.000762399              -0.000023942              -0.000010881               0.000257757               0.000246877               0.000000000               0.000000000               0.000000000               0.000000000               0.000260731               0.000848442              -0.000011683              -0.000008281               0.000285571               0.000277290               0.000000000               0.000000000               0.000000000               0.000000000               0.000286097               0.000926534              -0.000009235              -0.000008530               0.000311685               0.000303155               0.000000000               0.000000000               0.000000000               0.000000000               0.000299124               0.000996113              -0.000014236              -0.000012342               0.000336148               0.000323806               0.000000000               0.000000000               0.000000000               0.000000000               0.000305175               0.001058308              -0.000019603              -0.000017848               0.000358715               0.000340867               0.000000000               0.000000000               0.000000000               0.000000000               0.000308417               0.001122655              -0.000023593              -0.000024676               0.000382440               0.000357764               0.000000000               0.000000000               0.000000000               0.000000000               0.000312034               0.001193820              -0.000024839              -0.000032215               0.000408674               0.000376460               0.000000000               0.000000000               0.000000000               0.000000000               0.000315666               0.001268857              -0.000023314              -0.000040232               0.000436359               0.000396126               0.000000000               0.000000000               0.000000000               0.000000000               0.000315519               0.001339458              -0.000021119              -0.000049113               0.000462853               0.000413740               0.000000000               0.000000000               0.000000000               0.000000000               0.000314149               0.001409327              -0.000017294              -0.000058360               0.000489224               0.000430864               0.000000000               0.000000000               0.000000000               0.000000000               0.000312923               0.001482291              -0.000009721              -0.000067940               0.000516739               0.000448799               0.000000000               0.000000000               0.000000000               0.000000000               0.000305804               0.001514588              -0.000003157              -0.000074647               0.000529740               0.000455093               0.000000000               0.000000000               0.000000000               0.000000000               0.000091030               0.000112512              -0.000051892               0.000020072               0.000030813               0.000050885               0.000000000               0.000000000               0.000000000               0.000000000               0.000124673               0.000210149              -0.000065808               0.000020483               0.000063221               0.000083705               0.000000000               0.000000000               0.000000000               0.000000000               0.000157326               0.000370465              -0.000070263               0.000012689               0.000119258               0.000131947               0.000000000               0.000000000               0.000000000               0.000000000               0.000180651               0.000514856              -0.000058838               0.000003387               0.000170488               0.000173875               0.000000000               0.000000000               0.000000000               0.000000000               0.000203411               0.000641790              -0.000043200              -0.000003945               0.000215243               0.000211298               0.000000000               0.000000000               0.000000000               0.000000000               0.000232012               0.000753198              -0.000026782              -0.000007145               0.000253445               0.000246300               0.000000000               0.000000000               0.000000000               0.000000000               0.000265284               0.000850352              -0.000012746              -0.000006812               0.000285719               0.000278906               0.000000000               0.000000000               0.000000000               0.000000000               0.000294958               0.000935136              -0.000005879              -0.000006283               0.000313803               0.000307520               0.000000000               0.000000000               0.000000000               0.000000000               0.000315902               0.001010229              -0.000006524              -0.000007816               0.000339345               0.000331529               0.000000000               0.000000000               0.000000000               0.000000000               0.000329088               0.001074070              -0.000009608              -0.000010851               0.000361637               0.000350786               0.000000000               0.000000000               0.000000000               0.000000000               0.000338330               0.001134538              -0.000012909              -0.000014943               0.000383157               0.000368213               0.000000000               0.000000000               0.000000000               0.000000000               0.000346632               0.001199955              -0.000015093              -0.000020007               0.000406650               0.000386643               0.000000000               0.000000000               0.000000000               0.000000000               0.000356262               0.001271495              -0.000014802              -0.000025338               0.000432274               0.000406935               0.000000000               0.000000000               0.000000000               0.000000000               0.000366141               0.001345797              -0.000013064              -0.000030922               0.000458902               0.000427980               0.000000000               0.000000000               0.000000000               0.000000000               0.000373518               0.001414960              -0.000011254              -0.000036801               0.000483916               0.000447115               0.000000000               0.000000000               0.000000000               0.000000000               0.000380466               0.001481451              -0.000006891              -0.000042507               0.000507981               0.000465474               0.000000000               0.000000000               0.000000000               0.000000000               0.000381981               0.001514170              -0.000002819              -0.000046028               0.000520061               0.000474033               0.000000000               0.000000000               0.000000000               0.000000000               0.000073307               0.000089770              -0.000032978               0.000016269               0.000024500               0.000040769               0.000000000               0.000000000               0.000000000               0.000000000               0.000123658               0.000182843              -0.000046817               0.000023516               0.000053108               0.000076625               0.000000000               0.000000000               0.000000000               0.000000000               0.000168349               0.000338486              -0.000053642               0.000020820               0.000105887               0.000126707               0.000000000               0.000000000               0.000000000               0.000000000               0.000196045               0.000484454              -0.000047684               0.000012960               0.000157163               0.000170123               0.000000000               0.000000000               0.000000000               0.000000000               0.000218588               0.000617025              -0.000037287               0.000004842               0.000204059               0.000208901               0.000000000               0.000000000               0.000000000               0.000000000               0.000243477               0.000737993              -0.000025089              -0.000000945               0.000246310               0.000245365               0.000000000               0.000000000               0.000000000               0.000000000               0.000271983               0.000844326              -0.000012216              -0.000003547               0.000282621               0.000279074               0.000000000               0.000000000               0.000000000               0.000000000               0.000301865               0.000937396              -0.000003977              -0.000003975               0.000313787               0.000309812               0.000000000               0.000000000               0.000000000               0.000000000               0.000327593               0.001018586              -0.000002249              -0.000004476               0.000341017               0.000336541               0.000000000               0.000000000               0.000000000               0.000000000               0.000347275               0.001087880              -0.000003187              -0.000005757               0.000364542               0.000358785               0.000000000               0.000000000               0.000000000               0.000000000               0.000362259               0.001148161              -0.000005044              -0.000007673               0.000385274               0.000377601               0.000000000               0.000000000               0.000000000               0.000000000               0.000375567               0.001208591              -0.000006649              -0.000010236               0.000406272               0.000396036               0.000000000               0.000000000               0.000000000               0.000000000               0.000389634               0.001274647              -0.000006898              -0.000013218               0.000429284               0.000416066               0.000000000               0.000000000               0.000000000               0.000000000               0.000406311               0.001348522              -0.000005777              -0.000016199               0.000454902               0.000438704               0.000000000               0.000000000               0.000000000               0.000000000               0.000421781               0.001418622              -0.000004375              -0.000019160               0.000479256               0.000460096               0.000000000               0.000000000               0.000000000               0.000000000               0.000435600               0.001481767              -0.000002882              -0.000021871               0.000501208               0.000479337               0.000000000               0.000000000               0.000000000               0.000000000               0.000442215               0.001513482              -0.000001538              -0.000023355               0.000512274               0.000488919               0.000000000               0.000000000               0.000000000               0.000000000               0.000059867               0.000077543              -0.000015744               0.000012757               0.000021595               0.000034352               0.000000000               0.000000000               0.000000000               0.000000000               0.000120749               0.000165667              -0.000024392               0.000024572               0.000047031               0.000071603               0.000000000               0.000000000               0.000000000               0.000000000               0.000175871               0.000316541              -0.000029348               0.000026384               0.000096718               0.000123102               0.000000000               0.000000000               0.000000000               0.000000000               0.000208370               0.000461763              -0.000026882               0.000020418               0.000147113               0.000167532               0.000000000               0.000000000               0.000000000               0.000000000               0.000231661               0.000597905              -0.000021598               0.000012135               0.000195255               0.000207389               0.000000000               0.000000000               0.000000000               0.000000000               0.000253505               0.000723832              -0.000015252               0.000004585               0.000239747               0.000244332               0.000000000               0.000000000               0.000000000               0.000000000               0.000277931               0.000835829              -0.000008188              -0.000000255               0.000278692               0.000278437               0.000000000               0.000000000               0.000000000               0.000000000               0.000306757               0.000936612              -0.000002985              -0.000002043               0.000312882               0.000310839               0.000000000               0.000000000               0.000000000               0.000000000               0.000334258               0.001023040              -0.000001051              -0.000002533               0.000341854               0.000339321               0.000000000               0.000000000               0.000000000               0.000000000               0.000357757               0.001096785              -0.000000688              -0.000002939               0.000366571               0.000363632               0.000000000               0.000000000               0.000000000               0.000000000               0.000377086               0.001158531              -0.000001221              -0.000003409               0.000387310               0.000383900               0.000000000               0.000000000               0.000000000               0.000000000               0.000394294               0.001215362              -0.000001918              -0.000004060               0.000406470               0.000402410               0.000000000               0.000000000               0.000000000               0.000000000               0.000412415               0.001277069              -0.000002008              -0.000004978               0.000427345               0.000422367               0.000000000               0.000000000               0.000000000               0.000000000               0.000433094               0.001347803              -0.000001498              -0.000006065               0.000451285               0.000445220               0.000000000               0.000000000               0.000000000               0.000000000               0.000453615               0.001418647              -0.000000663              -0.000007225               0.000475286               0.000468061               0.000000000               0.000000000               0.000000000               0.000000000               0.000472028               0.001483745              -0.000000420              -0.000008458               0.000497396               0.000488938               0.000000000               0.000000000               0.000000000               0.000000000               0.000480436               0.001515794              -0.000000287              -0.000009311               0.000508363               0.000499053               0.000000000               0.000000000               0.000000000               0.000000000               0.000000000               0.000000000               0.000000000               0.000000000               0.000000000               0.000000000               0.000000000               0.000000000               0.000000000               0.000000000               0.000000000               0.000000000               0.000000000               0.000000000               0.000000000               0.000000000               0.000000000               0.000000000               0.000000000               0.000000000               0.000000000               0.000000000               0.000000000               0.000000000               0.000000000               0.000000000               0.000000000               0.000000000               0.000000000               0.000000000               0.000000000               0.000000000               0.000000000               0.000000000               0.000000000               0.000000000               0.000000000               0.000000000               0.000000000               0.000000000               0.000000000               0.000000000               0.000000000               0.000000000               0.000000000               0.000000000               0.000000000               0.000000000               0.000000000               0.000000000               0.000000000               0.000000000               0.000000000               0.000000000               0.000000000               0.000000000               0.000000000               0.000000000               0.000000000               0.000000000               0.000000000               0.000000000               0.000000000               0.000000000               0.000000000               0.000000000               0.000000000               0.000000000               0.000000000               0.000000000               0.000000000               0.000000000               0.000000000               0.000000000               0.000000000               0.000000000               0.000000000               0.000000000               0.000000000               0.000000000               0.000000000               0.000000000               0.000000000               0.000000000               0.000000000               0.000000000               0.000000000               0.000000000               0.000000000               0.000000000               0.000000000               0.000000000               0.000000000               0.000000000               0.000000000               0.000000000               0.000000000               0.000000000               0.000000000               0.000000000               0.000000000               0.000000000               0.000000000               0.000000000               0.000000000               0.000000000               0.000000000               0.000000000               0.000000000               0.000000000               0.000000000               0.000000000               0.000000000               0.000000000               0.000000000               0.000000000               0.000000000               0.000000000               0.000000000               0.000000000               0.000000000               0.000000000               0.000000000               0.000000000               0.000000000               0.000000000               0.000000000               0.000000000               0.000000000               0.000000000               0.000000000               0.000000000               0.000000000               0.000000000               0.000000000               0.000000000               0.000000000               0.000000000               0.000000000               0.000000000               0.000000000               0.000000000               0.000000000               0.000000000               0.000000000               0.000000000               0.000000000               0.000000000               0.000000000               0.000000000               0.000000000               0.000000000               0.000000000               0.000000000               0.000000000               0.000000000               0.000000000               0.000000000               0.000000000               0.000000000               0.000000000               0.000000000               0.000000000               0.000000000               0.000000000               0.000000000               0.000000000               0.000000000               0.000000000               0.000000000               0.000000000               0.000000000               0.000000000               0.000000000               0.000000000               0.000000000               0.000000000               0.000000000               0.000000000               0.000000000               0.000000000               0.000000000               0.000000000               0.000000000               0.000000000               0.000000000               0.000000000               0.000000000               0.000000000               0.000000000               0.000000000               0.000000000               0.000000000               0.000000000               0.000000000               0.000000000               0.000000000               0.000000000               0.000000000               0.000000000               0.000000000               0.000000000               0.000000000               0.000000000               0.000000000               0.000000000               0.000000000               0.000000000               0.000000000               0.000000000               0.000000000               0.000000000               0.000000000               0.000000000               0.000000000               0.000000000               0.000000000               0.000000000               0.000000000               0.000000000               0.000000000               0.000000000               0.000000000               0.000000000               0.000000000               0.000000000               0.000000000               0.000000000               0.000000000               0.000000000               0.000000000               0.000000000               0.000000000               0.000000000               0.000000000               0.000000000               0.000000000               0.000000000               0.000000000               0.000000000               0.000000000               0.000000000               0.000000000               0.000000000               0.000000000               0.000000000               0.000000000               0.000000000               0.000000000               0.000000000               0.000000000               0.000000000               0.000000000               0.000000000               0.000000000               0.000000000               0.000000000               0.000000000               0.000000000               0.000000000               0.000000000               0.000000000               0.000000000               0.000000000               0.000000000               0.000000000               0.000000000               0.000000000               0.000000000               0.000000000               0.000000000               0.000000000               0.000000000               0.000000000               0.000000000               0.000000000               0.000000000               0.000000000               0.000000000               0.000000000               0.000000000               0.000000000               0.000000000               0.000000000               0.000000000               0.000000000               0.000000000               0.000000000               0.000000000               0.000000000               0.000000000               0.000000000               0.000000000               0.000000000               0.000000000               0.000000000               0.000000000               0.000000000               0.000000000               0.000000000               0.000000000               0.000000000               0.000000000               0.000000000               0.000000000               0.000000000               0.000000000               0.000000000               0.000000000               0.000000000               0.000000000               0.000000000               0.000000000               0.000000000               0.000000000               0.000000000               0.000000000               0.000000000               0.000000000               0.000000000               0.000000000               0.000000000               0.000000000               0.000000000               0.000000000               0.000000000               0.000000000               0.000000000               0.000000000               0.000000000               0.000000000               0.000000000               0.000000000               0.000000000               0.000000000               0.000000000               0.000000000               0.000000000               0.000000000               0.000000000               0.000047445               0.000294917               0.000026079              -0.000019073               0.000104662               0.000085590               0.000000000               0.000000000               0.000000000               0.000000000               0.000058467               0.000250669               0.000014431              -0.000009409               0.000086692               0.000077283               0.000000000               0.000000000               0.000000000               0.000000000               0.000082238               0.000233408               0.000001839               0.000001663               0.000077248               0.000078911               0.000000000               0.000000000               0.000000000               0.000000000               0.000085850               0.000236782              -0.000003812               0.000002596               0.000078061               0.000080657               0.000000000               0.000000000               0.000000000               0.000000000               0.000080968               0.000246679              -0.000002017              -0.000000472               0.000082383               0.000081911               0.000000000               0.000000000               0.000000000               0.000000000               0.000075562               0.000247184               0.000000633              -0.000002562               0.000083248               0.000080686               0.000000000               0.000000000               0.000000000               0.000000000               0.000076102               0.000248959              -0.000001626              -0.000002582               0.000083846               0.000081264               0.000000000               0.000000000               0.000000000               0.000000000               0.000077849               0.000250936              -0.000002070              -0.000002174               0.000084369               0.000082195               0.000000000               0.000000000               0.000000000               0.000000000               0.000078797               0.000247762              -0.000000596              -0.000001421               0.000083060               0.000081639               0.000000000               0.000000000               0.000000000               0.000000000               0.000082095               0.000243338               0.000000736               0.000000368               0.000080989               0.000081357               0.000000000               0.000000000               0.000000000               0.000000000               0.000085144               0.000238365               0.000002195               0.000002133               0.000078743               0.000080876               0.000000000               0.000000000               0.000000000               0.000000000               0.000084660               0.000234551               0.000002592               0.000002429               0.000077373               0.000079802               0.000000000               0.000000000               0.000000000               0.000000000               0.000080135               0.000234636               0.000002071               0.000000721               0.000077971               0.000078692               0.000000000               0.000000000               0.000000000               0.000000000               0.000069926               0.000240210               0.000000748              -0.000003804               0.000081337               0.000077533               0.000000000               0.000000000               0.000000000               0.000000000               0.000052536               0.000251943              -0.000000900              -0.000011792               0.000087911               0.000076119               0.000000000               0.000000000               0.000000000               0.000000000               0.000028290               0.000270335              -0.000001559              -0.000023183               0.000097838               0.000074655               0.000000000               0.000000000               0.000000000               0.000000000               0.000017916               0.000288799               0.000000208              -0.000029381               0.000106059               0.000076678               0.000000000               0.000000000               0.000000000               0.000000000               0.000057138               0.000297919               0.000049113              -0.000015813               0.000104576               0.000088763               0.000000000               0.000000000               0.000000000               0.000000000               0.000063550               0.000253085               0.000026558              -0.000007804               0.000086962               0.000079158               0.000000000               0.000000000               0.000000000               0.000000000               0.000081261               0.000240780               0.000002679               0.000000376               0.000080134               0.000080509               0.000000000               0.000000000               0.000000000               0.000000000               0.000083556               0.000250213              -0.000008121               0.000000057               0.000083384               0.000083441               0.000000000               0.000000000               0.000000000               0.000000000               0.000085460               0.000264203              -0.000004592              -0.000000978               0.000088393               0.000087415               0.000000000               0.000000000               0.000000000               0.000000000               0.000088418               0.000270141               0.000000523              -0.000000611               0.000090250               0.000089639               0.000000000               0.000000000               0.000000000               0.000000000               0.000094108               0.000277080              -0.000001598               0.000000655               0.000092141               0.000092796               0.000000000               0.000000000               0.000000000               0.000000000               0.000097989               0.000281089               0.000000533               0.000001610               0.000093159               0.000094769               0.000000000               0.000000000               0.000000000               0.000000000               0.000098983               0.000284666               0.000004914               0.000001535               0.000094376               0.000095911               0.000000000               0.000000000               0.000000000               0.000000000               0.000099439               0.000291240               0.000008677               0.000000884               0.000096784               0.000097669               0.000000000               0.000000000               0.000000000               0.000000000               0.000097595               0.000301979               0.000012658              -0.000001149               0.000101042               0.000099893               0.000000000               0.000000000               0.000000000               0.000000000               0.000089881               0.000316564               0.000014854              -0.000005865               0.000107475               0.000101610               0.000000000               0.000000000               0.000000000               0.000000000               0.000077853               0.000335361               0.000015219              -0.000012725               0.000116028               0.000103302               0.000000000               0.000000000               0.000000000               0.000000000               0.000063317               0.000358672               0.000013769              -0.000021090               0.000126586               0.000105496               0.000000000               0.000000000               0.000000000               0.000000000               0.000045350               0.000386147               0.000010568              -0.000031262               0.000139135               0.000107873               0.000000000               0.000000000               0.000000000               0.000000000               0.000023526               0.000418635               0.000005846              -0.000043507               0.000154046               0.000110539               0.000000000               0.000000000               0.000000000               0.000000000               0.000016840               0.000446444               0.000006052              -0.000049490               0.000165310               0.000115820               0.000000000               0.000000000               0.000000000               0.000000000               0.000066491               0.000294997               0.000071583              -0.000011941               0.000102312               0.000090371               0.000000000               0.000000000               0.000000000               0.000000000               0.000068681               0.000259864               0.000037679              -0.000006727               0.000088863               0.000082135               0.000000000               0.000000000               0.000000000               0.000000000               0.000082988               0.000259865               0.000001828              -0.000001363               0.000087075               0.000085712               0.000000000               0.000000000               0.000000000               0.000000000               0.000086694               0.000281736              -0.000011308              -0.000002707               0.000094813               0.000092106               0.000000000               0.000000000               0.000000000               0.000000000               0.000094431               0.000301432              -0.000005422              -0.000002267               0.000101232               0.000098965               0.000000000               0.000000000               0.000000000               0.000000000               0.000105016               0.000319543               0.000003677              -0.000000562               0.000106701               0.000106139               0.000000000               0.000000000               0.000000000               0.000000000               0.000113906               0.000334986               0.000005178               0.000000841               0.000111380               0.000112222               0.000000000               0.000000000               0.000000000               0.000000000               0.000122711               0.000349611               0.000010039               0.000002315               0.000115764               0.000118079               0.000000000               0.000000000               0.000000000               0.000000000               0.000125567               0.000366290               0.000016851               0.000001301               0.000121662               0.000122963               0.000000000               0.000000000               0.000000000               0.000000000               0.000123567               0.000387235               0.000022626              -0.000002067               0.000129766               0.000127699               0.000000000               0.000000000               0.000000000               0.000000000               0.000118531               0.000415361               0.000027208              -0.000007471               0.000140942               0.000133472               0.000000000               0.000000000               0.000000000               0.000000000               0.000105316               0.000448460               0.000029534              -0.000016564               0.000155006               0.000138442               0.000000000               0.000000000               0.000000000               0.000000000               0.000086321               0.000485323               0.000029479              -0.000028295               0.000171204               0.000142910               0.000000000               0.000000000               0.000000000               0.000000000               0.000066059               0.000525077               0.000026836              -0.000040862               0.000188645               0.000147782               0.000000000               0.000000000               0.000000000               0.000000000               0.000044330               0.000565896               0.000021209              -0.000054113               0.000206668               0.000152555               0.000000000               0.000000000               0.000000000               0.000000000               0.000021709               0.000606599               0.000012098              -0.000067684               0.000224759               0.000157075               0.000000000               0.000000000               0.000000000               0.000000000               0.000015929               0.000636265               0.000009836              -0.000073560               0.000236606               0.000163046               0.000000000               0.000000000               0.000000000               0.000000000               0.000080677               0.000296312               0.000087016              -0.000006785               0.000101031               0.000094246               0.000000000               0.000000000               0.000000000               0.000000000               0.000075152               0.000276011               0.000046805              -0.000006320               0.000094109               0.000087790               0.000000000               0.000000000               0.000000000               0.000000000               0.000084977               0.000296786               0.000005167              -0.000005232               0.000100672               0.000095440               0.000000000               0.000000000               0.000000000               0.000000000               0.000092224               0.000332840              -0.000008856              -0.000007021               0.000113286               0.000106265               0.000000000               0.000000000               0.000000000               0.000000000               0.000110241               0.000367964              -0.000003137              -0.000004655               0.000124205               0.000119550               0.000000000               0.000000000               0.000000000               0.000000000               0.000130438               0.000401300               0.000008293              -0.000001248               0.000134181               0.000132933               0.000000000               0.000000000               0.000000000               0.000000000               0.000142419               0.000428148               0.000012577              -0.000000111               0.000142752               0.000142640               0.000000000               0.000000000               0.000000000               0.000000000               0.000149883               0.000456360               0.000019189              -0.000000839               0.000152398               0.000151559               0.000000000               0.000000000               0.000000000               0.000000000               0.000148224               0.000485563               0.000028472              -0.000005111               0.000163557               0.000158445               0.000000000               0.000000000               0.000000000               0.000000000               0.000142492               0.000520455               0.000035012              -0.000011622               0.000177357               0.000165735               0.000000000               0.000000000               0.000000000               0.000000000               0.000133759               0.000562050               0.000038949              -0.000020096               0.000194047               0.000173950               0.000000000               0.000000000               0.000000000               0.000000000               0.000116962               0.000606282               0.000039928              -0.000031924               0.000212733               0.000180809               0.000000000               0.000000000               0.000000000               0.000000000               0.000095070               0.000651847               0.000037857              -0.000045830               0.000232557               0.000186727               0.000000000               0.000000000               0.000000000               0.000000000               0.000072262               0.000697736               0.000032786              -0.000060118               0.000252616               0.000192497               0.000000000               0.000000000               0.000000000               0.000000000               0.000048165               0.000741681               0.000024600              -0.000074648               0.000272107               0.000197459               0.000000000               0.000000000               0.000000000               0.000000000               0.000023475               0.000781826               0.000013419              -0.000088925               0.000290248               0.000201323               0.000000000               0.000000000               0.000000000               0.000000000               0.000016513               0.000809067               0.000010083              -0.000094941               0.000301333               0.000206392               0.000000000               0.000000000               0.000000000               0.000000000               0.000096812               0.000299351               0.000102018              -0.000001115               0.000100154               0.000099039               0.000000000               0.000000000               0.000000000               0.000000000               0.000082460               0.000295536               0.000058086              -0.000006019               0.000100517               0.000094498               0.000000000               0.000000000               0.000000000               0.000000000               0.000089607               0.000347097               0.000011869              -0.000009785               0.000118959               0.000109175               0.000000000               0.000000000               0.000000000               0.000000000               0.000105693               0.000403518              -0.000005421              -0.000010805               0.000138106               0.000127302               0.000000000               0.000000000               0.000000000               0.000000000               0.000133982               0.000453354               0.000000856              -0.000006426               0.000153258               0.000146833               0.000000000               0.000000000               0.000000000               0.000000000               0.000158421               0.000491222               0.000014967              -0.000001995               0.000164404               0.000162409               0.000000000               0.000000000               0.000000000               0.000000000               0.000171323               0.000528557               0.000022349              -0.000001824               0.000176792               0.000174968               0.000000000               0.000000000               0.000000000               0.000000000               0.000174239               0.000567095               0.000030399              -0.000005547               0.000190879               0.000185332               0.000000000               0.000000000               0.000000000               0.000000000               0.000166489               0.000607373               0.000040211              -0.000013488               0.000206952               0.000193463               0.000000000               0.000000000               0.000000000               0.000000000               0.000155010               0.000653576               0.000045043              -0.000023568               0.000225713               0.000202144               0.000000000               0.000000000               0.000000000               0.000000000               0.000140662               0.000704405               0.000046291              -0.000035302               0.000246567               0.000211264               0.000000000               0.000000000               0.000000000               0.000000000               0.000119524               0.000755121               0.000044730              -0.000049569               0.000268227               0.000218659               0.000000000               0.000000000               0.000000000               0.000000000               0.000095096               0.000804240               0.000040091              -0.000064869               0.000289700               0.000224832               0.000000000               0.000000000               0.000000000               0.000000000               0.000071525               0.000851576               0.000032824              -0.000079625               0.000310398               0.000230773               0.000000000               0.000000000               0.000000000               0.000000000               0.000047267               0.000895222               0.000023388              -0.000094177               0.000329797               0.000235619               0.000000000               0.000000000               0.000000000               0.000000000               0.000022792               0.000934819               0.000012249              -0.000108305               0.000347705               0.000239400               0.000000000               0.000000000               0.000000000               0.000000000               0.000016312               0.000962069               0.000009371              -0.000114141               0.000358733               0.000244592               0.000000000               0.000000000               0.000000000               0.000000000               0.000111126               0.000300988               0.000116140               0.000004048               0.000098979               0.000103027               0.000000000               0.000000000               0.000000000               0.000000000               0.000091653               0.000318871               0.000067882              -0.000005489               0.000108119               0.000102630               0.000000000               0.000000000               0.000000000               0.000000000               0.000099201               0.000401531               0.000018891              -0.000012991               0.000138173               0.000125182               0.000000000               0.000000000               0.000000000               0.000000000               0.000123274               0.000474915               0.000002900              -0.000013137               0.000162682               0.000149546               0.000000000               0.000000000               0.000000000               0.000000000               0.000157724               0.000528187               0.000010015              -0.000006877               0.000178353               0.000171476               0.000000000               0.000000000               0.000000000               0.000000000               0.000184602               0.000569215               0.000022924              -0.000001926               0.000190379               0.000188453               0.000000000               0.000000000               0.000000000               0.000000000               0.000194110               0.000615441               0.000029168              -0.000004139               0.000206524               0.000202386               0.000000000               0.000000000               0.000000000               0.000000000               0.000190136               0.000662733               0.000037213              -0.000011541               0.000224756               0.000213215               0.000000000               0.000000000               0.000000000               0.000000000               0.000177030               0.000713315               0.000045725              -0.000022778               0.000245362               0.000222584               0.000000000               0.000000000               0.000000000               0.000000000               0.000162074               0.000771080               0.000048227              -0.000035607               0.000268893               0.000233286               0.000000000               0.000000000               0.000000000               0.000000000               0.000143100               0.000830730               0.000046831              -0.000050179               0.000293634               0.000243455               0.000000000               0.000000000               0.000000000               0.000000000               0.000118020               0.000888745               0.000043549              -0.000066835               0.000318524               0.000251688               0.000000000               0.000000000               0.000000000               0.000000000               0.000092618               0.000945077               0.000037513              -0.000083403               0.000342823               0.000259421               0.000000000               0.000000000               0.000000000               0.000000000               0.000068912               0.000999259               0.000029572              -0.000099065               0.000366105               0.000267040               0.000000000               0.000000000               0.000000000               0.000000000               0.000044647               0.001049838               0.000020652              -0.000114487               0.000388105               0.000273618               0.000000000               0.000000000               0.000000000               0.000000000               0.000021631               0.001095817               0.000010777              -0.000128865               0.000408224               0.000279359               0.000000000               0.000000000               0.000000000               0.000000000               0.000016278               0.001126527               0.000008910              -0.000134711               0.000420409               0.000285698               0.000000000               0.000000000               0.000000000               0.000000000               0.000121751               0.000294489               0.000122466               0.000008845               0.000095214               0.000104059               0.000000000               0.000000000               0.000000000               0.000000000               0.000099737               0.000341018               0.000076957              -0.000005226               0.000115413               0.000110187               0.000000000               0.000000000               0.000000000               0.000000000               0.000107906               0.000451242               0.000029172              -0.000015941               0.000155726               0.000139785               0.000000000               0.000000000               0.000000000               0.000000000               0.000138817               0.000533243               0.000012015              -0.000014599               0.000182612               0.000168013               0.000000000               0.000000000               0.000000000               0.000000000               0.000177052               0.000587280               0.000014552              -0.000007015               0.000198096               0.000191081               0.000000000               0.000000000               0.000000000               0.000000000               0.000204498               0.000638917               0.000024362              -0.000003178               0.000214029               0.000210852               0.000000000               0.000000000               0.000000000               0.000000000               0.000207303               0.000695069               0.000030262              -0.000009145               0.000234736               0.000225591               0.000000000               0.000000000               0.000000000               0.000000000               0.000196876               0.000753547               0.000039422              -0.000020365               0.000257968               0.000237603               0.000000000               0.000000000               0.000000000               0.000000000               0.000182431               0.000817459               0.000045725              -0.000033771               0.000283740               0.000249970               0.000000000               0.000000000               0.000000000               0.000000000               0.000166530               0.000888830               0.000045912              -0.000048655               0.000312492               0.000263837               0.000000000               0.000000000               0.000000000               0.000000000               0.000145098               0.000959569               0.000043993              -0.000065534               0.000341698               0.000276164               0.000000000               0.000000000               0.000000000               0.000000000               0.000120525               0.001027789               0.000039179              -0.000083277               0.000370352               0.000287075               0.000000000               0.000000000               0.000000000               0.000000000               0.000096114               0.001094883               0.000031959              -0.000100817               0.000398563               0.000297746               0.000000000               0.000000000               0.000000000               0.000000000               0.000071702               0.001158836               0.000023699              -0.000117966               0.000425597               0.000307631               0.000000000               0.000000000               0.000000000               0.000000000               0.000046766               0.001217916               0.000015222              -0.000134702               0.000450869               0.000316167               0.000000000               0.000000000               0.000000000               0.000000000               0.000023210               0.001271127               0.000007600              -0.000150187               0.000473767               0.000323580               0.000000000               0.000000000               0.000000000               0.000000000               0.000016010               0.001304676               0.000006838              -0.000157080               0.000487248               0.000330167               0.000000000               0.000000000               0.000000000               0.000000000               0.000134644               0.000278709               0.000122232               0.000015653               0.000087684               0.000103337               0.000000000               0.000000000               0.000000000               0.000000000               0.000111649               0.000352819               0.000084073              -0.000002234               0.000118350               0.000116116               0.000000000               0.000000000               0.000000000               0.000000000               0.000112558               0.000485804               0.000038589              -0.000018516               0.000168105               0.000149589               0.000000000               0.000000000               0.000000000               0.000000000               0.000142096               0.000572199               0.000017880              -0.000018239               0.000196811               0.000178572               0.000000000               0.000000000               0.000000000               0.000000000               0.000184283               0.000631817               0.000013486              -0.000009871               0.000213894               0.000204023               0.000000000               0.000000000               0.000000000               0.000000000               0.000214403               0.000694401               0.000019420              -0.000006399               0.000233598               0.000227199               0.000000000               0.000000000               0.000000000               0.000000000               0.000215922               0.000761954               0.000028088              -0.000014274               0.000258740               0.000244467               0.000000000               0.000000000               0.000000000               0.000000000               0.000206932               0.000830921               0.000038165              -0.000026266               0.000285726               0.000259460               0.000000000               0.000000000               0.000000000               0.000000000               0.000195915               0.000906731               0.000043060              -0.000039873               0.000315532               0.000275658               0.000000000               0.000000000               0.000000000               0.000000000               0.000180363               0.000987052               0.000042297              -0.000055745               0.000347596               0.000291850               0.000000000               0.000000000               0.000000000               0.000000000               0.000159976               0.001065265               0.000040366              -0.000073167               0.000379474               0.000306307               0.000000000               0.000000000               0.000000000               0.000000000               0.000138040               0.001141318               0.000034338              -0.000090899               0.000410735               0.000319836               0.000000000               0.000000000               0.000000000               0.000000000               0.000115782               0.001216175               0.000025861              -0.000108603               0.000441589               0.000332985               0.000000000               0.000000000               0.000000000               0.000000000               0.000091692               0.001286836               0.000017166              -0.000126470               0.000471098               0.000344628               0.000000000               0.000000000               0.000000000               0.000000000               0.000068332               0.001353570               0.000008837              -0.000143571               0.000499042               0.000355471               0.000000000               0.000000000               0.000000000               0.000000000               0.000047753               0.001415117               0.000002008              -0.000158982               0.000524695               0.000365713               0.000000000               0.000000000               0.000000000               0.000000000               0.000037639               0.001448957               0.000000049              -0.000167004               0.000538649               0.000371645               0.000000000               0.000000000               0.000000000               0.000000000               0.000141186               0.000255975               0.000118102               0.000020948               0.000078342               0.000099289               0.000000000               0.000000000               0.000000000               0.000000000               0.000117751               0.000341371               0.000088903               0.000001485               0.000113294               0.000114779               0.000000000               0.000000000               0.000000000               0.000000000               0.000114476               0.000484059               0.000050403              -0.000017579               0.000167211               0.000149632               0.000000000               0.000000000               0.000000000               0.000000000               0.000140407               0.000582827               0.000028172              -0.000020201               0.000201007               0.000180807               0.000000000               0.000000000               0.000000000               0.000000000               0.000184101               0.000660426               0.000017685              -0.000013515               0.000224645               0.000211130               0.000000000               0.000000000               0.000000000               0.000000000               0.000223841               0.000732307               0.000016977              -0.000007598               0.000246632               0.000239035               0.000000000               0.000000000               0.000000000               0.000000000               0.000236573               0.000802786               0.000025607              -0.000011634               0.000271471               0.000259837               0.000000000               0.000000000               0.000000000               0.000000000               0.000232598               0.000872742               0.000036330              -0.000021868               0.000298200               0.000276332               0.000000000               0.000000000               0.000000000               0.000000000               0.000224572               0.000944245               0.000042053              -0.000033816               0.000326017               0.000292201               0.000000000               0.000000000               0.000000000               0.000000000               0.000213545               0.001021195               0.000043337              -0.000047570               0.000356252               0.000308682               0.000000000               0.000000000               0.000000000               0.000000000               0.000198063               0.001099636               0.000041397              -0.000063181               0.000387602               0.000324421               0.000000000               0.000000000               0.000000000               0.000000000               0.000178546               0.001175074               0.000036473              -0.000079929               0.000418330               0.000338401               0.000000000               0.000000000               0.000000000               0.000000000               0.000158577               0.001250201               0.000028747              -0.000096808               0.000448999               0.000352191               0.000000000               0.000000000               0.000000000               0.000000000               0.000138383               0.001326288               0.000019239              -0.000113892               0.000480056               0.000366164               0.000000000               0.000000000               0.000000000               0.000000000               0.000117717               0.001400089               0.000010397              -0.000130867               0.000510314               0.000379447               0.000000000               0.000000000               0.000000000               0.000000000               0.000100028               0.001474467               0.000003085              -0.000146797               0.000540417               0.000393619               0.000000000               0.000000000               0.000000000               0.000000000               0.000086642               0.001510477              -0.000002396              -0.000156319               0.000555594               0.000399275               0.000000000               0.000000000               0.000000000               0.000000000               0.000137286               0.000224832               0.000106821               0.000023378               0.000067150               0.000090528               0.000000000               0.000000000               0.000000000               0.000000000               0.000118941               0.000312806               0.000090103               0.000005502               0.000102434               0.000107935               0.000000000               0.000000000               0.000000000               0.000000000               0.000119669               0.000462562               0.000063784              -0.000012944               0.000158501               0.000145556               0.000000000               0.000000000               0.000000000               0.000000000               0.000143548               0.000579204               0.000041564              -0.000018570               0.000199256               0.000180686               0.000000000               0.000000000               0.000000000               0.000000000               0.000184241               0.000675097               0.000025712              -0.000015297               0.000230129               0.000214832               0.000000000               0.000000000               0.000000000               0.000000000               0.000228454               0.000754809               0.000017292              -0.000008681               0.000254494               0.000245813               0.000000000               0.000000000               0.000000000               0.000000000               0.000253862               0.000825778               0.000019437              -0.000008024               0.000277931               0.000269907               0.000000000               0.000000000               0.000000000               0.000000000               0.000256821               0.000894459               0.000027690              -0.000015500               0.000303317               0.000287817               0.000000000               0.000000000               0.000000000               0.000000000               0.000252344               0.000959858               0.000034553              -0.000025353               0.000328400               0.000303047               0.000000000               0.000000000               0.000000000               0.000000000               0.000246349               0.001030193               0.000038552              -0.000036393               0.000355526               0.000319132               0.000000000               0.000000000               0.000000000               0.000000000               0.000238424               0.001106525               0.000038233              -0.000048906               0.000385140               0.000336234               0.000000000               0.000000000               0.000000000               0.000000000               0.000227525               0.001182730               0.000035632              -0.000062519               0.000415079               0.000352560               0.000000000               0.000000000               0.000000000               0.000000000               0.000213098               0.001255076               0.000031249              -0.000076973               0.000444012               0.000367040               0.000000000               0.000000000               0.000000000               0.000000000               0.000199095               0.001329807               0.000023882              -0.000091565               0.000473786               0.000382221               0.000000000               0.000000000               0.000000000               0.000000000               0.000183924               0.001404666               0.000014789              -0.000106611               0.000503755               0.000397143               0.000000000               0.000000000               0.000000000               0.000000000               0.000167308               0.001477867               0.000006779              -0.000121993               0.000533282               0.000411289               0.000000000               0.000000000               0.000000000               0.000000000               0.000149902               0.001507182              -0.000000902              -0.000132184               0.000546450               0.000414266               0.000000000               0.000000000               0.000000000               0.000000000               0.000127076               0.000181503               0.000090056               0.000024965               0.000052178               0.000077144               0.000000000               0.000000000               0.000000000               0.000000000               0.000122566               0.000275463               0.000086740               0.000011529               0.000087977               0.000099506               0.000000000               0.000000000               0.000000000               0.000000000               0.000130390               0.000436741               0.000073596              -0.000005697               0.000147478               0.000141781               0.000000000               0.000000000               0.000000000               0.000000000               0.000152352               0.000569502               0.000054358              -0.000014056               0.000194517               0.000180462               0.000000000               0.000000000               0.000000000               0.000000000               0.000186169               0.000679002               0.000035633              -0.000015062               0.000231352               0.000216291               0.000000000               0.000000000               0.000000000               0.000000000               0.000226547               0.000765848               0.000020174              -0.000010776               0.000258872               0.000248096               0.000000000               0.000000000               0.000000000               0.000000000               0.000259345               0.000841150               0.000013685              -0.000007889               0.000283010               0.000275121               0.000000000               0.000000000               0.000000000               0.000000000               0.000273417               0.000911726               0.000016896              -0.000011434               0.000307717               0.000296283               0.000000000               0.000000000               0.000000000               0.000000000               0.000276552               0.000976967               0.000024145              -0.000018414               0.000331790               0.000313377               0.000000000               0.000000000               0.000000000               0.000000000               0.000276076               0.001041803               0.000029865              -0.000026697               0.000356163               0.000329466               0.000000000               0.000000000               0.000000000               0.000000000               0.000274378               0.001112546               0.000032472              -0.000036176               0.000382904               0.000346727               0.000000000               0.000000000               0.000000000               0.000000000               0.000272890               0.001189243               0.000031831              -0.000046321               0.000411851               0.000365529               0.000000000               0.000000000               0.000000000               0.000000000               0.000267587               0.001263204               0.000029648              -0.000057555               0.000440249               0.000382694               0.000000000               0.000000000               0.000000000               0.000000000               0.000259129               0.001333530               0.000025814              -0.000069518               0.000467678               0.000398160               0.000000000               0.000000000               0.000000000               0.000000000               0.000250786               0.001407147               0.000018640              -0.000081848               0.000496327               0.000414479               0.000000000               0.000000000               0.000000000               0.000000000               0.000239877               0.001481197               0.000009955              -0.000095195               0.000525459               0.000430264               0.000000000               0.000000000               0.000000000               0.000000000               0.000223983               0.001509883               0.000002274              -0.000104741               0.000538203               0.000433462               0.000000000               0.000000000               0.000000000               0.000000000               0.000110376               0.000142340               0.000071505               0.000023598               0.000039580               0.000063178               0.000000000               0.000000000               0.000000000               0.000000000               0.000124472               0.000241785               0.000079077               0.000016454               0.000075110               0.000091563               0.000000000               0.000000000               0.000000000               0.000000000               0.000143760               0.000406736               0.000076493               0.000003068               0.000134555               0.000137623               0.000000000               0.000000000               0.000000000               0.000000000               0.000165586               0.000546556               0.000060857              -0.000006225               0.000184258               0.000178034               0.000000000               0.000000000               0.000000000               0.000000000               0.000191591               0.000664496               0.000042392              -0.000011215               0.000225235               0.000214020               0.000000000               0.000000000               0.000000000               0.000000000               0.000225118               0.000762399               0.000023942              -0.000010881               0.000257757               0.000246877               0.000000000               0.000000000               0.000000000               0.000000000               0.000260731               0.000848442               0.000011683              -0.000008281               0.000285571               0.000277290               0.000000000               0.000000000               0.000000000               0.000000000               0.000286097               0.000926534               0.000009235              -0.000008530               0.000311685               0.000303155               0.000000000               0.000000000               0.000000000               0.000000000               0.000299124               0.000996113               0.000014236              -0.000012342               0.000336148               0.000323806               0.000000000               0.000000000               0.000000000               0.000000000               0.000305175               0.001058308               0.000019603              -0.000017848               0.000358715               0.000340867               0.000000000               0.000000000               0.000000000               0.000000000               0.000308417               0.001122655               0.000023593              -0.000024676               0.000382440               0.000357764               0.000000000               0.000000000               0.000000000               0.000000000               0.000312034               0.001193820               0.000024839              -0.000032215               0.000408674               0.000376460               0.000000000               0.000000000               0.000000000               0.000000000               0.000315666               0.001268857               0.000023314              -0.000040232               0.000436359               0.000396126               0.000000000               0.000000000               0.000000000               0.000000000               0.000315519               0.001339458               0.000021119              -0.000049113               0.000462853               0.000413740               0.000000000               0.000000000               0.000000000               0.000000000               0.000314149               0.001409327               0.000017294              -0.000058360               0.000489224               0.000430864               0.000000000               0.000000000               0.000000000               0.000000000               0.000312923               0.001482291               0.000009721              -0.000067940               0.000516739               0.000448799               0.000000000               0.000000000               0.000000000               0.000000000               0.000305804               0.001514588               0.000003157              -0.000074647               0.000529740               0.000455093               0.000000000               0.000000000               0.000000000               0.000000000               0.000091030               0.000112512               0.000051892               0.000020072               0.000030813               0.000050885               0.000000000               0.000000000               0.000000000               0.000000000               0.000124673               0.000210149               0.000065808               0.000020483               0.000063221               0.000083705               0.000000000               0.000000000               0.000000000               0.000000000               0.000157326               0.000370465               0.000070263               0.000012689               0.000119258               0.000131947               0.000000000               0.000000000               0.000000000               0.000000000               0.000180651               0.000514856               0.000058838               0.000003387               0.000170488               0.000173875               0.000000000               0.000000000               0.000000000               0.000000000               0.000203411               0.000641790               0.000043200              -0.000003945               0.000215243               0.000211298               0.000000000               0.000000000               0.000000000               0.000000000               0.000232012               0.000753198               0.000026782              -0.000007145               0.000253445               0.000246300               0.000000000               0.000000000               0.000000000               0.000000000               0.000265284               0.000850352               0.000012746              -0.000006812               0.000285719               0.000278906               0.000000000               0.000000000               0.000000000               0.000000000               0.000294958               0.000935136               0.000005879              -0.000006283               0.000313803               0.000307520               0.000000000               0.000000000               0.000000000               0.000000000               0.000315902               0.001010229               0.000006524              -0.000007816               0.000339345               0.000331529               0.000000000               0.000000000               0.000000000               0.000000000               0.000329088               0.001074070               0.000009608              -0.000010851               0.000361637               0.000350786               0.000000000               0.000000000               0.000000000               0.000000000               0.000338330               0.001134538               0.000012909              -0.000014943               0.000383157               0.000368213               0.000000000               0.000000000               0.000000000               0.000000000               0.000346632               0.001199955               0.000015093              -0.000020007               0.000406650               0.000386643               0.000000000               0.000000000               0.000000000               0.000000000               0.000356262               0.001271495               0.000014802              -0.000025338               0.000432274               0.000406935               0.000000000               0.000000000               0.000000000               0.000000000               0.000366141               0.001345797               0.000013064              -0.000030922               0.000458902               0.000427980               0.000000000               0.000000000               0.000000000               0.000000000               0.000373518               0.001414960               0.000011254              -0.000036801               0.000483916               0.000447115               0.000000000               0.000000000               0.000000000               0.000000000               0.000380466               0.001481451               0.000006891              -0.000042507               0.000507981               0.000465474               0.000000000               0.000000000               0.000000000               0.000000000               0.000381981               0.001514170               0.000002819              -0.000046028               0.000520061               0.000474033               0.000000000               0.000000000               0.000000000               0.000000000               0.000073307               0.000089770               0.000032978               0.000016269               0.000024500               0.000040769               0.000000000               0.000000000               0.000000000               0.000000000               0.000123658               0.000182843               0.000046817               0.000023516               0.000053108               0.000076625               0.000000000               0.000000000               0.000000000               0.000000000               0.000168349               0.000338486               0.000053642               0.000020820               0.000105887               0.000126707               0.000000000               0.000000000               0.000000000               0.000000000               0.000196045               0.000484454               0.000047684               0.000012960               0.000157163               0.000170123               0.000000000               0.000000000               0.000000000               0.000000000               0.000218588               0.000617025               0.000037287               0.000004842               0.000204059               0.000208901               0.000000000               0.000000000               0.000000000               0.000000000               0.000243477               0.000737993               0.000025089              -0.000000945               0.000246310               0.000245365               0.000000000               0.000000000               0.000000000               0.000000000               0.000271983               0.000844326               0.000012216              -0.000003547               0.000282621               0.000279074               0.000000000               0.000000000               0.000000000               0.000000000               0.000301865               0.000937396               0.000003977              -0.000003975               0.000313787               0.000309812               0.000000000               0.000000000               0.000000000               0.000000000               0.000327593               0.001018586               0.000002249              -0.000004476               0.000341017               0.000336541               0.000000000               0.000000000               0.000000000               0.000000000               0.000347275               0.001087880               0.000003187              -0.000005757               0.000364542               0.000358785               0.000000000               0.000000000               0.000000000               0.000000000               0.000362259               0.001148161               0.000005044              -0.000007673               0.000385274               0.000377601               0.000000000               0.000000000               0.000000000               0.000000000               0.000375567               0.001208591               0.000006649              -0.000010236               0.000406272               0.000396036               0.000000000               0.000000000               0.000000000               0.000000000               0.000389634               0.001274647               0.000006898              -0.000013218               0.000429284               0.000416066               0.000000000               0.000000000               0.000000000               0.000000000               0.000406311               0.001348522               0.000005777              -0.000016199               0.000454902               0.000438704               0.000000000               0.000000000               0.000000000               0.000000000               0.000421781               0.001418622               0.000004375              -0.000019160               0.000479256               0.000460096               0.000000000               0.000000000               0.000000000               0.000000000               0.000435600               0.001481767               0.000002882              -0.000021871               0.000501208               0.000479337               0.000000000               0.000000000               0.000000000               0.000000000               0.000442215               0.001513482               0.000001538              -0.000023355               0.000512274               0.000488919               0.000000000               0.000000000               0.000000000               0.000000000               0.000059867               0.000077543               0.000015744               0.000012757               0.000021595               0.000034352               0.000000000               0.000000000               0.000000000               0.000000000               0.000120749               0.000165667               0.000024392               0.000024572               0.000047031               0.000071603               0.000000000               0.000000000               0.000000000               0.000000000               0.000175871               0.000316541               0.000029348               0.000026384               0.000096718               0.000123102               0.000000000               0.000000000               0.000000000               0.000000000               0.000208370               0.000461763               0.000026882               0.000020418               0.000147113               0.000167532               0.000000000               0.000000000               0.000000000               0.000000000               0.000231661               0.000597905               0.000021598               0.000012135               0.000195255               0.000207389               0.000000000               0.000000000               0.000000000               0.000000000               0.000253505               0.000723832               0.000015252               0.000004585               0.000239747               0.000244332               0.000000000               0.000000000               0.000000000               0.000000000               0.000277931               0.000835829               0.000008188              -0.000000255               0.000278692               0.000278437               0.000000000               0.000000000               0.000000000               0.000000000               0.000306757               0.000936612               0.000002985              -0.000002043               0.000312882               0.000310839               0.000000000               0.000000000               0.000000000               0.000000000               0.000334258               0.001023040               0.000001051              -0.000002533               0.000341854               0.000339321               0.000000000               0.000000000               0.000000000               0.000000000               0.000357757               0.001096785               0.000000688              -0.000002939               0.000366571               0.000363632               0.000000000               0.000000000               0.000000000               0.000000000               0.000377086               0.001158531               0.000001221              -0.000003409               0.000387310               0.000383900               0.000000000               0.000000000               0.000000000               0.000000000               0.000394294               0.001215362               0.000001918              -0.000004060               0.000406470               0.000402410               0.000000000               0.000000000               0.000000000               0.000000000               0.000412415               0.001277069               0.000002008              -0.000004978               0.000427345               0.000422367               0.000000000               0.000000000               0.000000000               0.000000000               0.000433094               0.001347803               0.000001498              -0.000006065               0.000451285               0.000445220               0.000000000               0.000000000               0.000000000               0.000000000               0.000453615               0.001418647               0.000000663              -0.000007225               0.000475286               0.000468061               0.000000000               0.000000000               0.000000000               0.000000000               0.000472028               0.001483745               0.000000420              -0.000008458               0.000497396               0.000488938               0.000000000               0.000000000               0.000000000               0.000000000               0.000480436               0.001515794               0.000000287              -0.000009311               0.000508363               0.000499053               0.000000000               0.000000000               0.000000000               0.000000000               0.000000000               0.000000000               0.000000000               0.000000000               0.000000000               0.000000000               0.000000000               0.000000000               0.000000000               0.000000000               0.000000000               0.000000000               0.000000000               0.000000000               0.000000000               0.000000000               0.000000000               0.000000000               0.000000000               0.000000000               0.000000000               0.000000000               0.000000000               0.000000000               0.000000000               0.000000000               0.000000000               0.000000000               0.000000000               0.000000000               0.000000000               0.000000000               0.000000000               0.000000000               0.000000000               0.000000000               0.000000000               0.000000000               0.000000000               0.000000000               0.000000000               0.000000000               0.000000000               0.000000000               0.000000000               0.000000000               0.000000000               0.000000000               0.000000000               0.000000000               0.000000000               0.000000000               0.000000000               0.000000000               0.000000000               0.000000000               0.000000000               0.000000000               0.000000000               0.000000000               0.000000000               0.000000000               0.000000000               0.000000000               0.000000000               0.000000000               0.000000000               0.000000000               0.000000000               0.000000000               0.000000000               0.000000000               0.000000000               0.000000000               0.000000000               0.000000000               0.000000000               0.000000000               0.000000000               0.000000000               0.000000000               0.000000000               0.000000000               0.000000000               0.000000000               0.000000000               0.000000000               0.000000000               0.000000000               0.000000000               0.000000000               0.000000000               0.000000000               0.000000000               0.000000000               0.000000000               0.000000000               0.000000000               0.000000000               0.000000000               0.000000000               0.000000000               0.000000000               0.000000000               0.000000000               0.000000000               0.000000000               0.000000000               0.000000000               0.000000000               0.000000000               0.000000000               0.000000000               0.000000000               0.000000000               0.000000000               0.000000000               0.000000000               0.000000000               0.000000000               0.000000000               0.000000000               0.000000000               0.000000000               0.000000000               0.000000000               0.000000000               0.000000000               0.000000000               0.000000000               0.000000000               0.000000000               0.000000000               0.000000000               0.000000000               0.000000000               0.000000000               0.000000000               0.000000000               0.000000000               0.000000000               0.000000000               0.000000000               0.000000000               0.000000000               0.000000000               0.000000000               0.000000000               0.000000000               0.000000000               0.000000000               0.000000000               0.000000000               0.000000000               0.000000000               0.000000000               0.000000000               0.000000000               0.000000000               0.000000000               0.000000000               0.000000000               0.000000000               0.000000000               0.000000000               0.000000000               0.000000000               0.000000000               0.000000000               0.000000000 </DataArray>
</PointData>
</Piece>
</UnstructuredGrid> </VTKFile>
