<?xml version="1.0"?>
<VTKFile type="UnstructuredGrid" version="0.1">
<UnstructuredGrid>
<Piece NumberOfPoints="      1156" NumberOfCells="      1024">
<Points>
<DataArray type="Float64"                                    Name="coordinates"                                                      NumberOfComponents=" 3" format="ascii">
              0.133000000               0.000000000               0.000000000               0.155937500               0.000000000               0.000000000               0.178875000               0.000000000               0.000000000               0.201812500               0.000000000               0.000000000               0.224750000               0.000000000               0.000000000               0.247687500               0.000000000               0.000000000               0.270625000               0.000000000               0.000000000               0.293562500               0.000000000               0.000000000               0.316500000               0.000000000               0.000000000               0.339437500               0.000000000               0.000000000               0.362375000               0.000000000               0.000000000               0.385312500               0.000000000               0.000000000               0.408250000               0.000000000               0.000000000               0.431187500               0.000000000               0.000000000               0.454125000               0.000000000               0.000000000               0.477062500               0.000000000               0.000000000               0.500000000               0.000000000               0.000000000               0.132359569               0.013036280               0.000000000               0.155337096               0.016127762               0.000000000               0.178314623               0.019219245               0.000000000               0.201292150               0.022310727               0.000000000               0.224269676               0.025402210               0.000000000               0.247247203               0.028493692               0.000000000               0.270224730               0.031585175               0.000000000               0.293202257               0.034676657               0.000000000               0.316179784               0.037768140               0.000000000               0.339157311               0.040859622               0.000000000               0.362134838               0.043951105               0.000000000               0.385112365               0.047042587               0.000000000               0.408089892               0.050134070               0.000000000               0.431067419               0.053225552               0.000000000               0.454044946               0.056317035               0.000000000               0.477022473               0.059408517               0.000000000               0.500000000               0.062500000               0.000000000               0.130444442               0.025947013               0.000000000               0.153541665               0.032137825               0.000000000               0.176638887               0.038328636               0.000000000               0.199736109               0.044519448               0.000000000               0.222833332               0.050710260               0.000000000               0.245930554               0.056901071               0.000000000               0.269027776               0.063091883               0.000000000               0.292124999               0.069282695               0.000000000               0.315222221               0.075473506               0.000000000               0.338319444               0.081664318               0.000000000               0.361416666               0.087855130               0.000000000               0.384513888               0.094045942               0.000000000               0.407611111               0.100236753               0.000000000               0.430708333               0.106427565               0.000000000               0.453805555               0.112618377               0.000000000               0.476902778               0.118809188               0.000000000               0.500000000               0.125000000               0.000000000               0.127273065               0.038607862               0.000000000               0.150568498               0.047913621               0.000000000               0.173863932               0.057219379               0.000000000               0.197159365               0.066525138               0.000000000               0.220454798               0.075830897               0.000000000               0.243750232               0.085136655               0.000000000               0.267045665               0.094442414               0.000000000               0.290341099               0.103748172               0.000000000               0.313636532               0.113053931               0.000000000               0.336931966               0.122359690               0.000000000               0.360227399               0.131665448               0.000000000               0.383522833               0.140971207               0.000000000               0.406818266               0.150276966               0.000000000               0.430113700               0.159582724               0.000000000               0.453409133               0.168888483               0.000000000               0.476704567               0.178194241               0.000000000               0.500000000               0.187500000               0.000000000               0.122875978               0.050896897               0.000000000               0.146446229               0.063340840               0.000000000               0.170016481               0.075784784               0.000000000               0.193586732               0.088228728               0.000000000               0.217156983               0.100672672               0.000000000               0.240727235               0.113116616               0.000000000               0.264297486               0.125560560               0.000000000               0.287867738               0.138004504               0.000000000               0.311437989               0.150448448               0.000000000               0.335008240               0.162892392               0.000000000               0.358578492               0.175336336               0.000000000               0.382148743               0.187780280               0.000000000               0.405718994               0.200224224               0.000000000               0.429289246               0.212668168               0.000000000               0.452859497               0.225112112               0.000000000               0.476429749               0.237556056               0.000000000               0.500000000               0.250000000               0.000000000               0.117295528               0.062695766               0.000000000               0.141214558               0.078308531               0.000000000               0.165133587               0.093921295               0.000000000               0.189052617               0.109534060               0.000000000               0.212971646               0.125146824               0.000000000               0.236890676               0.140759589               0.000000000               0.260809705               0.156372354               0.000000000               0.284728735               0.171985118               0.000000000               0.308647764               0.187597883               0.000000000               0.332566794               0.203210648               0.000000000               0.356485823               0.218823412               0.000000000               0.380404853               0.234436177               0.000000000               0.404323882               0.250048941               0.000000000               0.428242912               0.265661706               0.000000000               0.452161941               0.281274471               0.000000000               0.476080971               0.296887235               0.000000000               0.500000000               0.312500000               0.000000000               0.110585458               0.073890841               0.000000000               0.134923867               0.092710163               0.000000000               0.159262276               0.111529486               0.000000000               0.183600685               0.130348808               0.000000000               0.207939094               0.149168131               0.000000000               0.232277503               0.167987453               0.000000000               0.256615912               0.186806776               0.000000000               0.280954320               0.205626098               0.000000000               0.305292729               0.224445420               0.000000000               0.329631138               0.243264743               0.000000000               0.353969547               0.262084065               0.000000000               0.378307956               0.280903388               0.000000000               0.402646365               0.299722710               0.000000000               0.426984773               0.318542033               0.000000000               0.451323182               0.337361355               0.000000000               0.475661591               0.356180678               0.000000000               0.500000000               0.375000000               0.000000000               0.102810390               0.084374307               0.000000000               0.127634741               0.106444663               0.000000000               0.152459092               0.128515018               0.000000000               0.177283442               0.150585374               0.000000000               0.202107793               0.172655730               0.000000000               0.226932143               0.194726086               0.000000000               0.251756494               0.216796442               0.000000000               0.276580845               0.238866798               0.000000000               0.301405195               0.260937153               0.000000000               0.326229546               0.283007509               0.000000000               0.351053896               0.305077865               0.000000000               0.375878247               0.327148221               0.000000000               0.400702598               0.349218577               0.000000000               0.425526948               0.371288933               0.000000000               0.450351299               0.393359288               0.000000000               0.475175649               0.415429644               0.000000000               0.500000000               0.437500000               0.000000000               0.094045202               0.094045202               0.000000000               0.119417377               0.119417377               0.000000000               0.144789552               0.144789552               0.000000000               0.170161727               0.170161727               0.000000000               0.195533901               0.195533901               0.000000000               0.220906076               0.220906076               0.000000000               0.246278251               0.246278251               0.000000000               0.271650426               0.271650426               0.000000000               0.297022601               0.297022601               0.000000000               0.322394776               0.322394776               0.000000000               0.347766951               0.347766951               0.000000000               0.373139126               0.373139126               0.000000000               0.398511300               0.398511300               0.000000000               0.423883475               0.423883475               0.000000000               0.449255650               0.449255650               0.000000000               0.474627825               0.474627825               0.000000000               0.500000000               0.500000000               0.000000000               0.084374307               0.102810390               0.000000000               0.106444663               0.127634741               0.000000000               0.128515018               0.152459092               0.000000000               0.150585374               0.177283442               0.000000000               0.172655730               0.202107793               0.000000000               0.194726086               0.226932143               0.000000000               0.216796442               0.251756494               0.000000000               0.238866798               0.276580845               0.000000000               0.260937153               0.301405195               0.000000000               0.283007509               0.326229546               0.000000000               0.305077865               0.351053896               0.000000000               0.327148221               0.375878247               0.000000000               0.349218577               0.400702598               0.000000000               0.371288933               0.425526948               0.000000000               0.393359288               0.450351299               0.000000000               0.415429644               0.475175649               0.000000000               0.437500000               0.500000000               0.000000000               0.073890841               0.110585458               0.000000000               0.092710163               0.134923867               0.000000000               0.111529486               0.159262276               0.000000000               0.130348808               0.183600685               0.000000000               0.149168131               0.207939094               0.000000000               0.167987453               0.232277503               0.000000000               0.186806776               0.256615912               0.000000000               0.205626098               0.280954320               0.000000000               0.224445420               0.305292729               0.000000000               0.243264743               0.329631138               0.000000000               0.262084065               0.353969547               0.000000000               0.280903388               0.378307956               0.000000000               0.299722710               0.402646365               0.000000000               0.318542033               0.426984773               0.000000000               0.337361355               0.451323182               0.000000000               0.356180678               0.475661591               0.000000000               0.375000000               0.500000000               0.000000000               0.062695766               0.117295528               0.000000000               0.078308531               0.141214558               0.000000000               0.093921295               0.165133587               0.000000000               0.109534060               0.189052617               0.000000000               0.125146824               0.212971646               0.000000000               0.140759589               0.236890676               0.000000000               0.156372354               0.260809705               0.000000000               0.171985118               0.284728735               0.000000000               0.187597883               0.308647764               0.000000000               0.203210648               0.332566794               0.000000000               0.218823412               0.356485823               0.000000000               0.234436177               0.380404853               0.000000000               0.250048941               0.404323882               0.000000000               0.265661706               0.428242912               0.000000000               0.281274471               0.452161941               0.000000000               0.296887235               0.476080971               0.000000000               0.312500000               0.500000000               0.000000000               0.050896897               0.122875978               0.000000000               0.063340840               0.146446229               0.000000000               0.075784784               0.170016481               0.000000000               0.088228728               0.193586732               0.000000000               0.100672672               0.217156983               0.000000000               0.113116616               0.240727235               0.000000000               0.125560560               0.264297486               0.000000000               0.138004504               0.287867738               0.000000000               0.150448448               0.311437989               0.000000000               0.162892392               0.335008240               0.000000000               0.175336336               0.358578492               0.000000000               0.187780280               0.382148743               0.000000000               0.200224224               0.405718994               0.000000000               0.212668168               0.429289246               0.000000000               0.225112112               0.452859497               0.000000000               0.237556056               0.476429749               0.000000000               0.250000000               0.500000000               0.000000000               0.038607862               0.127273065               0.000000000               0.047913621               0.150568498               0.000000000               0.057219379               0.173863932               0.000000000               0.066525138               0.197159365               0.000000000               0.075830897               0.220454798               0.000000000               0.085136655               0.243750232               0.000000000               0.094442414               0.267045665               0.000000000               0.103748172               0.290341099               0.000000000               0.113053931               0.313636532               0.000000000               0.122359690               0.336931966               0.000000000               0.131665448               0.360227399               0.000000000               0.140971207               0.383522833               0.000000000               0.150276966               0.406818266               0.000000000               0.159582724               0.430113700               0.000000000               0.168888483               0.453409133               0.000000000               0.178194241               0.476704567               0.000000000               0.187500000               0.500000000               0.000000000               0.025947013               0.130444442               0.000000000               0.032137825               0.153541665               0.000000000               0.038328636               0.176638887               0.000000000               0.044519448               0.199736109               0.000000000               0.050710260               0.222833332               0.000000000               0.056901071               0.245930554               0.000000000               0.063091883               0.269027776               0.000000000               0.069282695               0.292124999               0.000000000               0.075473506               0.315222221               0.000000000               0.081664318               0.338319444               0.000000000               0.087855130               0.361416666               0.000000000               0.094045942               0.384513888               0.000000000               0.100236753               0.407611111               0.000000000               0.106427565               0.430708333               0.000000000               0.112618377               0.453805555               0.000000000               0.118809188               0.476902778               0.000000000               0.125000000               0.500000000               0.000000000               0.013036280               0.132359569               0.000000000               0.016127762               0.155337096               0.000000000               0.019219245               0.178314623               0.000000000               0.022310727               0.201292150               0.000000000               0.025402210               0.224269676               0.000000000               0.028493692               0.247247203               0.000000000               0.031585175               0.270224730               0.000000000               0.034676657               0.293202257               0.000000000               0.037768140               0.316179784               0.000000000               0.040859622               0.339157311               0.000000000               0.043951105               0.362134838               0.000000000               0.047042587               0.385112365               0.000000000               0.050134070               0.408089892               0.000000000               0.053225552               0.431067419               0.000000000               0.056317035               0.454044946               0.000000000               0.059408517               0.477022473               0.000000000               0.062500000               0.500000000               0.000000000               0.000000000               0.133000000               0.000000000               0.000000000               0.155937500               0.000000000               0.000000000               0.178875000               0.000000000               0.000000000               0.201812500               0.000000000               0.000000000               0.224750000               0.000000000               0.000000000               0.247687500               0.000000000               0.000000000               0.270625000               0.000000000               0.000000000               0.293562500               0.000000000               0.000000000               0.316500000               0.000000000               0.000000000               0.339437500               0.000000000               0.000000000               0.362375000               0.000000000               0.000000000               0.385312500               0.000000000               0.000000000               0.408250000               0.000000000               0.000000000               0.431187500               0.000000000               0.000000000               0.454125000               0.000000000               0.000000000               0.477062500               0.000000000               0.000000000               0.500000000               0.000000000               0.133000000               0.000000000               0.000000000               0.155937500               0.000000000               0.000000000               0.178875000               0.000000000               0.000000000               0.201812500               0.000000000               0.000000000               0.224750000               0.000000000               0.000000000               0.247687500               0.000000000               0.000000000               0.270625000               0.000000000               0.000000000               0.293562500               0.000000000               0.000000000               0.316500000               0.000000000               0.000000000               0.339437500               0.000000000               0.000000000               0.362375000               0.000000000               0.000000000               0.385312500               0.000000000               0.000000000               0.408250000               0.000000000               0.000000000               0.431187500               0.000000000               0.000000000               0.454125000               0.000000000               0.000000000               0.477062500               0.000000000               0.000000000               0.500000000               0.000000000               0.000000000               0.132359569              -0.013036280               0.000000000               0.155337096              -0.016127762               0.000000000               0.178314623              -0.019219245               0.000000000               0.201292150              -0.022310727               0.000000000               0.224269676              -0.025402210               0.000000000               0.247247203              -0.028493692               0.000000000               0.270224730              -0.031585175               0.000000000               0.293202257              -0.034676657               0.000000000               0.316179784              -0.037768140               0.000000000               0.339157311              -0.040859622               0.000000000               0.362134838              -0.043951105               0.000000000               0.385112365              -0.047042587               0.000000000               0.408089892              -0.050134070               0.000000000               0.431067419              -0.053225552               0.000000000               0.454044946              -0.056317035               0.000000000               0.477022473              -0.059408517               0.000000000               0.500000000              -0.062500000               0.000000000               0.130444442              -0.025947013               0.000000000               0.153541665              -0.032137825               0.000000000               0.176638887              -0.038328636               0.000000000               0.199736109              -0.044519448               0.000000000               0.222833332              -0.050710260               0.000000000               0.245930554              -0.056901071               0.000000000               0.269027776              -0.063091883               0.000000000               0.292124999              -0.069282695               0.000000000               0.315222221              -0.075473506               0.000000000               0.338319444              -0.081664318               0.000000000               0.361416666              -0.087855130               0.000000000               0.384513888              -0.094045942               0.000000000               0.407611111              -0.100236753               0.000000000               0.430708333              -0.106427565               0.000000000               0.453805555              -0.112618377               0.000000000               0.476902778              -0.118809188               0.000000000               0.500000000              -0.125000000               0.000000000               0.127273065              -0.038607862               0.000000000               0.150568498              -0.047913621               0.000000000               0.173863932              -0.057219379               0.000000000               0.197159365              -0.066525138               0.000000000               0.220454798              -0.075830897               0.000000000               0.243750232              -0.085136655               0.000000000               0.267045665              -0.094442414               0.000000000               0.290341099              -0.103748172               0.000000000               0.313636532              -0.113053931               0.000000000               0.336931966              -0.122359690               0.000000000               0.360227399              -0.131665448               0.000000000               0.383522833              -0.140971207               0.000000000               0.406818266              -0.150276966               0.000000000               0.430113700              -0.159582724               0.000000000               0.453409133              -0.168888483               0.000000000               0.476704567              -0.178194241               0.000000000               0.500000000              -0.187500000               0.000000000               0.122875978              -0.050896897               0.000000000               0.146446229              -0.063340840               0.000000000               0.170016481              -0.075784784               0.000000000               0.193586732              -0.088228728               0.000000000               0.217156983              -0.100672672               0.000000000               0.240727235              -0.113116616               0.000000000               0.264297486              -0.125560560               0.000000000               0.287867738              -0.138004504               0.000000000               0.311437989              -0.150448448               0.000000000               0.335008240              -0.162892392               0.000000000               0.358578492              -0.175336336               0.000000000               0.382148743              -0.187780280               0.000000000               0.405718994              -0.200224224               0.000000000               0.429289246              -0.212668168               0.000000000               0.452859497              -0.225112112               0.000000000               0.476429749              -0.237556056               0.000000000               0.500000000              -0.250000000               0.000000000               0.117295528              -0.062695766               0.000000000               0.141214558              -0.078308531               0.000000000               0.165133587              -0.093921295               0.000000000               0.189052617              -0.109534060               0.000000000               0.212971646              -0.125146824               0.000000000               0.236890676              -0.140759589               0.000000000               0.260809705              -0.156372354               0.000000000               0.284728735              -0.171985118               0.000000000               0.308647764              -0.187597883               0.000000000               0.332566794              -0.203210648               0.000000000               0.356485823              -0.218823412               0.000000000               0.380404853              -0.234436177               0.000000000               0.404323882              -0.250048941               0.000000000               0.428242912              -0.265661706               0.000000000               0.452161941              -0.281274471               0.000000000               0.476080971              -0.296887235               0.000000000               0.500000000              -0.312500000               0.000000000               0.110585458              -0.073890841               0.000000000               0.134923867              -0.092710163               0.000000000               0.159262276              -0.111529486               0.000000000               0.183600685              -0.130348808               0.000000000               0.207939094              -0.149168131               0.000000000               0.232277503              -0.167987453               0.000000000               0.256615912              -0.186806776               0.000000000               0.280954320              -0.205626098               0.000000000               0.305292729              -0.224445420               0.000000000               0.329631138              -0.243264743               0.000000000               0.353969547              -0.262084065               0.000000000               0.378307956              -0.280903388               0.000000000               0.402646365              -0.299722710               0.000000000               0.426984773              -0.318542033               0.000000000               0.451323182              -0.337361355               0.000000000               0.475661591              -0.356180678               0.000000000               0.500000000              -0.375000000               0.000000000               0.102810390              -0.084374307               0.000000000               0.127634741              -0.106444663               0.000000000               0.152459092              -0.128515018               0.000000000               0.177283442              -0.150585374               0.000000000               0.202107793              -0.172655730               0.000000000               0.226932143              -0.194726086               0.000000000               0.251756494              -0.216796442               0.000000000               0.276580845              -0.238866798               0.000000000               0.301405195              -0.260937153               0.000000000               0.326229546              -0.283007509               0.000000000               0.351053896              -0.305077865               0.000000000               0.375878247              -0.327148221               0.000000000               0.400702598              -0.349218577               0.000000000               0.425526948              -0.371288933               0.000000000               0.450351299              -0.393359288               0.000000000               0.475175649              -0.415429644               0.000000000               0.500000000              -0.437500000               0.000000000               0.094045202              -0.094045202               0.000000000               0.119417377              -0.119417377               0.000000000               0.144789552              -0.144789552               0.000000000               0.170161727              -0.170161727               0.000000000               0.195533901              -0.195533901               0.000000000               0.220906076              -0.220906076               0.000000000               0.246278251              -0.246278251               0.000000000               0.271650426              -0.271650426               0.000000000               0.297022601              -0.297022601               0.000000000               0.322394776              -0.322394776               0.000000000               0.347766951              -0.347766951               0.000000000               0.373139126              -0.373139126               0.000000000               0.398511300              -0.398511300               0.000000000               0.423883475              -0.423883475               0.000000000               0.449255650              -0.449255650               0.000000000               0.474627825              -0.474627825               0.000000000               0.500000000              -0.500000000               0.000000000               0.084374307              -0.102810390               0.000000000               0.106444663              -0.127634741               0.000000000               0.128515018              -0.152459092               0.000000000               0.150585374              -0.177283442               0.000000000               0.172655730              -0.202107793               0.000000000               0.194726086              -0.226932143               0.000000000               0.216796442              -0.251756494               0.000000000               0.238866798              -0.276580845               0.000000000               0.260937153              -0.301405195               0.000000000               0.283007509              -0.326229546               0.000000000               0.305077865              -0.351053896               0.000000000               0.327148221              -0.375878247               0.000000000               0.349218577              -0.400702598               0.000000000               0.371288933              -0.425526948               0.000000000               0.393359288              -0.450351299               0.000000000               0.415429644              -0.475175649               0.000000000               0.437500000              -0.500000000               0.000000000               0.073890841              -0.110585458               0.000000000               0.092710163              -0.134923867               0.000000000               0.111529486              -0.159262276               0.000000000               0.130348808              -0.183600685               0.000000000               0.149168131              -0.207939094               0.000000000               0.167987453              -0.232277503               0.000000000               0.186806776              -0.256615912               0.000000000               0.205626098              -0.280954320               0.000000000               0.224445420              -0.305292729               0.000000000               0.243264743              -0.329631138               0.000000000               0.262084065              -0.353969547               0.000000000               0.280903388              -0.378307956               0.000000000               0.299722710              -0.402646365               0.000000000               0.318542033              -0.426984773               0.000000000               0.337361355              -0.451323182               0.000000000               0.356180678              -0.475661591               0.000000000               0.375000000              -0.500000000               0.000000000               0.062695766              -0.117295528               0.000000000               0.078308531              -0.141214558               0.000000000               0.093921295              -0.165133587               0.000000000               0.109534060              -0.189052617               0.000000000               0.125146824              -0.212971646               0.000000000               0.140759589              -0.236890676               0.000000000               0.156372354              -0.260809705               0.000000000               0.171985118              -0.284728735               0.000000000               0.187597883              -0.308647764               0.000000000               0.203210648              -0.332566794               0.000000000               0.218823412              -0.356485823               0.000000000               0.234436177              -0.380404853               0.000000000               0.250048941              -0.404323882               0.000000000               0.265661706              -0.428242912               0.000000000               0.281274471              -0.452161941               0.000000000               0.296887235              -0.476080971               0.000000000               0.312500000              -0.500000000               0.000000000               0.050896897              -0.122875978               0.000000000               0.063340840              -0.146446229               0.000000000               0.075784784              -0.170016481               0.000000000               0.088228728              -0.193586732               0.000000000               0.100672672              -0.217156983               0.000000000               0.113116616              -0.240727235               0.000000000               0.125560560              -0.264297486               0.000000000               0.138004504              -0.287867738               0.000000000               0.150448448              -0.311437989               0.000000000               0.162892392              -0.335008240               0.000000000               0.175336336              -0.358578492               0.000000000               0.187780280              -0.382148743               0.000000000               0.200224224              -0.405718994               0.000000000               0.212668168              -0.429289246               0.000000000               0.225112112              -0.452859497               0.000000000               0.237556056              -0.476429749               0.000000000               0.250000000              -0.500000000               0.000000000               0.038607862              -0.127273065               0.000000000               0.047913621              -0.150568498               0.000000000               0.057219379              -0.173863932               0.000000000               0.066525138              -0.197159365               0.000000000               0.075830897              -0.220454798               0.000000000               0.085136655              -0.243750232               0.000000000               0.094442414              -0.267045665               0.000000000               0.103748172              -0.290341099               0.000000000               0.113053931              -0.313636532               0.000000000               0.122359690              -0.336931966               0.000000000               0.131665448              -0.360227399               0.000000000               0.140971207              -0.383522833               0.000000000               0.150276966              -0.406818266               0.000000000               0.159582724              -0.430113700               0.000000000               0.168888483              -0.453409133               0.000000000               0.178194241              -0.476704567               0.000000000               0.187500000              -0.500000000               0.000000000               0.025947013              -0.130444442               0.000000000               0.032137825              -0.153541665               0.000000000               0.038328636              -0.176638887               0.000000000               0.044519448              -0.199736109               0.000000000               0.050710260              -0.222833332               0.000000000               0.056901071              -0.245930554               0.000000000               0.063091883              -0.269027776               0.000000000               0.069282695              -0.292124999               0.000000000               0.075473506              -0.315222221               0.000000000               0.081664318              -0.338319444               0.000000000               0.087855130              -0.361416666               0.000000000               0.094045942              -0.384513888               0.000000000               0.100236753              -0.407611111               0.000000000               0.106427565              -0.430708333               0.000000000               0.112618377              -0.453805555               0.000000000               0.118809188              -0.476902778               0.000000000               0.125000000              -0.500000000               0.000000000               0.013036280              -0.132359569               0.000000000               0.016127762              -0.155337096               0.000000000               0.019219245              -0.178314623               0.000000000               0.022310727              -0.201292150               0.000000000               0.025402210              -0.224269676               0.000000000               0.028493692              -0.247247203               0.000000000               0.031585175              -0.270224730               0.000000000               0.034676657              -0.293202257               0.000000000               0.037768140              -0.316179784               0.000000000               0.040859622              -0.339157311               0.000000000               0.043951105              -0.362134838               0.000000000               0.047042587              -0.385112365               0.000000000               0.050134070              -0.408089892               0.000000000               0.053225552              -0.431067419               0.000000000               0.056317035              -0.454044946               0.000000000               0.059408517              -0.477022473               0.000000000               0.062500000              -0.500000000               0.000000000               0.000000000              -0.133000000               0.000000000               0.000000000              -0.155937500               0.000000000               0.000000000              -0.178875000               0.000000000               0.000000000              -0.201812500               0.000000000               0.000000000              -0.224750000               0.000000000               0.000000000              -0.247687500               0.000000000               0.000000000              -0.270625000               0.000000000               0.000000000              -0.293562500               0.000000000               0.000000000              -0.316500000               0.000000000               0.000000000              -0.339437500               0.000000000               0.000000000              -0.362375000               0.000000000               0.000000000              -0.385312500               0.000000000               0.000000000              -0.408250000               0.000000000               0.000000000              -0.431187500               0.000000000               0.000000000              -0.454125000               0.000000000               0.000000000              -0.477062500               0.000000000               0.000000000              -0.500000000               0.000000000              -0.133000000               0.000000000               0.000000000              -0.155937500               0.000000000               0.000000000              -0.178875000               0.000000000               0.000000000              -0.201812500               0.000000000               0.000000000              -0.224750000               0.000000000               0.000000000              -0.247687500               0.000000000               0.000000000              -0.270625000               0.000000000               0.000000000              -0.293562500               0.000000000               0.000000000              -0.316500000               0.000000000               0.000000000              -0.339437500               0.000000000               0.000000000              -0.362375000               0.000000000               0.000000000              -0.385312500               0.000000000               0.000000000              -0.408250000               0.000000000               0.000000000              -0.431187500               0.000000000               0.000000000              -0.454125000               0.000000000               0.000000000              -0.477062500               0.000000000               0.000000000              -0.500000000               0.000000000               0.000000000              -0.132359569              -0.013036280               0.000000000              -0.155337096              -0.016127762               0.000000000              -0.178314623              -0.019219245               0.000000000              -0.201292150              -0.022310727               0.000000000              -0.224269676              -0.025402210               0.000000000              -0.247247203              -0.028493692               0.000000000              -0.270224730              -0.031585175               0.000000000              -0.293202257              -0.034676657               0.000000000              -0.316179784              -0.037768140               0.000000000              -0.339157311              -0.040859622               0.000000000              -0.362134838              -0.043951105               0.000000000              -0.385112365              -0.047042587               0.000000000              -0.408089892              -0.050134070               0.000000000              -0.431067419              -0.053225552               0.000000000              -0.454044946              -0.056317035               0.000000000              -0.477022473              -0.059408517               0.000000000              -0.500000000              -0.062500000               0.000000000              -0.130444442              -0.025947013               0.000000000              -0.153541665              -0.032137825               0.000000000              -0.176638887              -0.038328636               0.000000000              -0.199736109              -0.044519448               0.000000000              -0.222833332              -0.050710260               0.000000000              -0.245930554              -0.056901071               0.000000000              -0.269027776              -0.063091883               0.000000000              -0.292124999              -0.069282695               0.000000000              -0.315222221              -0.075473506               0.000000000              -0.338319444              -0.081664318               0.000000000              -0.361416666              -0.087855130               0.000000000              -0.384513888              -0.094045942               0.000000000              -0.407611111              -0.100236753               0.000000000              -0.430708333              -0.106427565               0.000000000              -0.453805555              -0.112618377               0.000000000              -0.476902778              -0.118809188               0.000000000              -0.500000000              -0.125000000               0.000000000              -0.127273065              -0.038607862               0.000000000              -0.150568498              -0.047913621               0.000000000              -0.173863932              -0.057219379               0.000000000              -0.197159365              -0.066525138               0.000000000              -0.220454798              -0.075830897               0.000000000              -0.243750232              -0.085136655               0.000000000              -0.267045665              -0.094442414               0.000000000              -0.290341099              -0.103748172               0.000000000              -0.313636532              -0.113053931               0.000000000              -0.336931966              -0.122359690               0.000000000              -0.360227399              -0.131665448               0.000000000              -0.383522833              -0.140971207               0.000000000              -0.406818266              -0.150276966               0.000000000              -0.430113700              -0.159582724               0.000000000              -0.453409133              -0.168888483               0.000000000              -0.476704567              -0.178194241               0.000000000              -0.500000000              -0.187500000               0.000000000              -0.122875978              -0.050896897               0.000000000              -0.146446229              -0.063340840               0.000000000              -0.170016481              -0.075784784               0.000000000              -0.193586732              -0.088228728               0.000000000              -0.217156983              -0.100672672               0.000000000              -0.240727235              -0.113116616               0.000000000              -0.264297486              -0.125560560               0.000000000              -0.287867738              -0.138004504               0.000000000              -0.311437989              -0.150448448               0.000000000              -0.335008240              -0.162892392               0.000000000              -0.358578492              -0.175336336               0.000000000              -0.382148743              -0.187780280               0.000000000              -0.405718994              -0.200224224               0.000000000              -0.429289246              -0.212668168               0.000000000              -0.452859497              -0.225112112               0.000000000              -0.476429749              -0.237556056               0.000000000              -0.500000000              -0.250000000               0.000000000              -0.117295528              -0.062695766               0.000000000              -0.141214558              -0.078308531               0.000000000              -0.165133587              -0.093921295               0.000000000              -0.189052617              -0.109534060               0.000000000              -0.212971646              -0.125146824               0.000000000              -0.236890676              -0.140759589               0.000000000              -0.260809705              -0.156372354               0.000000000              -0.284728735              -0.171985118               0.000000000              -0.308647764              -0.187597883               0.000000000              -0.332566794              -0.203210648               0.000000000              -0.356485823              -0.218823412               0.000000000              -0.380404853              -0.234436177               0.000000000              -0.404323882              -0.250048941               0.000000000              -0.428242912              -0.265661706               0.000000000              -0.452161941              -0.281274471               0.000000000              -0.476080971              -0.296887235               0.000000000              -0.500000000              -0.312500000               0.000000000              -0.110585458              -0.073890841               0.000000000              -0.134923867              -0.092710163               0.000000000              -0.159262276              -0.111529486               0.000000000              -0.183600685              -0.130348808               0.000000000              -0.207939094              -0.149168131               0.000000000              -0.232277503              -0.167987453               0.000000000              -0.256615912              -0.186806776               0.000000000              -0.280954320              -0.205626098               0.000000000              -0.305292729              -0.224445420               0.000000000              -0.329631138              -0.243264743               0.000000000              -0.353969547              -0.262084065               0.000000000              -0.378307956              -0.280903388               0.000000000              -0.402646365              -0.299722710               0.000000000              -0.426984773              -0.318542033               0.000000000              -0.451323182              -0.337361355               0.000000000              -0.475661591              -0.356180678               0.000000000              -0.500000000              -0.375000000               0.000000000              -0.102810390              -0.084374307               0.000000000              -0.127634741              -0.106444663               0.000000000              -0.152459092              -0.128515018               0.000000000              -0.177283442              -0.150585374               0.000000000              -0.202107793              -0.172655730               0.000000000              -0.226932143              -0.194726086               0.000000000              -0.251756494              -0.216796442               0.000000000              -0.276580845              -0.238866798               0.000000000              -0.301405195              -0.260937153               0.000000000              -0.326229546              -0.283007509               0.000000000              -0.351053896              -0.305077865               0.000000000              -0.375878247              -0.327148221               0.000000000              -0.400702598              -0.349218577               0.000000000              -0.425526948              -0.371288933               0.000000000              -0.450351299              -0.393359288               0.000000000              -0.475175649              -0.415429644               0.000000000              -0.500000000              -0.437500000               0.000000000              -0.094045202              -0.094045202               0.000000000              -0.119417377              -0.119417377               0.000000000              -0.144789552              -0.144789552               0.000000000              -0.170161727              -0.170161727               0.000000000              -0.195533901              -0.195533901               0.000000000              -0.220906076              -0.220906076               0.000000000              -0.246278251              -0.246278251               0.000000000              -0.271650426              -0.271650426               0.000000000              -0.297022601              -0.297022601               0.000000000              -0.322394776              -0.322394776               0.000000000              -0.347766951              -0.347766951               0.000000000              -0.373139126              -0.373139126               0.000000000              -0.398511300              -0.398511300               0.000000000              -0.423883475              -0.423883475               0.000000000              -0.449255650              -0.449255650               0.000000000              -0.474627825              -0.474627825               0.000000000              -0.500000000              -0.500000000               0.000000000              -0.084374307              -0.102810390               0.000000000              -0.106444663              -0.127634741               0.000000000              -0.128515018              -0.152459092               0.000000000              -0.150585374              -0.177283442               0.000000000              -0.172655730              -0.202107793               0.000000000              -0.194726086              -0.226932143               0.000000000              -0.216796442              -0.251756494               0.000000000              -0.238866798              -0.276580845               0.000000000              -0.260937153              -0.301405195               0.000000000              -0.283007509              -0.326229546               0.000000000              -0.305077865              -0.351053896               0.000000000              -0.327148221              -0.375878247               0.000000000              -0.349218577              -0.400702598               0.000000000              -0.371288933              -0.425526948               0.000000000              -0.393359288              -0.450351299               0.000000000              -0.415429644              -0.475175649               0.000000000              -0.437500000              -0.500000000               0.000000000              -0.073890841              -0.110585458               0.000000000              -0.092710163              -0.134923867               0.000000000              -0.111529486              -0.159262276               0.000000000              -0.130348808              -0.183600685               0.000000000              -0.149168131              -0.207939094               0.000000000              -0.167987453              -0.232277503               0.000000000              -0.186806776              -0.256615912               0.000000000              -0.205626098              -0.280954320               0.000000000              -0.224445420              -0.305292729               0.000000000              -0.243264743              -0.329631138               0.000000000              -0.262084065              -0.353969547               0.000000000              -0.280903388              -0.378307956               0.000000000              -0.299722710              -0.402646365               0.000000000              -0.318542033              -0.426984773               0.000000000              -0.337361355              -0.451323182               0.000000000              -0.356180678              -0.475661591               0.000000000              -0.375000000              -0.500000000               0.000000000              -0.062695766              -0.117295528               0.000000000              -0.078308531              -0.141214558               0.000000000              -0.093921295              -0.165133587               0.000000000              -0.109534060              -0.189052617               0.000000000              -0.125146824              -0.212971646               0.000000000              -0.140759589              -0.236890676               0.000000000              -0.156372354              -0.260809705               0.000000000              -0.171985118              -0.284728735               0.000000000              -0.187597883              -0.308647764               0.000000000              -0.203210648              -0.332566794               0.000000000              -0.218823412              -0.356485823               0.000000000              -0.234436177              -0.380404853               0.000000000              -0.250048941              -0.404323882               0.000000000              -0.265661706              -0.428242912               0.000000000              -0.281274471              -0.452161941               0.000000000              -0.296887235              -0.476080971               0.000000000              -0.312500000              -0.500000000               0.000000000              -0.050896897              -0.122875978               0.000000000              -0.063340840              -0.146446229               0.000000000              -0.075784784              -0.170016481               0.000000000              -0.088228728              -0.193586732               0.000000000              -0.100672672              -0.217156983               0.000000000              -0.113116616              -0.240727235               0.000000000              -0.125560560              -0.264297486               0.000000000              -0.138004504              -0.287867738               0.000000000              -0.150448448              -0.311437989               0.000000000              -0.162892392              -0.335008240               0.000000000              -0.175336336              -0.358578492               0.000000000              -0.187780280              -0.382148743               0.000000000              -0.200224224              -0.405718994               0.000000000              -0.212668168              -0.429289246               0.000000000              -0.225112112              -0.452859497               0.000000000              -0.237556056              -0.476429749               0.000000000              -0.250000000              -0.500000000               0.000000000              -0.038607862              -0.127273065               0.000000000              -0.047913621              -0.150568498               0.000000000              -0.057219379              -0.173863932               0.000000000              -0.066525138              -0.197159365               0.000000000              -0.075830897              -0.220454798               0.000000000              -0.085136655              -0.243750232               0.000000000              -0.094442414              -0.267045665               0.000000000              -0.103748172              -0.290341099               0.000000000              -0.113053931              -0.313636532               0.000000000              -0.122359690              -0.336931966               0.000000000              -0.131665448              -0.360227399               0.000000000              -0.140971207              -0.383522833               0.000000000              -0.150276966              -0.406818266               0.000000000              -0.159582724              -0.430113700               0.000000000              -0.168888483              -0.453409133               0.000000000              -0.178194241              -0.476704567               0.000000000              -0.187500000              -0.500000000               0.000000000              -0.025947013              -0.130444442               0.000000000              -0.032137825              -0.153541665               0.000000000              -0.038328636              -0.176638887               0.000000000              -0.044519448              -0.199736109               0.000000000              -0.050710260              -0.222833332               0.000000000              -0.056901071              -0.245930554               0.000000000              -0.063091883              -0.269027776               0.000000000              -0.069282695              -0.292124999               0.000000000              -0.075473506              -0.315222221               0.000000000              -0.081664318              -0.338319444               0.000000000              -0.087855130              -0.361416666               0.000000000              -0.094045942              -0.384513888               0.000000000              -0.100236753              -0.407611111               0.000000000              -0.106427565              -0.430708333               0.000000000              -0.112618377              -0.453805555               0.000000000              -0.118809188              -0.476902778               0.000000000              -0.125000000              -0.500000000               0.000000000              -0.013036280              -0.132359569               0.000000000              -0.016127762              -0.155337096               0.000000000              -0.019219245              -0.178314623               0.000000000              -0.022310727              -0.201292150               0.000000000              -0.025402210              -0.224269676               0.000000000              -0.028493692              -0.247247203               0.000000000              -0.031585175              -0.270224730               0.000000000              -0.034676657              -0.293202257               0.000000000              -0.037768140              -0.316179784               0.000000000              -0.040859622              -0.339157311               0.000000000              -0.043951105              -0.362134838               0.000000000              -0.047042587              -0.385112365               0.000000000              -0.050134070              -0.408089892               0.000000000              -0.053225552              -0.431067419               0.000000000              -0.056317035              -0.454044946               0.000000000              -0.059408517              -0.477022473               0.000000000              -0.062500000              -0.500000000               0.000000000               0.000000000              -0.133000000               0.000000000               0.000000000              -0.155937500               0.000000000               0.000000000              -0.178875000               0.000000000               0.000000000              -0.201812500               0.000000000               0.000000000              -0.224750000               0.000000000               0.000000000              -0.247687500               0.000000000               0.000000000              -0.270625000               0.000000000               0.000000000              -0.293562500               0.000000000               0.000000000              -0.316500000               0.000000000               0.000000000              -0.339437500               0.000000000               0.000000000              -0.362375000               0.000000000               0.000000000              -0.385312500               0.000000000               0.000000000              -0.408250000               0.000000000               0.000000000              -0.431187500               0.000000000               0.000000000              -0.454125000               0.000000000               0.000000000              -0.477062500               0.000000000               0.000000000              -0.500000000               0.000000000              -0.133000000               0.000000000               0.000000000              -0.155937500               0.000000000               0.000000000              -0.178875000               0.000000000               0.000000000              -0.201812500               0.000000000               0.000000000              -0.224750000               0.000000000               0.000000000              -0.247687500               0.000000000               0.000000000              -0.270625000               0.000000000               0.000000000              -0.293562500               0.000000000               0.000000000              -0.316500000               0.000000000               0.000000000              -0.339437500               0.000000000               0.000000000              -0.362375000               0.000000000               0.000000000              -0.385312500               0.000000000               0.000000000              -0.408250000               0.000000000               0.000000000              -0.431187500               0.000000000               0.000000000              -0.454125000               0.000000000               0.000000000              -0.477062500               0.000000000               0.000000000              -0.500000000               0.000000000               0.000000000              -0.132359569               0.013036280               0.000000000              -0.155337096               0.016127762               0.000000000              -0.178314623               0.019219245               0.000000000              -0.201292150               0.022310727               0.000000000              -0.224269676               0.025402210               0.000000000              -0.247247203               0.028493692               0.000000000              -0.270224730               0.031585175               0.000000000              -0.293202257               0.034676657               0.000000000              -0.316179784               0.037768140               0.000000000              -0.339157311               0.040859622               0.000000000              -0.362134838               0.043951105               0.000000000              -0.385112365               0.047042587               0.000000000              -0.408089892               0.050134070               0.000000000              -0.431067419               0.053225552               0.000000000              -0.454044946               0.056317035               0.000000000              -0.477022473               0.059408517               0.000000000              -0.500000000               0.062500000               0.000000000              -0.130444442               0.025947013               0.000000000              -0.153541665               0.032137825               0.000000000              -0.176638887               0.038328636               0.000000000              -0.199736109               0.044519448               0.000000000              -0.222833332               0.050710260               0.000000000              -0.245930554               0.056901071               0.000000000              -0.269027776               0.063091883               0.000000000              -0.292124999               0.069282695               0.000000000              -0.315222221               0.075473506               0.000000000              -0.338319444               0.081664318               0.000000000              -0.361416666               0.087855130               0.000000000              -0.384513888               0.094045942               0.000000000              -0.407611111               0.100236753               0.000000000              -0.430708333               0.106427565               0.000000000              -0.453805555               0.112618377               0.000000000              -0.476902778               0.118809188               0.000000000              -0.500000000               0.125000000               0.000000000              -0.127273065               0.038607862               0.000000000              -0.150568498               0.047913621               0.000000000              -0.173863932               0.057219379               0.000000000              -0.197159365               0.066525138               0.000000000              -0.220454798               0.075830897               0.000000000              -0.243750232               0.085136655               0.000000000              -0.267045665               0.094442414               0.000000000              -0.290341099               0.103748172               0.000000000              -0.313636532               0.113053931               0.000000000              -0.336931966               0.122359690               0.000000000              -0.360227399               0.131665448               0.000000000              -0.383522833               0.140971207               0.000000000              -0.406818266               0.150276966               0.000000000              -0.430113700               0.159582724               0.000000000              -0.453409133               0.168888483               0.000000000              -0.476704567               0.178194241               0.000000000              -0.500000000               0.187500000               0.000000000              -0.122875978               0.050896897               0.000000000              -0.146446229               0.063340840               0.000000000              -0.170016481               0.075784784               0.000000000              -0.193586732               0.088228728               0.000000000              -0.217156983               0.100672672               0.000000000              -0.240727235               0.113116616               0.000000000              -0.264297486               0.125560560               0.000000000              -0.287867738               0.138004504               0.000000000              -0.311437989               0.150448448               0.000000000              -0.335008240               0.162892392               0.000000000              -0.358578492               0.175336336               0.000000000              -0.382148743               0.187780280               0.000000000              -0.405718994               0.200224224               0.000000000              -0.429289246               0.212668168               0.000000000              -0.452859497               0.225112112               0.000000000              -0.476429749               0.237556056               0.000000000              -0.500000000               0.250000000               0.000000000              -0.117295528               0.062695766               0.000000000              -0.141214558               0.078308531               0.000000000              -0.165133587               0.093921295               0.000000000              -0.189052617               0.109534060               0.000000000              -0.212971646               0.125146824               0.000000000              -0.236890676               0.140759589               0.000000000              -0.260809705               0.156372354               0.000000000              -0.284728735               0.171985118               0.000000000              -0.308647764               0.187597883               0.000000000              -0.332566794               0.203210648               0.000000000              -0.356485823               0.218823412               0.000000000              -0.380404853               0.234436177               0.000000000              -0.404323882               0.250048941               0.000000000              -0.428242912               0.265661706               0.000000000              -0.452161941               0.281274471               0.000000000              -0.476080971               0.296887235               0.000000000              -0.500000000               0.312500000               0.000000000              -0.110585458               0.073890841               0.000000000              -0.134923867               0.092710163               0.000000000              -0.159262276               0.111529486               0.000000000              -0.183600685               0.130348808               0.000000000              -0.207939094               0.149168131               0.000000000              -0.232277503               0.167987453               0.000000000              -0.256615912               0.186806776               0.000000000              -0.280954320               0.205626098               0.000000000              -0.305292729               0.224445420               0.000000000              -0.329631138               0.243264743               0.000000000              -0.353969547               0.262084065               0.000000000              -0.378307956               0.280903388               0.000000000              -0.402646365               0.299722710               0.000000000              -0.426984773               0.318542033               0.000000000              -0.451323182               0.337361355               0.000000000              -0.475661591               0.356180678               0.000000000              -0.500000000               0.375000000               0.000000000              -0.102810390               0.084374307               0.000000000              -0.127634741               0.106444663               0.000000000              -0.152459092               0.128515018               0.000000000              -0.177283442               0.150585374               0.000000000              -0.202107793               0.172655730               0.000000000              -0.226932143               0.194726086               0.000000000              -0.251756494               0.216796442               0.000000000              -0.276580845               0.238866798               0.000000000              -0.301405195               0.260937153               0.000000000              -0.326229546               0.283007509               0.000000000              -0.351053896               0.305077865               0.000000000              -0.375878247               0.327148221               0.000000000              -0.400702598               0.349218577               0.000000000              -0.425526948               0.371288933               0.000000000              -0.450351299               0.393359288               0.000000000              -0.475175649               0.415429644               0.000000000              -0.500000000               0.437500000               0.000000000              -0.094045202               0.094045202               0.000000000              -0.119417377               0.119417377               0.000000000              -0.144789552               0.144789552               0.000000000              -0.170161727               0.170161727               0.000000000              -0.195533901               0.195533901               0.000000000              -0.220906076               0.220906076               0.000000000              -0.246278251               0.246278251               0.000000000              -0.271650426               0.271650426               0.000000000              -0.297022601               0.297022601               0.000000000              -0.322394776               0.322394776               0.000000000              -0.347766951               0.347766951               0.000000000              -0.373139126               0.373139126               0.000000000              -0.398511300               0.398511300               0.000000000              -0.423883475               0.423883475               0.000000000              -0.449255650               0.449255650               0.000000000              -0.474627825               0.474627825               0.000000000              -0.500000000               0.500000000               0.000000000              -0.084374307               0.102810390               0.000000000              -0.106444663               0.127634741               0.000000000              -0.128515018               0.152459092               0.000000000              -0.150585374               0.177283442               0.000000000              -0.172655730               0.202107793               0.000000000              -0.194726086               0.226932143               0.000000000              -0.216796442               0.251756494               0.000000000              -0.238866798               0.276580845               0.000000000              -0.260937153               0.301405195               0.000000000              -0.283007509               0.326229546               0.000000000              -0.305077865               0.351053896               0.000000000              -0.327148221               0.375878247               0.000000000              -0.349218577               0.400702598               0.000000000              -0.371288933               0.425526948               0.000000000              -0.393359288               0.450351299               0.000000000              -0.415429644               0.475175649               0.000000000              -0.437500000               0.500000000               0.000000000              -0.073890841               0.110585458               0.000000000              -0.092710163               0.134923867               0.000000000              -0.111529486               0.159262276               0.000000000              -0.130348808               0.183600685               0.000000000              -0.149168131               0.207939094               0.000000000              -0.167987453               0.232277503               0.000000000              -0.186806776               0.256615912               0.000000000              -0.205626098               0.280954320               0.000000000              -0.224445420               0.305292729               0.000000000              -0.243264743               0.329631138               0.000000000              -0.262084065               0.353969547               0.000000000              -0.280903388               0.378307956               0.000000000              -0.299722710               0.402646365               0.000000000              -0.318542033               0.426984773               0.000000000              -0.337361355               0.451323182               0.000000000              -0.356180678               0.475661591               0.000000000              -0.375000000               0.500000000               0.000000000              -0.062695766               0.117295528               0.000000000              -0.078308531               0.141214558               0.000000000              -0.093921295               0.165133587               0.000000000              -0.109534060               0.189052617               0.000000000              -0.125146824               0.212971646               0.000000000              -0.140759589               0.236890676               0.000000000              -0.156372354               0.260809705               0.000000000              -0.171985118               0.284728735               0.000000000              -0.187597883               0.308647764               0.000000000              -0.203210648               0.332566794               0.000000000              -0.218823412               0.356485823               0.000000000              -0.234436177               0.380404853               0.000000000              -0.250048941               0.404323882               0.000000000              -0.265661706               0.428242912               0.000000000              -0.281274471               0.452161941               0.000000000              -0.296887235               0.476080971               0.000000000              -0.312500000               0.500000000               0.000000000              -0.050896897               0.122875978               0.000000000              -0.063340840               0.146446229               0.000000000              -0.075784784               0.170016481               0.000000000              -0.088228728               0.193586732               0.000000000              -0.100672672               0.217156983               0.000000000              -0.113116616               0.240727235               0.000000000              -0.125560560               0.264297486               0.000000000              -0.138004504               0.287867738               0.000000000              -0.150448448               0.311437989               0.000000000              -0.162892392               0.335008240               0.000000000              -0.175336336               0.358578492               0.000000000              -0.187780280               0.382148743               0.000000000              -0.200224224               0.405718994               0.000000000              -0.212668168               0.429289246               0.000000000              -0.225112112               0.452859497               0.000000000              -0.237556056               0.476429749               0.000000000              -0.250000000               0.500000000               0.000000000              -0.038607862               0.127273065               0.000000000              -0.047913621               0.150568498               0.000000000              -0.057219379               0.173863932               0.000000000              -0.066525138               0.197159365               0.000000000              -0.075830897               0.220454798               0.000000000              -0.085136655               0.243750232               0.000000000              -0.094442414               0.267045665               0.000000000              -0.103748172               0.290341099               0.000000000              -0.113053931               0.313636532               0.000000000              -0.122359690               0.336931966               0.000000000              -0.131665448               0.360227399               0.000000000              -0.140971207               0.383522833               0.000000000              -0.150276966               0.406818266               0.000000000              -0.159582724               0.430113700               0.000000000              -0.168888483               0.453409133               0.000000000              -0.178194241               0.476704567               0.000000000              -0.187500000               0.500000000               0.000000000              -0.025947013               0.130444442               0.000000000              -0.032137825               0.153541665               0.000000000              -0.038328636               0.176638887               0.000000000              -0.044519448               0.199736109               0.000000000              -0.050710260               0.222833332               0.000000000              -0.056901071               0.245930554               0.000000000              -0.063091883               0.269027776               0.000000000              -0.069282695               0.292124999               0.000000000              -0.075473506               0.315222221               0.000000000              -0.081664318               0.338319444               0.000000000              -0.087855130               0.361416666               0.000000000              -0.094045942               0.384513888               0.000000000              -0.100236753               0.407611111               0.000000000              -0.106427565               0.430708333               0.000000000              -0.112618377               0.453805555               0.000000000              -0.118809188               0.476902778               0.000000000              -0.125000000               0.500000000               0.000000000              -0.013036280               0.132359569               0.000000000              -0.016127762               0.155337096               0.000000000              -0.019219245               0.178314623               0.000000000              -0.022310727               0.201292150               0.000000000              -0.025402210               0.224269676               0.000000000              -0.028493692               0.247247203               0.000000000              -0.031585175               0.270224730               0.000000000              -0.034676657               0.293202257               0.000000000              -0.037768140               0.316179784               0.000000000              -0.040859622               0.339157311               0.000000000              -0.043951105               0.362134838               0.000000000              -0.047042587               0.385112365               0.000000000              -0.050134070               0.408089892               0.000000000              -0.053225552               0.431067419               0.000000000              -0.056317035               0.454044946               0.000000000              -0.059408517               0.477022473               0.000000000              -0.062500000               0.500000000               0.000000000               0.000000000               0.133000000               0.000000000               0.000000000               0.155937500               0.000000000               0.000000000               0.178875000               0.000000000               0.000000000               0.201812500               0.000000000               0.000000000               0.224750000               0.000000000               0.000000000               0.247687500               0.000000000               0.000000000               0.270625000               0.000000000               0.000000000               0.293562500               0.000000000               0.000000000               0.316500000               0.000000000               0.000000000               0.339437500               0.000000000               0.000000000               0.362375000               0.000000000               0.000000000               0.385312500               0.000000000               0.000000000               0.408250000               0.000000000               0.000000000               0.431187500               0.000000000               0.000000000               0.454125000               0.000000000               0.000000000               0.477062500               0.000000000               0.000000000               0.500000000               0.000000000 </DataArray>
</Points>
<Cells>
<DataArray type="Int32"                                    Name="connectivity"                                                      NumberOfComponents=" 1" format="ascii">
         0          1         18         17          1          2         19         18          2          3         20         19          3          4         21         20          4          5         22         21          5          6         23         22          6          7         24         23          7          8         25         24          8          9         26         25          9         10         27         26         10         11         28         27         11         12         29         28         12         13         30         29         13         14         31         30         14         15         32         31         15         16         33         32         17         18         35         34         18         19         36         35         19         20         37         36         20         21         38         37         21         22         39         38         22         23         40         39         23         24         41         40         24         25         42         41         25         26         43         42         26         27         44         43         27         28         45         44         28         29         46         45         29         30         47         46         30         31         48         47         31         32         49         48         32         33         50         49         34         35         52         51         35         36         53         52         36         37         54         53         37         38         55         54         38         39         56         55         39         40         57         56         40         41         58         57         41         42         59         58         42         43         60         59         43         44         61         60         44         45         62         61         45         46         63         62         46         47         64         63         47         48         65         64         48         49         66         65         49         50         67         66         51         52         69         68         52         53         70         69         53         54         71         70         54         55         72         71         55         56         73         72         56         57         74         73         57         58         75         74         58         59         76         75         59         60         77         76         60         61         78         77         61         62         79         78         62         63         80         79         63         64         81         80         64         65         82         81         65         66         83         82         66         67         84         83         68         69         86         85         69         70         87         86         70         71         88         87         71         72         89         88         72         73         90         89         73         74         91         90         74         75         92         91         75         76         93         92         76         77         94         93         77         78         95         94         78         79         96         95         79         80         97         96         80         81         98         97         81         82         99         98         82         83        100         99         83         84        101        100         85         86        103        102         86         87        104        103         87         88        105        104         88         89        106        105         89         90        107        106         90         91        108        107         91         92        109        108         92         93        110        109         93         94        111        110         94         95        112        111         95         96        113        112         96         97        114        113         97         98        115        114         98         99        116        115         99        100        117        116        100        101        118        117        102        103        120        119        103        104        121        120        104        105        122        121        105        106        123        122        106        107        124        123        107        108        125        124        108        109        126        125        109        110        127        126        110        111        128        127        111        112        129        128        112        113        130        129        113        114        131        130        114        115        132        131        115        116        133        132        116        117        134        133        117        118        135        134        119        120        137        136        120        121        138        137        121        122        139        138        122        123        140        139        123        124        141        140        124        125        142        141        125        126        143        142        126        127        144        143        127        128        145        144        128        129        146        145        129        130        147        146        130        131        148        147        131        132        149        148        132        133        150        149        133        134        151        150        134        135        152        151        136        137        154        153        137        138        155        154        138        139        156        155        139        140        157        156        140        141        158        157        141        142        159        158        142        143        160        159        143        144        161        160        144        145        162        161        145        146        163        162        146        147        164        163        147        148        165        164        148        149        166        165        149        150        167        166        150        151        168        167        151        152        169        168        153        154        171        170        154        155        172        171        155        156        173        172        156        157        174        173        157        158        175        174        158        159        176        175        159        160        177        176        160        161        178        177        161        162        179        178        162        163        180        179        163        164        181        180        164        165        182        181        165        166        183        182        166        167        184        183        167        168        185        184        168        169        186        185        170        171        188        187        171        172        189        188        172        173        190        189        173        174        191        190        174        175        192        191        175        176        193        192        176        177        194        193        177        178        195        194        178        179        196        195        179        180        197        196        180        181        198        197        181        182        199        198        182        183        200        199        183        184        201        200        184        185        202        201        185        186        203        202        187        188        205        204        188        189        206        205        189        190        207        206        190        191        208        207        191        192        209        208        192        193        210        209        193        194        211        210        194        195        212        211        195        196        213        212        196        197        214        213        197        198        215        214        198        199        216        215        199        200        217        216        200        201        218        217        201        202        219        218        202        203        220        219        204        205        222        221        205        206        223        222        206        207        224        223        207        208        225        224        208        209        226        225        209        210        227        226        210        211        228        227        211        212        229        228        212        213        230        229        213        214        231        230        214        215        232        231        215        216        233        232        216        217        234        233        217        218        235        234        218        219        236        235        219        220        237        236        221        222        239        238        222        223        240        239        223        224        241        240        224        225        242        241        225        226        243        242        226        227        244        243        227        228        245        244        228        229        246        245        229        230        247        246        230        231        248        247        231        232        249        248        232        233        250        249        233        234        251        250        234        235        252        251        235        236        253        252        236        237        254        253        238        239        256        255        239        240        257        256        240        241        258        257        241        242        259        258        242        243        260        259        243        244        261        260        244        245        262        261        245        246        263        262        246        247        264        263        247        248        265        264        248        249        266        265        249        250        267        266        250        251        268        267        251        252        269        268        252        253        270        269        253        254        271        270        255        256        273        272        256        257        274        273        257        258        275        274        258        259        276        275        259        260        277        276        260        261        278        277        261        262        279        278        262        263        280        279        263        264        281        280        264        265        282        281        265        266        283        282        266        267        284        283        267        268        285        284        268        269        286        285        269        270        287        286        270        271        288        287        306        307          1          0        307        308          2          1        308        309          3          2        309        310          4          3        310        311          5          4        311        312          6          5        312        313          7          6        313        314          8          7        314        315          9          8        315        316         10          9        316        317         11         10        317        318         12         11        318        319         13         12        319        320         14         13        320        321         15         14        321        322         16         15        323        324        307        306        324        325        308        307        325        326        309        308        326        327        310        309        327        328        311        310        328        329        312        311        329        330        313        312        330        331        314        313        331        332        315        314        332        333        316        315        333        334        317        316        334        335        318        317        335        336        319        318        336        337        320        319        337        338        321        320        338        339        322        321        340        341        324        323        341        342        325        324        342        343        326        325        343        344        327        326        344        345        328        327        345        346        329        328        346        347        330        329        347        348        331        330        348        349        332        331        349        350        333        332        350        351        334        333        351        352        335        334        352        353        336        335        353        354        337        336        354        355        338        337        355        356        339        338        357        358        341        340        358        359        342        341        359        360        343        342        360        361        344        343        361        362        345        344        362        363        346        345        363        364        347        346        364        365        348        347        365        366        349        348        366        367        350        349        367        368        351        350        368        369        352        351        369        370        353        352        370        371        354        353        371        372        355        354        372        373        356        355        374        375        358        357        375        376        359        358        376        377        360        359        377        378        361        360        378        379        362        361        379        380        363        362        380        381        364        363        381        382        365        364        382        383        366        365        383        384        367        366        384        385        368        367        385        386        369        368        386        387        370        369        387        388        371        370        388        389        372        371        389        390        373        372        391        392        375        374        392        393        376        375        393        394        377        376        394        395        378        377        395        396        379        378        396        397        380        379        397        398        381        380        398        399        382        381        399        400        383        382        400        401        384        383        401        402        385        384        402        403        386        385        403        404        387        386        404        405        388        387        405        406        389        388        406        407        390        389        408        409        392        391        409        410        393        392        410        411        394        393        411        412        395        394        412        413        396        395        413        414        397        396        414        415        398        397        415        416        399        398        416        417        400        399        417        418        401        400        418        419        402        401        419        420        403        402        420        421        404        403        421        422        405        404        422        423        406        405        423        424        407        406        425        426        409        408        426        427        410        409        427        428        411        410        428        429        412        411        429        430        413        412        430        431        414        413        431        432        415        414        432        433        416        415        433        434        417        416        434        435        418        417        435        436        419        418        436        437        420        419        437        438        421        420        438        439        422        421        439        440        423        422        440        441        424        423        442        443        426        425        443        444        427        426        444        445        428        427        445        446        429        428        446        447        430        429        447        448        431        430        448        449        432        431        449        450        433        432        450        451        434        433        451        452        435        434        452        453        436        435        453        454        437        436        454        455        438        437        455        456        439        438        456        457        440        439        457        458        441        440        459        460        443        442        460        461        444        443        461        462        445        444        462        463        446        445        463        464        447        446        464        465        448        447        465        466        449        448        466        467        450        449        467        468        451        450        468        469        452        451        469        470        453        452        470        471        454        453        471        472        455        454        472        473        456        455        473        474        457        456        474        475        458        457        476        477        460        459        477        478        461        460        478        479        462        461        479        480        463        462        480        481        464        463        481        482        465        464        482        483        466        465        483        484        467        466        484        485        468        467        485        486        469        468        486        487        470        469        487        488        471        470        488        489        472        471        489        490        473        472        490        491        474        473        491        492        475        474        493        494        477        476        494        495        478        477        495        496        479        478        496        497        480        479        497        498        481        480        498        499        482        481        499        500        483        482        500        501        484        483        501        502        485        484        502        503        486        485        503        504        487        486        504        505        488        487        505        506        489        488        506        507        490        489        507        508        491        490        508        509        492        491        510        511        494        493        511        512        495        494        512        513        496        495        513        514        497        496        514        515        498        497        515        516        499        498        516        517        500        499        517        518        501        500        518        519        502        501        519        520        503        502        520        521        504        503        521        522        505        504        522        523        506        505        523        524        507        506        524        525        508        507        525        526        509        508        527        528        511        510        528        529        512        511        529        530        513        512        530        531        514        513        531        532        515        514        532        533        516        515        533        534        517        516        534        535        518        517        535        536        519        518        536        537        520        519        537        538        521        520        538        539        522        521        539        540        523        522        540        541        524        523        541        542        525        524        542        543        526        525        544        545        528        527        545        546        529        528        546        547        530        529        547        548        531        530        548        549        532        531        549        550        533        532        550        551        534        533        551        552        535        534        552        553        536        535        553        554        537        536        554        555        538        537        555        556        539        538        556        557        540        539        557        558        541        540        558        559        542        541        559        560        543        542        561        562        545        544        562        563        546        545        563        564        547        546        564        565        548        547        565        566        549        548        566        567        550        549        567        568        551        550        568        569        552        551        569        570        553        552        570        571        554        553        571        572        555        554        572        573        556        555        573        574        557        556        574        575        558        557        575        576        559        558        576        577        560        559        578        579        596        595        579        580        597        596        580        581        598        597        581        582        599        598        582        583        600        599        583        584        601        600        584        585        602        601        585        586        603        602        586        587        604        603        587        588        605        604        588        589        606        605        589        590        607        606        590        591        608        607        591        592        609        608        592        593        610        609        593        594        611        610        595        596        613        612        596        597        614        613        597        598        615        614        598        599        616        615        599        600        617        616        600        601        618        617        601        602        619        618        602        603        620        619        603        604        621        620        604        605        622        621        605        606        623        622        606        607        624        623        607        608        625        624        608        609        626        625        609        610        627        626        610        611        628        627        612        613        630        629        613        614        631        630        614        615        632        631        615        616        633        632        616        617        634        633        617        618        635        634        618        619        636        635        619        620        637        636        620        621        638        637        621        622        639        638        622        623        640        639        623        624        641        640        624        625        642        641        625        626        643        642        626        627        644        643        627        628        645        644        629        630        647        646        630        631        648        647        631        632        649        648        632        633        650        649        633        634        651        650        634        635        652        651        635        636        653        652        636        637        654        653        637        638        655        654        638        639        656        655        639        640        657        656        640        641        658        657        641        642        659        658        642        643        660        659        643        644        661        660        644        645        662        661        646        647        664        663        647        648        665        664        648        649        666        665        649        650        667        666        650        651        668        667        651        652        669        668        652        653        670        669        653        654        671        670        654        655        672        671        655        656        673        672        656        657        674        673        657        658        675        674        658        659        676        675        659        660        677        676        660        661        678        677        661        662        679        678        663        664        681        680        664        665        682        681        665        666        683        682        666        667        684        683        667        668        685        684        668        669        686        685        669        670        687        686        670        671        688        687        671        672        689        688        672        673        690        689        673        674        691        690        674        675        692        691        675        676        693        692        676        677        694        693        677        678        695        694        678        679        696        695        680        681        698        697        681        682        699        698        682        683        700        699        683        684        701        700        684        685        702        701        685        686        703        702        686        687        704        703        687        688        705        704        688        689        706        705        689        690        707        706        690        691        708        707        691        692        709        708        692        693        710        709        693        694        711        710        694        695        712        711        695        696        713        712        697        698        715        714        698        699        716        715        699        700        717        716        700        701        718        717        701        702        719        718        702        703        720        719        703        704        721        720        704        705        722        721        705        706        723        722        706        707        724        723        707        708        725        724        708        709        726        725        709        710        727        726        710        711        728        727        711        712        729        728        712        713        730        729        714        715        732        731        715        716        733        732        716        717        734        733        717        718        735        734        718        719        736        735        719        720        737        736        720        721        738        737        721        722        739        738        722        723        740        739        723        724        741        740        724        725        742        741        725        726        743        742        726        727        744        743        727        728        745        744        728        729        746        745        729        730        747        746        731        732        749        748        732        733        750        749        733        734        751        750        734        735        752        751        735        736        753        752        736        737        754        753        737        738        755        754        738        739        756        755        739        740        757        756        740        741        758        757        741        742        759        758        742        743        760        759        743        744        761        760        744        745        762        761        745        746        763        762        746        747        764        763        748        749        766        765        749        750        767        766        750        751        768        767        751        752        769        768        752        753        770        769        753        754        771        770        754        755        772        771        755        756        773        772        756        757        774        773        757        758        775        774        758        759        776        775        759        760        777        776        760        761        778        777        761        762        779        778        762        763        780        779        763        764        781        780        765        766        783        782        766        767        784        783        767        768        785        784        768        769        786        785        769        770        787        786        770        771        788        787        771        772        789        788        772        773        790        789        773        774        791        790        774        775        792        791        775        776        793        792        776        777        794        793        777        778        795        794        778        779        796        795        779        780        797        796        780        781        798        797        782        783        800        799        783        784        801        800        784        785        802        801        785        786        803        802        786        787        804        803        787        788        805        804        788        789        806        805        789        790        807        806        790        791        808        807        791        792        809        808        792        793        810        809        793        794        811        810        794        795        812        811        795        796        813        812        796        797        814        813        797        798        815        814        799        800        817        816        800        801        818        817        801        802        819        818        802        803        820        819        803        804        821        820        804        805        822        821        805        806        823        822        806        807        824        823        807        808        825        824        808        809        826        825        809        810        827        826        810        811        828        827        811        812        829        828        812        813        830        829        813        814        831        830        814        815        832        831        816        817        834        833        817        818        835        834        818        819        836        835        819        820        837        836        820        821        838        837        821        822        839        838        822        823        840        839        823        824        841        840        824        825        842        841        825        826        843        842        826        827        844        843        827        828        845        844        828        829        846        845        829        830        847        846        830        831        848        847        831        832        849        848        833        834        562        561        834        835        563        562        835        836        564        563        836        837        565        564        837        838        566        565        838        839        567        566        839        840        568        567        840        841        569        568        841        842        570        569        842        843        571        570        843        844        572        571        844        845        573        572        845        846        574        573        846        847        575        574        847        848        576        575        848        849        577        576        884        885        579        578        885        886        580        579        886        887        581        580        887        888        582        581        888        889        583        582        889        890        584        583        890        891        585        584        891        892        586        585        892        893        587        586        893        894        588        587        894        895        589        588        895        896        590        589        896        897        591        590        897        898        592        591        898        899        593        592        899        900        594        593        901        902        885        884        902        903        886        885        903        904        887        886        904        905        888        887        905        906        889        888        906        907        890        889        907        908        891        890        908        909        892        891        909        910        893        892        910        911        894        893        911        912        895        894        912        913        896        895        913        914        897        896        914        915        898        897        915        916        899        898        916        917        900        899        918        919        902        901        919        920        903        902        920        921        904        903        921        922        905        904        922        923        906        905        923        924        907        906        924        925        908        907        925        926        909        908        926        927        910        909        927        928        911        910        928        929        912        911        929        930        913        912        930        931        914        913        931        932        915        914        932        933        916        915        933        934        917        916        935        936        919        918        936        937        920        919        937        938        921        920        938        939        922        921        939        940        923        922        940        941        924        923        941        942        925        924        942        943        926        925        943        944        927        926        944        945        928        927        945        946        929        928        946        947        930        929        947        948        931        930        948        949        932        931        949        950        933        932        950        951        934        933        952        953        936        935        953        954        937        936        954        955        938        937        955        956        939        938        956        957        940        939        957        958        941        940        958        959        942        941        959        960        943        942        960        961        944        943        961        962        945        944        962        963        946        945        963        964        947        946        964        965        948        947        965        966        949        948        966        967        950        949        967        968        951        950        969        970        953        952        970        971        954        953        971        972        955        954        972        973        956        955        973        974        957        956        974        975        958        957        975        976        959        958        976        977        960        959        977        978        961        960        978        979        962        961        979        980        963        962        980        981        964        963        981        982        965        964        982        983        966        965        983        984        967        966        984        985        968        967        986        987        970        969        987        988        971        970        988        989        972        971        989        990        973        972        990        991        974        973        991        992        975        974        992        993        976        975        993        994        977        976        994        995        978        977        995        996        979        978        996        997        980        979        997        998        981        980        998        999        982        981        999       1000        983        982       1000       1001        984        983       1001       1002        985        984       1003       1004        987        986       1004       1005        988        987       1005       1006        989        988       1006       1007        990        989       1007       1008        991        990       1008       1009        992        991       1009       1010        993        992       1010       1011        994        993       1011       1012        995        994       1012       1013        996        995       1013       1014        997        996       1014       1015        998        997       1015       1016        999        998       1016       1017       1000        999       1017       1018       1001       1000       1018       1019       1002       1001       1020       1021       1004       1003       1021       1022       1005       1004       1022       1023       1006       1005       1023       1024       1007       1006       1024       1025       1008       1007       1025       1026       1009       1008       1026       1027       1010       1009       1027       1028       1011       1010       1028       1029       1012       1011       1029       1030       1013       1012       1030       1031       1014       1013       1031       1032       1015       1014       1032       1033       1016       1015       1033       1034       1017       1016       1034       1035       1018       1017       1035       1036       1019       1018       1037       1038       1021       1020       1038       1039       1022       1021       1039       1040       1023       1022       1040       1041       1024       1023       1041       1042       1025       1024       1042       1043       1026       1025       1043       1044       1027       1026       1044       1045       1028       1027       1045       1046       1029       1028       1046       1047       1030       1029       1047       1048       1031       1030       1048       1049       1032       1031       1049       1050       1033       1032       1050       1051       1034       1033       1051       1052       1035       1034       1052       1053       1036       1035       1054       1055       1038       1037       1055       1056       1039       1038       1056       1057       1040       1039       1057       1058       1041       1040       1058       1059       1042       1041       1059       1060       1043       1042       1060       1061       1044       1043       1061       1062       1045       1044       1062       1063       1046       1045       1063       1064       1047       1046       1064       1065       1048       1047       1065       1066       1049       1048       1066       1067       1050       1049       1067       1068       1051       1050       1068       1069       1052       1051       1069       1070       1053       1052       1071       1072       1055       1054       1072       1073       1056       1055       1073       1074       1057       1056       1074       1075       1058       1057       1075       1076       1059       1058       1076       1077       1060       1059       1077       1078       1061       1060       1078       1079       1062       1061       1079       1080       1063       1062       1080       1081       1064       1063       1081       1082       1065       1064       1082       1083       1066       1065       1083       1084       1067       1066       1084       1085       1068       1067       1085       1086       1069       1068       1086       1087       1070       1069       1088       1089       1072       1071       1089       1090       1073       1072       1090       1091       1074       1073       1091       1092       1075       1074       1092       1093       1076       1075       1093       1094       1077       1076       1094       1095       1078       1077       1095       1096       1079       1078       1096       1097       1080       1079       1097       1098       1081       1080       1098       1099       1082       1081       1099       1100       1083       1082       1100       1101       1084       1083       1101       1102       1085       1084       1102       1103       1086       1085       1103       1104       1087       1086       1105       1106       1089       1088       1106       1107       1090       1089       1107       1108       1091       1090       1108       1109       1092       1091       1109       1110       1093       1092       1110       1111       1094       1093       1111       1112       1095       1094       1112       1113       1096       1095       1113       1114       1097       1096       1114       1115       1098       1097       1115       1116       1099       1098       1116       1117       1100       1099       1117       1118       1101       1100       1118       1119       1102       1101       1119       1120       1103       1102       1120       1121       1104       1103       1122       1123       1106       1105       1123       1124       1107       1106       1124       1125       1108       1107       1125       1126       1109       1108       1126       1127       1110       1109       1127       1128       1111       1110       1128       1129       1112       1111       1129       1130       1113       1112       1130       1131       1114       1113       1131       1132       1115       1114       1132       1133       1116       1115       1133       1134       1117       1116       1134       1135       1118       1117       1135       1136       1119       1118       1136       1137       1120       1119       1137       1138       1121       1120        272        273       1123       1122        273        274       1124       1123        274        275       1125       1124        275        276       1126       1125        276        277       1127       1126        277        278       1128       1127        278        279       1129       1128        279        280       1130       1129        280        281       1131       1130        281        282       1132       1131        282        283       1133       1132        283        284       1134       1133        284        285       1135       1134        285        286       1136       1135        286        287       1137       1136        287        288       1138       1137 </DataArray>
<DataArray type="Int32"                                    Name="offsets"                                                      NumberOfComponents=" 1" format="ascii">
         4          8         12         16         20         24         28         32         36         40         44         48         52         56         60         64         68         72         76         80         84         88         92         96        100        104        108        112        116        120        124        128        132        136        140        144        148        152        156        160        164        168        172        176        180        184        188        192        196        200        204        208        212        216        220        224        228        232        236        240        244        248        252        256        260        264        268        272        276        280        284        288        292        296        300        304        308        312        316        320        324        328        332        336        340        344        348        352        356        360        364        368        372        376        380        384        388        392        396        400        404        408        412        416        420        424        428        432        436        440        444        448        452        456        460        464        468        472        476        480        484        488        492        496        500        504        508        512        516        520        524        528        532        536        540        544        548        552        556        560        564        568        572        576        580        584        588        592        596        600        604        608        612        616        620        624        628        632        636        640        644        648        652        656        660        664        668        672        676        680        684        688        692        696        700        704        708        712        716        720        724        728        732        736        740        744        748        752        756        760        764        768        772        776        780        784        788        792        796        800        804        808        812        816        820        824        828        832        836        840        844        848        852        856        860        864        868        872        876        880        884        888        892        896        900        904        908        912        916        920        924        928        932        936        940        944        948        952        956        960        964        968        972        976        980        984        988        992        996       1000       1004       1008       1012       1016       1020       1024       1028       1032       1036       1040       1044       1048       1052       1056       1060       1064       1068       1072       1076       1080       1084       1088       1092       1096       1100       1104       1108       1112       1116       1120       1124       1128       1132       1136       1140       1144       1148       1152       1156       1160       1164       1168       1172       1176       1180       1184       1188       1192       1196       1200       1204       1208       1212       1216       1220       1224       1228       1232       1236       1240       1244       1248       1252       1256       1260       1264       1268       1272       1276       1280       1284       1288       1292       1296       1300       1304       1308       1312       1316       1320       1324       1328       1332       1336       1340       1344       1348       1352       1356       1360       1364       1368       1372       1376       1380       1384       1388       1392       1396       1400       1404       1408       1412       1416       1420       1424       1428       1432       1436       1440       1444       1448       1452       1456       1460       1464       1468       1472       1476       1480       1484       1488       1492       1496       1500       1504       1508       1512       1516       1520       1524       1528       1532       1536       1540       1544       1548       1552       1556       1560       1564       1568       1572       1576       1580       1584       1588       1592       1596       1600       1604       1608       1612       1616       1620       1624       1628       1632       1636       1640       1644       1648       1652       1656       1660       1664       1668       1672       1676       1680       1684       1688       1692       1696       1700       1704       1708       1712       1716       1720       1724       1728       1732       1736       1740       1744       1748       1752       1756       1760       1764       1768       1772       1776       1780       1784       1788       1792       1796       1800       1804       1808       1812       1816       1820       1824       1828       1832       1836       1840       1844       1848       1852       1856       1860       1864       1868       1872       1876       1880       1884       1888       1892       1896       1900       1904       1908       1912       1916       1920       1924       1928       1932       1936       1940       1944       1948       1952       1956       1960       1964       1968       1972       1976       1980       1984       1988       1992       1996       2000       2004       2008       2012       2016       2020       2024       2028       2032       2036       2040       2044       2048       2052       2056       2060       2064       2068       2072       2076       2080       2084       2088       2092       2096       2100       2104       2108       2112       2116       2120       2124       2128       2132       2136       2140       2144       2148       2152       2156       2160       2164       2168       2172       2176       2180       2184       2188       2192       2196       2200       2204       2208       2212       2216       2220       2224       2228       2232       2236       2240       2244       2248       2252       2256       2260       2264       2268       2272       2276       2280       2284       2288       2292       2296       2300       2304       2308       2312       2316       2320       2324       2328       2332       2336       2340       2344       2348       2352       2356       2360       2364       2368       2372       2376       2380       2384       2388       2392       2396       2400       2404       2408       2412       2416       2420       2424       2428       2432       2436       2440       2444       2448       2452       2456       2460       2464       2468       2472       2476       2480       2484       2488       2492       2496       2500       2504       2508       2512       2516       2520       2524       2528       2532       2536       2540       2544       2548       2552       2556       2560       2564       2568       2572       2576       2580       2584       2588       2592       2596       2600       2604       2608       2612       2616       2620       2624       2628       2632       2636       2640       2644       2648       2652       2656       2660       2664       2668       2672       2676       2680       2684       2688       2692       2696       2700       2704       2708       2712       2716       2720       2724       2728       2732       2736       2740       2744       2748       2752       2756       2760       2764       2768       2772       2776       2780       2784       2788       2792       2796       2800       2804       2808       2812       2816       2820       2824       2828       2832       2836       2840       2844       2848       2852       2856       2860       2864       2868       2872       2876       2880       2884       2888       2892       2896       2900       2904       2908       2912       2916       2920       2924       2928       2932       2936       2940       2944       2948       2952       2956       2960       2964       2968       2972       2976       2980       2984       2988       2992       2996       3000       3004       3008       3012       3016       3020       3024       3028       3032       3036       3040       3044       3048       3052       3056       3060       3064       3068       3072       3076       3080       3084       3088       3092       3096       3100       3104       3108       3112       3116       3120       3124       3128       3132       3136       3140       3144       3148       3152       3156       3160       3164       3168       3172       3176       3180       3184       3188       3192       3196       3200       3204       3208       3212       3216       3220       3224       3228       3232       3236       3240       3244       3248       3252       3256       3260       3264       3268       3272       3276       3280       3284       3288       3292       3296       3300       3304       3308       3312       3316       3320       3324       3328       3332       3336       3340       3344       3348       3352       3356       3360       3364       3368       3372       3376       3380       3384       3388       3392       3396       3400       3404       3408       3412       3416       3420       3424       3428       3432       3436       3440       3444       3448       3452       3456       3460       3464       3468       3472       3476       3480       3484       3488       3492       3496       3500       3504       3508       3512       3516       3520       3524       3528       3532       3536       3540       3544       3548       3552       3556       3560       3564       3568       3572       3576       3580       3584       3588       3592       3596       3600       3604       3608       3612       3616       3620       3624       3628       3632       3636       3640       3644       3648       3652       3656       3660       3664       3668       3672       3676       3680       3684       3688       3692       3696       3700       3704       3708       3712       3716       3720       3724       3728       3732       3736       3740       3744       3748       3752       3756       3760       3764       3768       3772       3776       3780       3784       3788       3792       3796       3800       3804       3808       3812       3816       3820       3824       3828       3832       3836       3840       3844       3848       3852       3856       3860       3864       3868       3872       3876       3880       3884       3888       3892       3896       3900       3904       3908       3912       3916       3920       3924       3928       3932       3936       3940       3944       3948       3952       3956       3960       3964       3968       3972       3976       3980       3984       3988       3992       3996       4000       4004       4008       4012       4016       4020       4024       4028       4032       4036       4040       4044       4048       4052       4056       4060       4064       4068       4072       4076       4080       4084       4088       4092       4096 </DataArray>
<DataArray type="UInt8"                                    Name="types"                                                      NumberOfComponents=" 1" format="ascii">
         9          9          9          9          9          9          9          9          9          9          9          9          9          9          9          9          9          9          9          9          9          9          9          9          9          9          9          9          9          9          9          9          9          9          9          9          9          9          9          9          9          9          9          9          9          9          9          9          9          9          9          9          9          9          9          9          9          9          9          9          9          9          9          9          9          9          9          9          9          9          9          9          9          9          9          9          9          9          9          9          9          9          9          9          9          9          9          9          9          9          9          9          9          9          9          9          9          9          9          9          9          9          9          9          9          9          9          9          9          9          9          9          9          9          9          9          9          9          9          9          9          9          9          9          9          9          9          9          9          9          9          9          9          9          9          9          9          9          9          9          9          9          9          9          9          9          9          9          9          9          9          9          9          9          9          9          9          9          9          9          9          9          9          9          9          9          9          9          9          9          9          9          9          9          9          9          9          9          9          9          9          9          9          9          9          9          9          9          9          9          9          9          9          9          9          9          9          9          9          9          9          9          9          9          9          9          9          9          9          9          9          9          9          9          9          9          9          9          9          9          9          9          9          9          9          9          9          9          9          9          9          9          9          9          9          9          9          9          9          9          9          9          9          9          9          9          9          9          9          9          9          9          9          9          9          9          9          9          9          9          9          9          9          9          9          9          9          9          9          9          9          9          9          9          9          9          9          9          9          9          9          9          9          9          9          9          9          9          9          9          9          9          9          9          9          9          9          9          9          9          9          9          9          9          9          9          9          9          9          9          9          9          9          9          9          9          9          9          9          9          9          9          9          9          9          9          9          9          9          9          9          9          9          9          9          9          9          9          9          9          9          9          9          9          9          9          9          9          9          9          9          9          9          9          9          9          9          9          9          9          9          9          9          9          9          9          9          9          9          9          9          9          9          9          9          9          9          9          9          9          9          9          9          9          9          9          9          9          9          9          9          9          9          9          9          9          9          9          9          9          9          9          9          9          9          9          9          9          9          9          9          9          9          9          9          9          9          9          9          9          9          9          9          9          9          9          9          9          9          9          9          9          9          9          9          9          9          9          9          9          9          9          9          9          9          9          9          9          9          9          9          9          9          9          9          9          9          9          9          9          9          9          9          9          9          9          9          9          9          9          9          9          9          9          9          9          9          9          9          9          9          9          9          9          9          9          9          9          9          9          9          9          9          9          9          9          9          9          9          9          9          9          9          9          9          9          9          9          9          9          9          9          9          9          9          9          9          9          9          9          9          9          9          9          9          9          9          9          9          9          9          9          9          9          9          9          9          9          9          9          9          9          9          9          9          9          9          9          9          9          9          9          9          9          9          9          9          9          9          9          9          9          9          9          9          9          9          9          9          9          9          9          9          9          9          9          9          9          9          9          9          9          9          9          9          9          9          9          9          9          9          9          9          9          9          9          9          9          9          9          9          9          9          9          9          9          9          9          9          9          9          9          9          9          9          9          9          9          9          9          9          9          9          9          9          9          9          9          9          9          9          9          9          9          9          9          9          9          9          9          9          9          9          9          9          9          9          9          9          9          9          9          9          9          9          9          9          9          9          9          9          9          9          9          9          9          9          9          9          9          9          9          9          9          9          9          9          9          9          9          9          9          9          9          9          9          9          9          9          9          9          9          9          9          9          9          9          9          9          9          9          9          9          9          9          9          9          9          9          9          9          9          9          9          9          9          9          9          9          9          9          9          9          9          9          9          9          9          9          9          9          9          9          9          9          9          9          9          9          9          9          9          9          9          9          9          9          9          9          9          9          9          9          9          9          9          9          9          9          9          9          9          9          9          9          9          9          9          9          9          9          9          9          9          9          9          9          9          9          9          9          9          9          9          9          9          9          9          9          9          9          9          9          9          9          9          9          9          9          9          9          9          9          9          9          9          9          9          9          9          9          9          9          9          9          9          9          9          9          9          9          9          9          9          9          9          9          9          9          9          9          9          9          9          9          9          9          9          9          9          9          9          9          9          9          9          9          9          9          9          9          9          9          9          9          9          9          9          9          9          9          9          9          9          9          9          9          9          9          9          9          9          9          9          9          9          9          9          9          9          9          9          9          9          9          9          9          9          9          9          9          9          9          9          9          9          9          9          9          9          9          9          9          9          9          9          9          9          9          9          9          9          9          9          9          9          9          9          9          9          9          9          9          9          9          9          9          9          9          9          9          9          9          9          9          9          9          9          9          9          9          9          9          9          9          9          9          9          9          9          9          9          9          9          9          9          9          9          9          9          9          9          9          9          9          9          9          9          9          9          9          9          9          9          9          9          9          9          9          9          9          9          9          9          9          9          9          9          9          9          9          9          9          9          9          9          9          9          9          9          9          9          9          9          9          9          9          9          9          9          9          9          9          9          9          9          9          9          9          9          9          9          9          9 </DataArray>
</Cells>
<CellData>
<DataArray type="Int32"                                    Name="material"                                                      NumberOfComponents=" 1" format="ascii">
         1          1          1          1          1          1          1          1          1          1          1          1          1          1          1          1          1          1          1          1          1          1          1          1          1          1          1          1          1          1          1          1          1          1          1          1          1          1          1          1          1          1          1          1          1          1          1          1          1          1          1          1          1          1          1          1          1          1          1          1          1          1          1          1          1          1          1          1          1          1          1          1          1          1          1          1          1          1          1          1          1          1          1          1          1          1          1          1          1          1          1          1          1          1          1          1          1          1          1          1          1          1          1          1          1          1          1          1          1          1          1          1          1          1          1          1          1          1          1          1          1          1          1          1          1          1          1          1          1          1          1          1          1          1          1          1          1          1          1          1          1          1          1          1          1          1          1          1          1          1          1          1          1          1          1          1          1          1          1          1          1          1          1          1          1          1          1          1          1          1          1          1          1          1          1          1          1          1          1          1          1          1          1          1          1          1          1          1          1          1          1          1          1          1          1          1          1          1          1          1          1          1          1          1          1          1          1          1          1          1          1          1          1          1          1          1          1          1          1          1          1          1          1          1          1          1          1          1          1          1          1          1          1          1          1          1          1          1          1          1          1          1          1          1          1          1          1          1          1          1          1          1          1          1          1          1          1          1          1          1          1          1          1          1          1          1          1          1          1          1          1          1          1          1          1          1          1          1          1          1          1          1          1          1          1          1          1          1          1          1          1          1          1          1          1          1          1          1          1          1          1          1          1          1          1          1          1          1          1          1          1          1          1          1          1          1          1          1          1          1          1          1          1          1          1          1          1          1          1          1          1          1          1          1          1          1          1          1          1          1          1          1          1          1          1          1          1          1          1          1          1          1          1          1          1          1          1          1          1          1          1          1          1          1          1          1          1          1          1          1          1          1          1          1          1          1          1          1          1          1          1          1          1          1          1          1          1          1          1          1          1          1          1          1          1          1          1          1          1          1          1          1          1          1          1          1          1          1          1          1          1          1          1          1          1          1          1          1          1          1          1          1          1          1          1          1          1          1          1          1          1          1          1          1          1          1          1          1          1          1          1          1          1          1          1          1          1          1          1          1          1          1          1          1          1          1          1          1          1          1          1          1          1          1          1          1          1          1          1          1          1          1          1          1          1          1          1          1          1          1          1          1          1          1          1          1          1          1          1          1          1          1          1          1          1          1          1          1          1          1          1          1          1          1          1          1          1          1          1          1          1          1          1          1          1          1          1          1          1          1          1          1          1          1          1          1          1          1          1          1          1          1          1          1          1          1          1          1          1          1          1          1          1          1          1          1          1          1          1          1          1          1          1          1          1          1          1          1          1          1          1          1          1          1          1          1          1          1          1          1          1          1          1          1          1          1          1          1          1          1          1          1          1          1          1          1          1          1          1          1          1          1          1          1          1          1          1          1          1          1          1          1          1          1          1          1          1          1          1          1          1          1          1          1          1          1          1          1          1          1          1          1          1          1          1          1          1          1          1          1          1          1          1          1          1          1          1          1          1          1          1          1          1          1          1          1          1          1          1          1          1          1          1          1          1          1          1          1          1          1          1          1          1          1          1          1          1          1          1          1          1          1          1          1          1          1          1          1          1          1          1          1          1          1          1          1          1          1          1          1          1          1          1          1          1          1          1          1          1          1          1          1          1          1          1          1          1          1          1          1          1          1          1          1          1          1          1          1          1          1          1          1          1          1          1          1          1          1          1          1          1          1          1          1          1          1          1          1          1          1          1          1          1          1          1          1          1          1          1          1          1          1          1          1          1          1          1          1          1          1          1          1          1          1          1          1          1          1          1          1          1          1          1          1          1          1          1          1          1          1          1          1          1          1          1          1          1          1          1          1          1          1          1          1          1          1          1          1          1          1          1          1          1          1          1          1          1          1          1          1          1          1          1          1          1          1          1          1          1          1          1          1          1          1          1          1          1          1          1          1          1          1          1          1          1          1          1          1          1          1          1          1          1          1          1          1          1          1          1          1          1          1          1          1          1          1          1          1          1          1          1          1          1          1          1          1          1          1          1          1          1          1          1          1          1          1          1          1          1          1          1          1          1          1          1          1          1          1          1          1          1          1          1          1          1          1          1          1          1          1          1          1          1          1          1          1          1          1          1          1          1          1          1          1          1          1          1          1          1          1          1          1          1          1          1          1          1          1          1          1          1          1          1          1          1          1          1          1          1          1          1          1          1          1          1          1          1          1          1          1          1          1          1          1          1          1          1          1          1          1          1          1          1          1          1          1          1          1          1          1          1          1          1          1          1          1          1          1          1          1          1          1          1          1          1          1          1          1          1          1          1          1          1          1          1          1          1          1          1          1          1          1          1          1          1          1          1          1          1          1          1          1          1          1          1          1          1          1          1          1          1          1          1          1 </DataArray>
</CellData>
<PointData>
<DataArray type="Float64"                                    Name="u"                                                      NumberOfComponents=" 3" format="ascii">
              0.000007621               0.000000000               0.999999999               0.000003164               0.000000000               0.999999999               0.000001024               0.000000000               0.999999999              -0.000000047               0.000000000               0.999999999              -0.000000621               0.000000000               0.999999999              -0.000000860               0.000000000               0.999999999              -0.000000942               0.000000000               0.999999999              -0.000001037               0.000000000               0.999999999              -0.000001233               0.000000000               0.999999999              -0.000001694               0.000000000               0.999999999              -0.000002497              -0.000000000               0.999999999              -0.000003621              -0.000000000               0.999999999              -0.000005064              -0.000000000               0.999999999              -0.000006934              -0.000000000               0.999999999              -0.000009358              -0.000000000               0.999999999              -0.000012327              -0.000000000               0.999999999              -0.000015848              -0.000000000               0.999999999               0.000007512               0.000010918               0.999999999               0.000003217               0.000009984               0.999999999               0.000001173               0.000009794               0.999999999               0.000000095               0.000010050               0.999999999              -0.000000475               0.000010515               0.999999999              -0.000000797               0.000011120               0.999999999              -0.000001015               0.000011929               0.999999999              -0.000001243               0.000012948               0.999999999              -0.000001664               0.000014287               0.999999999              -0.000002365               0.000015864               0.999999999              -0.000003359               0.000017541               0.999999999              -0.000004671               0.000019266               0.999999999              -0.000006384               0.000021250               0.999999999              -0.000008536               0.000023435               0.999999999              -0.000011114               0.000025764               0.999999999              -0.000014223               0.000028363               0.999999999              -0.000017915               0.000031247               0.999999999               0.000007309               0.000021754               0.999999999               0.000003393               0.000019823               0.999999999               0.000001545               0.000019525               0.999999999               0.000000529               0.000020065               0.999999999              -0.000000118               0.000021074               0.999999999              -0.000000655               0.000022414               0.999999999              -0.000001188               0.000024062               0.999999999              -0.000001890               0.000026239               0.999999999              -0.000002885               0.000028942               0.999999999              -0.000004178               0.000032043               0.999999999              -0.000005830               0.000035318               0.999999999              -0.000007767               0.000038702               0.999999999              -0.000010037               0.000042597               0.999999999              -0.000012768               0.000046797               0.999999999              -0.000015948               0.000051286               0.999999999              -0.000019589               0.000056194               0.999999999              -0.000023696               0.000061489               0.999999999               0.000006972               0.000032354               0.999999999               0.000003678               0.000029431               0.999999999               0.000002117               0.000029079               0.999999999               0.000001148               0.000030063               0.999999999               0.000000315               0.000031709               0.999999999              -0.000000510               0.000033905               0.999999999              -0.000001546               0.000036615               0.999999999              -0.000002930               0.000040050               0.999999999              -0.000004671               0.000044212               0.999999999              -0.000006806               0.000048795               0.999999999              -0.000009220               0.000053564               0.999999999              -0.000011926               0.000058573               0.999999999              -0.000015031               0.000064228               0.999999999              -0.000018521               0.000070293               0.999999999              -0.000022341               0.000076767               0.999999999              -0.000026557               0.000083722               0.999999999              -0.000031233               0.000091018               0.999999999               0.000006474               0.000042574               0.999999999               0.000004082               0.000038723               0.999999999               0.000002803               0.000038436               0.999999999               0.000001783               0.000039956               0.999999999               0.000000760               0.000042400               0.999999999              -0.000000499               0.000045617               0.999999999              -0.000002137               0.000049571               0.999999999              -0.000004250               0.000054491               0.999999999              -0.000006867               0.000060109               0.999999999              -0.000009810               0.000066238               0.999999999              -0.000013070               0.000072403               0.999999999              -0.000016644               0.000079095               0.999999999              -0.000020548               0.000086499               0.999999999              -0.000024816               0.000094386               0.999999999              -0.000029434               0.000102764               0.999999999              -0.000034516               0.000111709               0.999999999              -0.000040086               0.000121215               0.999999999               0.000005913               0.000052372               0.999999999               0.000004509               0.000047621               0.999999999               0.000003467               0.000047537               0.999999999               0.000002341               0.000049674               0.999999999               0.000000979               0.000053062               0.999999999              -0.000000759               0.000057445               0.999999999              -0.000003023               0.000062830               0.999999999              -0.000005907               0.000069358               0.999999999              -0.000009275               0.000076630               0.999999999              -0.000013015               0.000084230               0.999999999              -0.000017080               0.000092088               0.999999999              -0.000021445               0.000100621               0.999999999              -0.000026220               0.000109900               0.999999999              -0.000031451               0.000119804               0.999999999              -0.000037170               0.000130419               0.999999999              -0.000043351               0.000141695               0.999999999              -0.000049955               0.000153667               0.999999999               0.000005285               0.000061660               0.999999999               0.000004950               0.000056110               0.999999999               0.000004054               0.000056325               0.999999999               0.000002687               0.000059188               0.999999999               0.000000921               0.000063593               0.999999999              -0.000001343               0.000069249               0.999999999              -0.000004307               0.000076269               0.999999999              -0.000007931               0.000084482               0.999999999              -0.000012031               0.000093401               0.999999999              -0.000016447               0.000102806               0.999999999              -0.000021180               0.000112623               0.999999999              -0.000026328               0.000123418               0.999999999              -0.000031934               0.000135211               0.999999999              -0.000038049               0.000147727               0.999999999              -0.000044701               0.000161100               0.999999999              -0.000051896               0.000175262               0.999999999              -0.000059562               0.000190140               0.999999999               0.000004578               0.000070283               0.999999999               0.000005393               0.000064170               0.999999999               0.000004479               0.000064790               0.999999999               0.000002810               0.000068444               0.999999999               0.000000624               0.000073955               0.999999999              -0.000002254               0.000081039               0.999999999              -0.000005950               0.000089758               0.999999999              -0.000010307               0.000099716               0.999999999              -0.000015035               0.000110506               0.999999999              -0.000019994               0.000121996               0.999999999              -0.000025257               0.000134441               0.999999999              -0.000030968               0.000148187               0.999999999              -0.000037246               0.000163072               0.999999999              -0.000044177               0.000178823               0.999999999              -0.000051744               0.000195513               0.999999999              -0.000059901               0.000213139               0.999999999              -0.000068504               0.000231574               0.999999999               0.000003811               0.000078104               0.999999999               0.000005771               0.000071778               0.999999999               0.000004721               0.000072890               0.999999999               0.000002754               0.000077382               0.999999999               0.000000117               0.000084116               0.999999999              -0.000003370               0.000092825               0.999999999              -0.000007796               0.000103341               0.999999999              -0.000012737               0.000115245               0.999999999              -0.000017898               0.000128265               0.999999999              -0.000023144               0.000142563               0.999999999              -0.000028757               0.000158237               0.999999999              -0.000035176               0.000175326               0.999999999              -0.000042277               0.000193765               0.999999999              -0.000049991               0.000213231               0.999999999              -0.000058339               0.000233793               0.999999999              -0.000067149               0.000255383               0.999999999              -0.000076329               0.000277648               0.999999999               0.000002938               0.000085388               0.999999999               0.000005867               0.000079510               0.999999999               0.000005266               0.000079903               0.999999999               0.000003602               0.000083670               0.999999999               0.000001367               0.000089606               0.999999999              -0.000001557               0.000097389               0.999999999              -0.000005347               0.000106851               0.999999999              -0.000009603               0.000117845               0.999999999              -0.000014055               0.000130094               0.999999999              -0.000018577               0.000143513               0.999999999              -0.000023213               0.000158115               0.999999999              -0.000028259               0.000174058               0.999999999              -0.000033931               0.000191243               0.999999999              -0.000040059               0.000209578               0.999999999              -0.000046592               0.000228883               0.999999999              -0.000053773               0.000249211               0.999999999              -0.000061386               0.000270508               0.999999999               0.000002142               0.000091880               0.999999999               0.000005648               0.000086847               0.999999999               0.000005541               0.000086903               0.999999999               0.000004265               0.000090065               0.999999999               0.000002455               0.000095332               0.999999999               0.000000054               0.000102318               0.999999999              -0.000003005               0.000110913               0.999999999              -0.000006535               0.000120972               0.999999999              -0.000010416               0.000132371               0.999999999              -0.000014377               0.000144998               0.999999999              -0.000018210               0.000158825               0.999999999              -0.000022142               0.000173753               0.999999999              -0.000026526               0.000189773               0.999999999              -0.000031224               0.000206909               0.999999999              -0.000036154               0.000225010               0.999999999              -0.000041618               0.000244076               0.999999999              -0.000047636               0.000264026               0.999999999               0.000001459               0.000097513               0.999999999               0.000005137               0.000093571               0.999999999               0.000005450               0.000093621               0.999999999               0.000004618               0.000096369               0.999999999               0.000003224               0.000101084               0.999999999               0.000001372               0.000107468               0.999999999              -0.000001050               0.000115322               0.999999999              -0.000003890               0.000124528               0.999999999              -0.000007171               0.000135165               0.999999999              -0.000010504               0.000147113               0.999999999              -0.000013711               0.000160192               0.999999999              -0.000016831               0.000174295               0.999999999              -0.000020056               0.000189421               0.999999999              -0.000023492               0.000205495               0.999999999              -0.000027120               0.000222481               0.999999999              -0.000030934               0.000240341               0.999999999              -0.000035158               0.000259099               0.999999999               0.000000929               0.000102252               0.999999999               0.000004380               0.000099522               0.999999999               0.000004975               0.000099740               0.999999999               0.000004538               0.000102290               0.999999999               0.000003593               0.000106647               0.999999999               0.000002183               0.000112561               0.999999999               0.000000363               0.000119805               0.999999999              -0.000001872               0.000128409               0.999999999              -0.000004363               0.000138453               0.999999999              -0.000007050               0.000149804               0.999999999              -0.000009672               0.000162286               0.999999999              -0.000012150               0.000175672               0.999999999              -0.000014514               0.000189948               0.999999999              -0.000016949               0.000205142               0.999999999              -0.000019464               0.000221278               0.999999999              -0.000021891               0.000238179               0.999999999              -0.000024486               0.000255880               0.999999999               0.000000508               0.000105944               0.999999999               0.000003419               0.000104433               0.999999999               0.000004139               0.000104984               0.999999999               0.000003980               0.000107483               0.999999999               0.000003406               0.000111641               0.999999999               0.000002421               0.000117248               0.999999999               0.000001118               0.000124095               0.999999999              -0.000000418               0.000132354               0.999999999              -0.000002236               0.000141968               0.999999999              -0.000004262               0.000152745               0.999999999              -0.000006286               0.000164632               0.999999999              -0.000008159               0.000177440               0.999999999              -0.000009855               0.000191080               0.999999999              -0.000011479               0.000205644               0.999999999              -0.000013046               0.000221099               0.999999999              -0.000014569               0.000237366               0.999999999              -0.000016037               0.000254355               0.999999999               0.000000227               0.000108610               0.999999999               0.000002342               0.000108081               0.999999999               0.000002957               0.000109012               0.999999999               0.000002964               0.000111577               0.999999999               0.000002661               0.000115659               0.999999999               0.000002059               0.000121083               0.999999999               0.000001265               0.000127802               0.999999999               0.000000292               0.000135820               0.999999999              -0.000000950               0.000145034               0.999999999              -0.000002269               0.000155408               0.999999999              -0.000003602               0.000166806               0.999999999              -0.000004835               0.000179153               0.999999999              -0.000005969               0.000192452               0.999999999              -0.000007010               0.000206679               0.999999999              -0.000007920               0.000221665               0.999999999              -0.000008744               0.000237393               0.999999999              -0.000009438               0.000253849               0.999999999               0.000000080               0.000110243               0.999999999               0.000001192               0.000110330               0.999999999               0.000001536               0.000111554               0.999999999               0.000001593               0.000114218               0.999999999               0.000001461               0.000118281               0.999999999               0.000001191               0.000123648               0.999999999               0.000000830               0.000130299               0.999999999               0.000000260               0.000138184               0.999999999              -0.000000286               0.000147188               0.999999999              -0.000000903               0.000157273               0.999999999              -0.000001550               0.000168375               0.999999999              -0.000002206               0.000180510               0.999999999              -0.000002815               0.000193653               0.999999999              -0.000003300               0.000207629               0.999999999              -0.000003699               0.000222311               0.999999999              -0.000004054               0.000237779               0.999999999              -0.000004280               0.000253981               0.999999999              -0.000000000               0.000110780               0.999999999               0.000000000               0.000111091               0.999999999               0.000000000               0.000112441               0.999999999              -0.000000000               0.000115120               0.999999999              -0.000000000               0.000119182               0.999999999              -0.000000000               0.000124555               0.999999999              -0.000000000               0.000131152               0.999999999              -0.000000000               0.000139054               0.999999999              -0.000000000               0.000148027               0.999999999              -0.000000000               0.000157919               0.999999999               0.000000000               0.000168940               0.999999999               0.000000000               0.000181093               0.999999999               0.000000000               0.000194138               0.999999999               0.000000000               0.000207979               0.999999999               0.000000000               0.000222602               0.999999999              -0.000000000               0.000237998               0.999999999              -0.000000000               0.000254112               0.999999999               0.000007621               0.000000000               0.999999999               0.000003164               0.000000000               0.999999999               0.000001024               0.000000000               0.999999999              -0.000000047               0.000000000               0.999999999              -0.000000621               0.000000000               0.999999999              -0.000000860               0.000000000               0.999999999              -0.000000942               0.000000000               0.999999999              -0.000001037               0.000000000               0.999999999              -0.000001233               0.000000000               0.999999999              -0.000001694               0.000000000               0.999999999              -0.000002497              -0.000000000               0.999999999              -0.000003621              -0.000000000               0.999999999              -0.000005064              -0.000000000               0.999999999              -0.000006934              -0.000000000               0.999999999              -0.000009358              -0.000000000               0.999999999              -0.000012327              -0.000000000               0.999999999              -0.000015848              -0.000000000               0.999999999               0.000007512              -0.000010918               0.999999999               0.000003217              -0.000009984               0.999999999               0.000001173              -0.000009794               0.999999999               0.000000095              -0.000010050               0.999999999              -0.000000475              -0.000010515               0.999999999              -0.000000797              -0.000011120               0.999999999              -0.000001015              -0.000011929               0.999999999              -0.000001243              -0.000012948               0.999999999              -0.000001664              -0.000014287               0.999999999              -0.000002365              -0.000015864               0.999999999              -0.000003359              -0.000017541               0.999999999              -0.000004671              -0.000019266               0.999999999              -0.000006384              -0.000021250               0.999999999              -0.000008536              -0.000023435               0.999999999              -0.000011114              -0.000025764               0.999999999              -0.000014223              -0.000028363               0.999999999              -0.000017915              -0.000031247               0.999999999               0.000007309              -0.000021754               0.999999999               0.000003393              -0.000019823               0.999999999               0.000001545              -0.000019525               0.999999999               0.000000529              -0.000020065               0.999999999              -0.000000118              -0.000021074               0.999999999              -0.000000655              -0.000022414               0.999999999              -0.000001188              -0.000024062               0.999999999              -0.000001890              -0.000026239               0.999999999              -0.000002885              -0.000028942               0.999999999              -0.000004178              -0.000032043               0.999999999              -0.000005830              -0.000035318               0.999999999              -0.000007767              -0.000038702               0.999999999              -0.000010037              -0.000042597               0.999999999              -0.000012768              -0.000046797               0.999999999              -0.000015948              -0.000051286               0.999999999              -0.000019589              -0.000056194               0.999999999              -0.000023696              -0.000061489               0.999999999               0.000006972              -0.000032354               0.999999999               0.000003678              -0.000029431               0.999999999               0.000002117              -0.000029079               0.999999999               0.000001148              -0.000030063               0.999999999               0.000000315              -0.000031709               0.999999999              -0.000000510              -0.000033905               0.999999999              -0.000001546              -0.000036615               0.999999999              -0.000002930              -0.000040050               0.999999999              -0.000004671              -0.000044212               0.999999999              -0.000006806              -0.000048795               0.999999999              -0.000009220              -0.000053564               0.999999999              -0.000011926              -0.000058573               0.999999999              -0.000015031              -0.000064228               0.999999999              -0.000018521              -0.000070293               0.999999999              -0.000022341              -0.000076767               0.999999999              -0.000026557              -0.000083722               0.999999999              -0.000031233              -0.000091018               0.999999999               0.000006474              -0.000042574               0.999999999               0.000004082              -0.000038723               0.999999999               0.000002803              -0.000038436               0.999999999               0.000001783              -0.000039956               0.999999999               0.000000760              -0.000042400               0.999999999              -0.000000499              -0.000045617               0.999999999              -0.000002137              -0.000049571               0.999999999              -0.000004250              -0.000054491               0.999999999              -0.000006867              -0.000060109               0.999999999              -0.000009810              -0.000066238               0.999999999              -0.000013070              -0.000072403               0.999999999              -0.000016644              -0.000079095               0.999999999              -0.000020548              -0.000086499               0.999999999              -0.000024816              -0.000094386               0.999999999              -0.000029434              -0.000102764               0.999999999              -0.000034516              -0.000111709               0.999999999              -0.000040086              -0.000121215               0.999999999               0.000005913              -0.000052372               0.999999999               0.000004509              -0.000047621               0.999999999               0.000003467              -0.000047537               0.999999999               0.000002341              -0.000049674               0.999999999               0.000000979              -0.000053062               0.999999999              -0.000000759              -0.000057445               0.999999999              -0.000003023              -0.000062830               0.999999999              -0.000005907              -0.000069358               0.999999999              -0.000009275              -0.000076630               0.999999999              -0.000013015              -0.000084230               0.999999999              -0.000017080              -0.000092088               0.999999999              -0.000021445              -0.000100621               0.999999999              -0.000026220              -0.000109900               0.999999999              -0.000031451              -0.000119804               0.999999999              -0.000037170              -0.000130419               0.999999999              -0.000043351              -0.000141695               0.999999999              -0.000049955              -0.000153667               0.999999999               0.000005285              -0.000061660               0.999999999               0.000004950              -0.000056110               0.999999999               0.000004054              -0.000056325               0.999999999               0.000002687              -0.000059188               0.999999999               0.000000921              -0.000063593               0.999999999              -0.000001343              -0.000069249               0.999999999              -0.000004307              -0.000076269               0.999999999              -0.000007931              -0.000084482               0.999999999              -0.000012031              -0.000093401               0.999999999              -0.000016447              -0.000102806               0.999999999              -0.000021180              -0.000112623               0.999999999              -0.000026328              -0.000123418               0.999999999              -0.000031934              -0.000135211               0.999999999              -0.000038049              -0.000147727               0.999999999              -0.000044701              -0.000161100               0.999999999              -0.000051896              -0.000175262               0.999999999              -0.000059562              -0.000190140               0.999999999               0.000004578              -0.000070283               0.999999999               0.000005393              -0.000064170               0.999999999               0.000004479              -0.000064790               0.999999999               0.000002810              -0.000068444               0.999999999               0.000000624              -0.000073955               0.999999999              -0.000002254              -0.000081039               0.999999999              -0.000005950              -0.000089758               0.999999999              -0.000010307              -0.000099716               0.999999999              -0.000015035              -0.000110506               0.999999999              -0.000019994              -0.000121996               0.999999999              -0.000025257              -0.000134441               0.999999999              -0.000030968              -0.000148187               0.999999999              -0.000037246              -0.000163072               0.999999999              -0.000044177              -0.000178823               0.999999999              -0.000051744              -0.000195513               0.999999999              -0.000059901              -0.000213139               0.999999999              -0.000068504              -0.000231574               0.999999999               0.000003811              -0.000078104               0.999999999               0.000005771              -0.000071778               0.999999999               0.000004721              -0.000072890               0.999999999               0.000002754              -0.000077382               0.999999999               0.000000117              -0.000084116               0.999999999              -0.000003370              -0.000092825               0.999999999              -0.000007796              -0.000103341               0.999999999              -0.000012737              -0.000115245               0.999999999              -0.000017898              -0.000128265               0.999999999              -0.000023144              -0.000142563               0.999999999              -0.000028757              -0.000158237               0.999999999              -0.000035176              -0.000175326               0.999999999              -0.000042277              -0.000193765               0.999999999              -0.000049991              -0.000213231               0.999999999              -0.000058339              -0.000233793               0.999999999              -0.000067149              -0.000255383               0.999999999              -0.000076329              -0.000277648               0.999999999               0.000002938              -0.000085388               0.999999999               0.000005867              -0.000079510               0.999999999               0.000005266              -0.000079903               0.999999999               0.000003602              -0.000083670               0.999999999               0.000001367              -0.000089606               0.999999999              -0.000001557              -0.000097389               0.999999999              -0.000005347              -0.000106851               0.999999999              -0.000009603              -0.000117845               0.999999999              -0.000014055              -0.000130094               0.999999999              -0.000018577              -0.000143513               0.999999999              -0.000023213              -0.000158115               0.999999999              -0.000028259              -0.000174058               0.999999999              -0.000033931              -0.000191243               0.999999999              -0.000040059              -0.000209578               0.999999999              -0.000046592              -0.000228883               0.999999999              -0.000053773              -0.000249211               0.999999999              -0.000061386              -0.000270508               0.999999999               0.000002142              -0.000091880               0.999999999               0.000005648              -0.000086847               0.999999999               0.000005541              -0.000086903               0.999999999               0.000004265              -0.000090065               0.999999999               0.000002455              -0.000095332               0.999999999               0.000000054              -0.000102318               0.999999999              -0.000003005              -0.000110913               0.999999999              -0.000006535              -0.000120972               0.999999999              -0.000010416              -0.000132371               0.999999999              -0.000014377              -0.000144998               0.999999999              -0.000018210              -0.000158825               0.999999999              -0.000022142              -0.000173753               0.999999999              -0.000026526              -0.000189773               0.999999999              -0.000031224              -0.000206909               0.999999999              -0.000036154              -0.000225010               0.999999999              -0.000041618              -0.000244076               0.999999999              -0.000047636              -0.000264026               0.999999999               0.000001459              -0.000097513               0.999999999               0.000005137              -0.000093571               0.999999999               0.000005450              -0.000093621               0.999999999               0.000004618              -0.000096369               0.999999999               0.000003224              -0.000101084               0.999999999               0.000001372              -0.000107468               0.999999999              -0.000001050              -0.000115322               0.999999999              -0.000003890              -0.000124528               0.999999999              -0.000007171              -0.000135165               0.999999999              -0.000010504              -0.000147113               0.999999999              -0.000013711              -0.000160192               0.999999999              -0.000016831              -0.000174295               0.999999999              -0.000020056              -0.000189421               0.999999999              -0.000023492              -0.000205495               0.999999999              -0.000027120              -0.000222481               0.999999999              -0.000030934              -0.000240341               0.999999999              -0.000035158              -0.000259099               0.999999999               0.000000929              -0.000102252               0.999999999               0.000004380              -0.000099522               0.999999999               0.000004975              -0.000099740               0.999999999               0.000004538              -0.000102290               0.999999999               0.000003593              -0.000106647               0.999999999               0.000002183              -0.000112561               0.999999999               0.000000363              -0.000119805               0.999999999              -0.000001872              -0.000128409               0.999999999              -0.000004363              -0.000138453               0.999999999              -0.000007050              -0.000149804               0.999999999              -0.000009672              -0.000162286               0.999999999              -0.000012150              -0.000175672               0.999999999              -0.000014514              -0.000189948               0.999999999              -0.000016949              -0.000205142               0.999999999              -0.000019464              -0.000221278               0.999999999              -0.000021891              -0.000238179               0.999999999              -0.000024486              -0.000255880               0.999999999               0.000000508              -0.000105944               0.999999999               0.000003419              -0.000104433               0.999999999               0.000004139              -0.000104984               0.999999999               0.000003980              -0.000107483               0.999999999               0.000003406              -0.000111641               0.999999999               0.000002421              -0.000117248               0.999999999               0.000001118              -0.000124095               0.999999999              -0.000000418              -0.000132354               0.999999999              -0.000002236              -0.000141968               0.999999999              -0.000004262              -0.000152745               0.999999999              -0.000006286              -0.000164632               0.999999999              -0.000008159              -0.000177440               0.999999999              -0.000009855              -0.000191080               0.999999999              -0.000011479              -0.000205644               0.999999999              -0.000013046              -0.000221099               0.999999999              -0.000014569              -0.000237366               0.999999999              -0.000016037              -0.000254355               0.999999999               0.000000227              -0.000108610               0.999999999               0.000002342              -0.000108081               0.999999999               0.000002957              -0.000109012               0.999999999               0.000002964              -0.000111577               0.999999999               0.000002661              -0.000115659               0.999999999               0.000002059              -0.000121083               0.999999999               0.000001265              -0.000127802               0.999999999               0.000000292              -0.000135820               0.999999999              -0.000000950              -0.000145034               0.999999999              -0.000002269              -0.000155408               0.999999999              -0.000003602              -0.000166806               0.999999999              -0.000004835              -0.000179153               0.999999999              -0.000005969              -0.000192452               0.999999999              -0.000007010              -0.000206679               0.999999999              -0.000007920              -0.000221665               0.999999999              -0.000008744              -0.000237393               0.999999999              -0.000009438              -0.000253849               0.999999999               0.000000080              -0.000110243               0.999999999               0.000001192              -0.000110330               0.999999999               0.000001536              -0.000111554               0.999999999               0.000001593              -0.000114218               0.999999999               0.000001461              -0.000118281               0.999999999               0.000001191              -0.000123648               0.999999999               0.000000830              -0.000130299               0.999999999               0.000000260              -0.000138184               0.999999999              -0.000000286              -0.000147188               0.999999999              -0.000000903              -0.000157273               0.999999999              -0.000001550              -0.000168375               0.999999999              -0.000002206              -0.000180510               0.999999999              -0.000002815              -0.000193653               0.999999999              -0.000003300              -0.000207629               0.999999999              -0.000003699              -0.000222311               0.999999999              -0.000004054              -0.000237779               0.999999999              -0.000004280              -0.000253981               0.999999999               0.000000000              -0.000110780               0.999999999               0.000000000              -0.000111091               0.999999999              -0.000000000              -0.000112441               0.999999999              -0.000000000              -0.000115120               0.999999999               0.000000000              -0.000119182               0.999999999               0.000000000              -0.000124555               0.999999999              -0.000000000              -0.000131152               0.999999999               0.000000000              -0.000139054               0.999999999              -0.000000000              -0.000148027               0.999999999              -0.000000000              -0.000157919               0.999999999              -0.000000000              -0.000168940               0.999999999              -0.000000000              -0.000181093               0.999999999              -0.000000000              -0.000194138               0.999999999              -0.000000000              -0.000207979               0.999999999              -0.000000000              -0.000222602               0.999999999               0.000000000              -0.000237998               0.999999999               0.000000000              -0.000254112               0.999999999              -0.000007621              -0.000000000               0.999999999              -0.000003164               0.000000000               0.999999999              -0.000001024               0.000000000               0.999999999               0.000000047               0.000000000               0.999999999               0.000000621               0.000000000               0.999999999               0.000000860               0.000000000               0.999999999               0.000000942              -0.000000000               0.999999999               0.000001037              -0.000000000               0.999999999               0.000001233              -0.000000000               0.999999999               0.000001694              -0.000000000               0.999999999               0.000002497              -0.000000000               0.999999999               0.000003621              -0.000000000               0.999999999               0.000005064              -0.000000000               0.999999999               0.000006934              -0.000000000               0.999999999               0.000009358              -0.000000000               0.999999999               0.000012327              -0.000000000               0.999999999               0.000015848              -0.000000000               0.999999999              -0.000007512              -0.000010918               0.999999999              -0.000003217              -0.000009984               0.999999999              -0.000001173              -0.000009794               0.999999999              -0.000000095              -0.000010050               0.999999999               0.000000475              -0.000010515               0.999999999               0.000000797              -0.000011120               0.999999999               0.000001015              -0.000011929               0.999999999               0.000001243              -0.000012948               0.999999999               0.000001664              -0.000014287               0.999999999               0.000002365              -0.000015864               0.999999999               0.000003359              -0.000017541               0.999999999               0.000004671              -0.000019266               0.999999999               0.000006384              -0.000021250               0.999999999               0.000008536              -0.000023435               0.999999999               0.000011114              -0.000025764               0.999999999               0.000014223              -0.000028363               0.999999999               0.000017915              -0.000031247               0.999999999              -0.000007309              -0.000021754               0.999999999              -0.000003393              -0.000019823               0.999999999              -0.000001545              -0.000019525               0.999999999              -0.000000529              -0.000020065               0.999999999               0.000000118              -0.000021074               0.999999999               0.000000655              -0.000022414               0.999999999               0.000001188              -0.000024062               0.999999999               0.000001890              -0.000026239               0.999999999               0.000002885              -0.000028942               0.999999999               0.000004178              -0.000032043               0.999999999               0.000005830              -0.000035318               0.999999999               0.000007767              -0.000038702               0.999999999               0.000010037              -0.000042597               0.999999999               0.000012768              -0.000046797               0.999999999               0.000015948              -0.000051286               0.999999999               0.000019589              -0.000056194               0.999999999               0.000023696              -0.000061489               0.999999999              -0.000006972              -0.000032354               0.999999999              -0.000003678              -0.000029431               0.999999999              -0.000002117              -0.000029079               0.999999999              -0.000001148              -0.000030063               0.999999999              -0.000000315              -0.000031709               0.999999999               0.000000510              -0.000033905               0.999999999               0.000001546              -0.000036615               0.999999999               0.000002930              -0.000040050               0.999999999               0.000004671              -0.000044212               0.999999999               0.000006806              -0.000048795               0.999999999               0.000009220              -0.000053564               0.999999999               0.000011926              -0.000058573               0.999999999               0.000015031              -0.000064228               0.999999999               0.000018521              -0.000070293               0.999999999               0.000022341              -0.000076767               0.999999999               0.000026557              -0.000083722               0.999999999               0.000031233              -0.000091018               0.999999999              -0.000006474              -0.000042574               0.999999999              -0.000004082              -0.000038723               0.999999999              -0.000002803              -0.000038436               0.999999999              -0.000001783              -0.000039956               0.999999999              -0.000000760              -0.000042400               0.999999999               0.000000499              -0.000045617               0.999999999               0.000002137              -0.000049571               0.999999999               0.000004250              -0.000054491               0.999999999               0.000006867              -0.000060109               0.999999999               0.000009810              -0.000066238               0.999999999               0.000013070              -0.000072403               0.999999999               0.000016644              -0.000079095               0.999999999               0.000020548              -0.000086499               0.999999999               0.000024816              -0.000094386               0.999999999               0.000029434              -0.000102764               0.999999999               0.000034516              -0.000111709               0.999999999               0.000040086              -0.000121215               0.999999999              -0.000005913              -0.000052372               0.999999999              -0.000004509              -0.000047621               0.999999999              -0.000003467              -0.000047537               0.999999999              -0.000002341              -0.000049674               0.999999999              -0.000000979              -0.000053062               0.999999999               0.000000759              -0.000057445               0.999999999               0.000003023              -0.000062830               0.999999999               0.000005907              -0.000069358               0.999999999               0.000009275              -0.000076630               0.999999999               0.000013015              -0.000084230               0.999999999               0.000017080              -0.000092088               0.999999999               0.000021445              -0.000100621               0.999999999               0.000026220              -0.000109900               0.999999999               0.000031451              -0.000119804               0.999999999               0.000037170              -0.000130419               0.999999999               0.000043351              -0.000141695               0.999999999               0.000049955              -0.000153667               0.999999999              -0.000005285              -0.000061660               0.999999999              -0.000004950              -0.000056110               0.999999999              -0.000004054              -0.000056325               0.999999999              -0.000002687              -0.000059188               0.999999999              -0.000000921              -0.000063593               0.999999999               0.000001343              -0.000069249               0.999999999               0.000004307              -0.000076269               0.999999999               0.000007931              -0.000084482               0.999999999               0.000012031              -0.000093401               0.999999999               0.000016447              -0.000102806               0.999999999               0.000021180              -0.000112623               0.999999999               0.000026328              -0.000123418               0.999999999               0.000031934              -0.000135211               0.999999999               0.000038049              -0.000147727               0.999999999               0.000044701              -0.000161100               0.999999999               0.000051896              -0.000175262               0.999999999               0.000059562              -0.000190140               0.999999999              -0.000004578              -0.000070283               0.999999999              -0.000005393              -0.000064170               0.999999999              -0.000004479              -0.000064790               0.999999999              -0.000002810              -0.000068444               0.999999999              -0.000000624              -0.000073955               0.999999999               0.000002254              -0.000081039               0.999999999               0.000005950              -0.000089758               0.999999999               0.000010307              -0.000099716               0.999999999               0.000015035              -0.000110506               0.999999999               0.000019994              -0.000121996               0.999999999               0.000025257              -0.000134441               0.999999999               0.000030968              -0.000148187               0.999999999               0.000037246              -0.000163072               0.999999999               0.000044177              -0.000178823               0.999999999               0.000051744              -0.000195513               0.999999999               0.000059901              -0.000213139               0.999999999               0.000068504              -0.000231574               0.999999999              -0.000003811              -0.000078104               0.999999999              -0.000005771              -0.000071778               0.999999999              -0.000004721              -0.000072890               0.999999999              -0.000002754              -0.000077382               0.999999999              -0.000000117              -0.000084116               0.999999999               0.000003370              -0.000092825               0.999999999               0.000007796              -0.000103341               0.999999999               0.000012737              -0.000115245               0.999999999               0.000017898              -0.000128265               0.999999999               0.000023144              -0.000142563               0.999999999               0.000028757              -0.000158237               0.999999999               0.000035176              -0.000175326               0.999999999               0.000042277              -0.000193765               0.999999999               0.000049991              -0.000213231               0.999999999               0.000058339              -0.000233793               0.999999999               0.000067149              -0.000255383               0.999999999               0.000076329              -0.000277648               0.999999999              -0.000002938              -0.000085388               0.999999999              -0.000005867              -0.000079510               0.999999999              -0.000005266              -0.000079903               0.999999999              -0.000003602              -0.000083670               0.999999999              -0.000001367              -0.000089606               0.999999999               0.000001557              -0.000097389               0.999999999               0.000005347              -0.000106851               0.999999999               0.000009603              -0.000117845               0.999999999               0.000014055              -0.000130094               0.999999999               0.000018577              -0.000143513               0.999999999               0.000023213              -0.000158115               0.999999999               0.000028259              -0.000174058               0.999999999               0.000033931              -0.000191243               0.999999999               0.000040059              -0.000209578               0.999999999               0.000046592              -0.000228883               0.999999999               0.000053773              -0.000249211               0.999999999               0.000061386              -0.000270508               0.999999999              -0.000002142              -0.000091880               0.999999999              -0.000005648              -0.000086847               0.999999999              -0.000005541              -0.000086903               0.999999999              -0.000004265              -0.000090065               0.999999999              -0.000002455              -0.000095332               0.999999999              -0.000000054              -0.000102318               0.999999999               0.000003005              -0.000110913               0.999999999               0.000006535              -0.000120972               0.999999999               0.000010416              -0.000132371               0.999999999               0.000014377              -0.000144998               0.999999999               0.000018210              -0.000158825               0.999999999               0.000022142              -0.000173753               0.999999999               0.000026526              -0.000189773               0.999999999               0.000031224              -0.000206909               0.999999999               0.000036154              -0.000225010               0.999999999               0.000041618              -0.000244076               0.999999999               0.000047636              -0.000264026               0.999999999              -0.000001459              -0.000097513               0.999999999              -0.000005137              -0.000093571               0.999999999              -0.000005450              -0.000093621               0.999999999              -0.000004618              -0.000096369               0.999999999              -0.000003224              -0.000101084               0.999999999              -0.000001372              -0.000107468               0.999999999               0.000001050              -0.000115322               0.999999999               0.000003890              -0.000124528               0.999999999               0.000007171              -0.000135165               0.999999999               0.000010504              -0.000147113               0.999999999               0.000013711              -0.000160192               0.999999999               0.000016831              -0.000174295               0.999999999               0.000020056              -0.000189421               0.999999999               0.000023492              -0.000205495               0.999999999               0.000027120              -0.000222481               0.999999999               0.000030934              -0.000240341               0.999999999               0.000035158              -0.000259099               0.999999999              -0.000000929              -0.000102252               0.999999999              -0.000004380              -0.000099522               0.999999999              -0.000004975              -0.000099740               0.999999999              -0.000004538              -0.000102290               0.999999999              -0.000003593              -0.000106647               0.999999999              -0.000002183              -0.000112561               0.999999999              -0.000000363              -0.000119805               0.999999999               0.000001872              -0.000128409               0.999999999               0.000004363              -0.000138453               0.999999999               0.000007050              -0.000149804               0.999999999               0.000009672              -0.000162286               0.999999999               0.000012150              -0.000175672               0.999999999               0.000014514              -0.000189948               0.999999999               0.000016949              -0.000205142               0.999999999               0.000019464              -0.000221278               0.999999999               0.000021891              -0.000238179               0.999999999               0.000024486              -0.000255880               0.999999999              -0.000000508              -0.000105944               0.999999999              -0.000003419              -0.000104433               0.999999999              -0.000004139              -0.000104984               0.999999999              -0.000003980              -0.000107483               0.999999999              -0.000003406              -0.000111641               0.999999999              -0.000002421              -0.000117248               0.999999999              -0.000001118              -0.000124095               0.999999999               0.000000418              -0.000132354               0.999999999               0.000002236              -0.000141968               0.999999999               0.000004262              -0.000152745               0.999999999               0.000006286              -0.000164632               0.999999999               0.000008159              -0.000177440               0.999999999               0.000009855              -0.000191080               0.999999999               0.000011479              -0.000205644               0.999999999               0.000013046              -0.000221099               0.999999999               0.000014569              -0.000237366               0.999999999               0.000016037              -0.000254355               0.999999999              -0.000000227              -0.000108610               0.999999999              -0.000002342              -0.000108081               0.999999999              -0.000002957              -0.000109012               0.999999999              -0.000002964              -0.000111577               0.999999999              -0.000002661              -0.000115659               0.999999999              -0.000002059              -0.000121083               0.999999999              -0.000001265              -0.000127802               0.999999999              -0.000000292              -0.000135820               0.999999999               0.000000950              -0.000145034               0.999999999               0.000002269              -0.000155408               0.999999999               0.000003602              -0.000166806               0.999999999               0.000004835              -0.000179153               0.999999999               0.000005969              -0.000192452               0.999999999               0.000007010              -0.000206679               0.999999999               0.000007920              -0.000221665               0.999999999               0.000008744              -0.000237393               0.999999999               0.000009438              -0.000253849               0.999999999              -0.000000080              -0.000110243               0.999999999              -0.000001192              -0.000110330               0.999999999              -0.000001536              -0.000111554               0.999999999              -0.000001593              -0.000114218               0.999999999              -0.000001461              -0.000118281               0.999999999              -0.000001191              -0.000123648               0.999999999              -0.000000830              -0.000130299               0.999999999              -0.000000260              -0.000138184               0.999999999               0.000000286              -0.000147188               0.999999999               0.000000903              -0.000157273               0.999999999               0.000001550              -0.000168375               0.999999999               0.000002206              -0.000180510               0.999999999               0.000002815              -0.000193653               0.999999999               0.000003300              -0.000207629               0.999999999               0.000003699              -0.000222311               0.999999999               0.000004054              -0.000237779               0.999999999               0.000004280              -0.000253981               0.999999999               0.000000000              -0.000110780               0.999999999               0.000000000              -0.000111091               0.999999999              -0.000000000              -0.000112441               0.999999999              -0.000000000              -0.000115120               0.999999999               0.000000000              -0.000119182               0.999999999               0.000000000              -0.000124555               0.999999999              -0.000000000              -0.000131152               0.999999999               0.000000000              -0.000139054               0.999999999              -0.000000000              -0.000148027               0.999999999              -0.000000000              -0.000157919               0.999999999              -0.000000000              -0.000168940               0.999999999              -0.000000000              -0.000181093               0.999999999              -0.000000000              -0.000194138               0.999999999              -0.000000000              -0.000207979               0.999999999              -0.000000000              -0.000222602               0.999999999               0.000000000              -0.000237998               0.999999999               0.000000000              -0.000254112               0.999999999              -0.000007621              -0.000000000               0.999999999              -0.000003164               0.000000000               0.999999999              -0.000001024               0.000000000               0.999999999               0.000000047               0.000000000               0.999999999               0.000000621               0.000000000               0.999999999               0.000000860               0.000000000               0.999999999               0.000000942              -0.000000000               0.999999999               0.000001037              -0.000000000               0.999999999               0.000001233              -0.000000000               0.999999999               0.000001694              -0.000000000               0.999999999               0.000002497              -0.000000000               0.999999999               0.000003621              -0.000000000               0.999999999               0.000005064              -0.000000000               0.999999999               0.000006934              -0.000000000               0.999999999               0.000009358              -0.000000000               0.999999999               0.000012327              -0.000000000               0.999999999               0.000015848              -0.000000000               0.999999999              -0.000007512               0.000010918               0.999999999              -0.000003217               0.000009984               0.999999999              -0.000001173               0.000009794               0.999999999              -0.000000095               0.000010050               0.999999999               0.000000475               0.000010515               0.999999999               0.000000797               0.000011120               0.999999999               0.000001015               0.000011929               0.999999999               0.000001243               0.000012948               0.999999999               0.000001664               0.000014287               0.999999999               0.000002365               0.000015864               0.999999999               0.000003359               0.000017541               0.999999999               0.000004671               0.000019266               0.999999999               0.000006384               0.000021250               0.999999999               0.000008536               0.000023435               0.999999999               0.000011114               0.000025764               0.999999999               0.000014223               0.000028363               0.999999999               0.000017915               0.000031247               0.999999999              -0.000007309               0.000021754               0.999999999              -0.000003393               0.000019823               0.999999999              -0.000001545               0.000019525               0.999999999              -0.000000529               0.000020065               0.999999999               0.000000118               0.000021074               0.999999999               0.000000655               0.000022414               0.999999999               0.000001188               0.000024062               0.999999999               0.000001890               0.000026239               0.999999999               0.000002885               0.000028942               0.999999999               0.000004178               0.000032043               0.999999999               0.000005830               0.000035318               0.999999999               0.000007767               0.000038702               0.999999999               0.000010037               0.000042597               0.999999999               0.000012768               0.000046797               0.999999999               0.000015948               0.000051286               0.999999999               0.000019589               0.000056194               0.999999999               0.000023696               0.000061489               0.999999999              -0.000006972               0.000032354               0.999999999              -0.000003678               0.000029431               0.999999999              -0.000002117               0.000029079               0.999999999              -0.000001148               0.000030063               0.999999999              -0.000000315               0.000031709               0.999999999               0.000000510               0.000033905               0.999999999               0.000001546               0.000036615               0.999999999               0.000002930               0.000040050               0.999999999               0.000004671               0.000044212               0.999999999               0.000006806               0.000048795               0.999999999               0.000009220               0.000053564               0.999999999               0.000011926               0.000058573               0.999999999               0.000015031               0.000064228               0.999999999               0.000018521               0.000070293               0.999999999               0.000022341               0.000076767               0.999999999               0.000026557               0.000083722               0.999999999               0.000031233               0.000091018               0.999999999              -0.000006474               0.000042574               0.999999999              -0.000004082               0.000038723               0.999999999              -0.000002803               0.000038436               0.999999999              -0.000001783               0.000039956               0.999999999              -0.000000760               0.000042400               0.999999999               0.000000499               0.000045617               0.999999999               0.000002137               0.000049571               0.999999999               0.000004250               0.000054491               0.999999999               0.000006867               0.000060109               0.999999999               0.000009810               0.000066238               0.999999999               0.000013070               0.000072403               0.999999999               0.000016644               0.000079095               0.999999999               0.000020548               0.000086499               0.999999999               0.000024816               0.000094386               0.999999999               0.000029434               0.000102764               0.999999999               0.000034516               0.000111709               0.999999999               0.000040086               0.000121215               0.999999999              -0.000005913               0.000052372               0.999999999              -0.000004509               0.000047621               0.999999999              -0.000003467               0.000047537               0.999999999              -0.000002341               0.000049674               0.999999999              -0.000000979               0.000053062               0.999999999               0.000000759               0.000057445               0.999999999               0.000003023               0.000062830               0.999999999               0.000005907               0.000069358               0.999999999               0.000009275               0.000076630               0.999999999               0.000013015               0.000084230               0.999999999               0.000017080               0.000092088               0.999999999               0.000021445               0.000100621               0.999999999               0.000026220               0.000109900               0.999999999               0.000031451               0.000119804               0.999999999               0.000037170               0.000130419               0.999999999               0.000043351               0.000141695               0.999999999               0.000049955               0.000153667               0.999999999              -0.000005285               0.000061660               0.999999999              -0.000004950               0.000056110               0.999999999              -0.000004054               0.000056325               0.999999999              -0.000002687               0.000059188               0.999999999              -0.000000921               0.000063593               0.999999999               0.000001343               0.000069249               0.999999999               0.000004307               0.000076269               0.999999999               0.000007931               0.000084482               0.999999999               0.000012031               0.000093401               0.999999999               0.000016447               0.000102806               0.999999999               0.000021180               0.000112623               0.999999999               0.000026328               0.000123418               0.999999999               0.000031934               0.000135211               0.999999999               0.000038049               0.000147727               0.999999999               0.000044701               0.000161100               0.999999999               0.000051896               0.000175262               0.999999999               0.000059562               0.000190140               0.999999999              -0.000004578               0.000070283               0.999999999              -0.000005393               0.000064170               0.999999999              -0.000004479               0.000064790               0.999999999              -0.000002810               0.000068444               0.999999999              -0.000000624               0.000073955               0.999999999               0.000002254               0.000081039               0.999999999               0.000005950               0.000089758               0.999999999               0.000010307               0.000099716               0.999999999               0.000015035               0.000110506               0.999999999               0.000019994               0.000121996               0.999999999               0.000025257               0.000134441               0.999999999               0.000030968               0.000148187               0.999999999               0.000037246               0.000163072               0.999999999               0.000044177               0.000178823               0.999999999               0.000051744               0.000195513               0.999999999               0.000059901               0.000213139               0.999999999               0.000068504               0.000231574               0.999999999              -0.000003811               0.000078104               0.999999999              -0.000005771               0.000071778               0.999999999              -0.000004721               0.000072890               0.999999999              -0.000002754               0.000077382               0.999999999              -0.000000117               0.000084116               0.999999999               0.000003370               0.000092825               0.999999999               0.000007796               0.000103341               0.999999999               0.000012737               0.000115245               0.999999999               0.000017898               0.000128265               0.999999999               0.000023144               0.000142563               0.999999999               0.000028757               0.000158237               0.999999999               0.000035176               0.000175326               0.999999999               0.000042277               0.000193765               0.999999999               0.000049991               0.000213231               0.999999999               0.000058339               0.000233793               0.999999999               0.000067149               0.000255383               0.999999999               0.000076329               0.000277648               0.999999999              -0.000002938               0.000085388               0.999999999              -0.000005867               0.000079510               0.999999999              -0.000005266               0.000079903               0.999999999              -0.000003602               0.000083670               0.999999999              -0.000001367               0.000089606               0.999999999               0.000001557               0.000097389               0.999999999               0.000005347               0.000106851               0.999999999               0.000009603               0.000117845               0.999999999               0.000014055               0.000130094               0.999999999               0.000018577               0.000143513               0.999999999               0.000023213               0.000158115               0.999999999               0.000028259               0.000174058               0.999999999               0.000033931               0.000191243               0.999999999               0.000040059               0.000209578               0.999999999               0.000046592               0.000228883               0.999999999               0.000053773               0.000249211               0.999999999               0.000061386               0.000270508               0.999999999              -0.000002142               0.000091880               0.999999999              -0.000005648               0.000086847               0.999999999              -0.000005541               0.000086903               0.999999999              -0.000004265               0.000090065               0.999999999              -0.000002455               0.000095332               0.999999999              -0.000000054               0.000102318               0.999999999               0.000003005               0.000110913               0.999999999               0.000006535               0.000120972               0.999999999               0.000010416               0.000132371               0.999999999               0.000014377               0.000144998               0.999999999               0.000018210               0.000158825               0.999999999               0.000022142               0.000173753               0.999999999               0.000026526               0.000189773               0.999999999               0.000031224               0.000206909               0.999999999               0.000036154               0.000225010               0.999999999               0.000041618               0.000244076               0.999999999               0.000047636               0.000264026               0.999999999              -0.000001459               0.000097513               0.999999999              -0.000005137               0.000093571               0.999999999              -0.000005450               0.000093621               0.999999999              -0.000004618               0.000096369               0.999999999              -0.000003224               0.000101084               0.999999999              -0.000001372               0.000107468               0.999999999               0.000001050               0.000115322               0.999999999               0.000003890               0.000124528               0.999999999               0.000007171               0.000135165               0.999999999               0.000010504               0.000147113               0.999999999               0.000013711               0.000160192               0.999999999               0.000016831               0.000174295               0.999999999               0.000020056               0.000189421               0.999999999               0.000023492               0.000205495               0.999999999               0.000027120               0.000222481               0.999999999               0.000030934               0.000240341               0.999999999               0.000035158               0.000259099               0.999999999              -0.000000929               0.000102252               0.999999999              -0.000004380               0.000099522               0.999999999              -0.000004975               0.000099740               0.999999999              -0.000004538               0.000102290               0.999999999              -0.000003593               0.000106647               0.999999999              -0.000002183               0.000112561               0.999999999              -0.000000363               0.000119805               0.999999999               0.000001872               0.000128409               0.999999999               0.000004363               0.000138453               0.999999999               0.000007050               0.000149804               0.999999999               0.000009672               0.000162286               0.999999999               0.000012150               0.000175672               0.999999999               0.000014514               0.000189948               0.999999999               0.000016949               0.000205142               0.999999999               0.000019464               0.000221278               0.999999999               0.000021891               0.000238179               0.999999999               0.000024486               0.000255880               0.999999999              -0.000000508               0.000105944               0.999999999              -0.000003419               0.000104433               0.999999999              -0.000004139               0.000104984               0.999999999              -0.000003980               0.000107483               0.999999999              -0.000003406               0.000111641               0.999999999              -0.000002421               0.000117248               0.999999999              -0.000001118               0.000124095               0.999999999               0.000000418               0.000132354               0.999999999               0.000002236               0.000141968               0.999999999               0.000004262               0.000152745               0.999999999               0.000006286               0.000164632               0.999999999               0.000008159               0.000177440               0.999999999               0.000009855               0.000191080               0.999999999               0.000011479               0.000205644               0.999999999               0.000013046               0.000221099               0.999999999               0.000014569               0.000237366               0.999999999               0.000016037               0.000254355               0.999999999              -0.000000227               0.000108610               0.999999999              -0.000002342               0.000108081               0.999999999              -0.000002957               0.000109012               0.999999999              -0.000002964               0.000111577               0.999999999              -0.000002661               0.000115659               0.999999999              -0.000002059               0.000121083               0.999999999              -0.000001265               0.000127802               0.999999999              -0.000000292               0.000135820               0.999999999               0.000000950               0.000145034               0.999999999               0.000002269               0.000155408               0.999999999               0.000003602               0.000166806               0.999999999               0.000004835               0.000179153               0.999999999               0.000005969               0.000192452               0.999999999               0.000007010               0.000206679               0.999999999               0.000007920               0.000221665               0.999999999               0.000008744               0.000237393               0.999999999               0.000009438               0.000253849               0.999999999              -0.000000080               0.000110243               0.999999999              -0.000001192               0.000110330               0.999999999              -0.000001536               0.000111554               0.999999999              -0.000001593               0.000114218               0.999999999              -0.000001461               0.000118281               0.999999999              -0.000001191               0.000123648               0.999999999              -0.000000830               0.000130299               0.999999999              -0.000000260               0.000138184               0.999999999               0.000000286               0.000147188               0.999999999               0.000000903               0.000157273               0.999999999               0.000001550               0.000168375               0.999999999               0.000002206               0.000180510               0.999999999               0.000002815               0.000193653               0.999999999               0.000003300               0.000207629               0.999999999               0.000003699               0.000222311               0.999999999               0.000004054               0.000237779               0.999999999               0.000004280               0.000253981               0.999999999              -0.000000000               0.000110780               0.999999999               0.000000000               0.000111091               0.999999999               0.000000000               0.000112441               0.999999999              -0.000000000               0.000115120               0.999999999              -0.000000000               0.000119182               0.999999999              -0.000000000               0.000124555               0.999999999              -0.000000000               0.000131152               0.999999999              -0.000000000               0.000139054               0.999999999              -0.000000000               0.000148027               0.999999999              -0.000000000               0.000157919               0.999999999               0.000000000               0.000168940               0.999999999               0.000000000               0.000181093               0.999999999               0.000000000               0.000194138               0.999999999               0.000000000               0.000207979               0.999999999               0.000000000               0.000222602               0.999999999              -0.000000000               0.000237998               0.999999999              -0.000000000               0.000254112               0.999999999 </DataArray>
<DataArray type="Float64"                                    Name="defo"                                                      NumberOfComponents=" 3" format="ascii">
              0.000007621               0.000000000               0.999999999               0.000003164               0.000000000               0.999999999               0.000001024               0.000000000               0.999999999              -0.000000047               0.000000000               0.999999999              -0.000000621               0.000000000               0.999999999              -0.000000860               0.000000000               0.999999999              -0.000000942               0.000000000               0.999999999              -0.000001037               0.000000000               0.999999999              -0.000001233               0.000000000               0.999999999              -0.000001694               0.000000000               0.999999999              -0.000002497              -0.000000000               0.999999999              -0.000003621              -0.000000000               0.999999999              -0.000005064              -0.000000000               0.999999999              -0.000006934              -0.000000000               0.999999999              -0.000009358              -0.000000000               0.999999999              -0.000012327              -0.000000000               0.999999999              -0.000015848              -0.000000000               0.999999999               0.000007512               0.000010918               0.999999999               0.000003217               0.000009984               0.999999999               0.000001173               0.000009794               0.999999999               0.000000095               0.000010050               0.999999999              -0.000000475               0.000010515               0.999999999              -0.000000797               0.000011120               0.999999999              -0.000001015               0.000011929               0.999999999              -0.000001243               0.000012948               0.999999999              -0.000001664               0.000014287               0.999999999              -0.000002365               0.000015864               0.999999999              -0.000003359               0.000017541               0.999999999              -0.000004671               0.000019266               0.999999999              -0.000006384               0.000021250               0.999999999              -0.000008536               0.000023435               0.999999999              -0.000011114               0.000025764               0.999999999              -0.000014223               0.000028363               0.999999999              -0.000017915               0.000031247               0.999999999               0.000007309               0.000021754               0.999999999               0.000003393               0.000019823               0.999999999               0.000001545               0.000019525               0.999999999               0.000000529               0.000020065               0.999999999              -0.000000118               0.000021074               0.999999999              -0.000000655               0.000022414               0.999999999              -0.000001188               0.000024062               0.999999999              -0.000001890               0.000026239               0.999999999              -0.000002885               0.000028942               0.999999999              -0.000004178               0.000032043               0.999999999              -0.000005830               0.000035318               0.999999999              -0.000007767               0.000038702               0.999999999              -0.000010037               0.000042597               0.999999999              -0.000012768               0.000046797               0.999999999              -0.000015948               0.000051286               0.999999999              -0.000019589               0.000056194               0.999999999              -0.000023696               0.000061489               0.999999999               0.000006972               0.000032354               0.999999999               0.000003678               0.000029431               0.999999999               0.000002117               0.000029079               0.999999999               0.000001148               0.000030063               0.999999999               0.000000315               0.000031709               0.999999999              -0.000000510               0.000033905               0.999999999              -0.000001546               0.000036615               0.999999999              -0.000002930               0.000040050               0.999999999              -0.000004671               0.000044212               0.999999999              -0.000006806               0.000048795               0.999999999              -0.000009220               0.000053564               0.999999999              -0.000011926               0.000058573               0.999999999              -0.000015031               0.000064228               0.999999999              -0.000018521               0.000070293               0.999999999              -0.000022341               0.000076767               0.999999999              -0.000026557               0.000083722               0.999999999              -0.000031233               0.000091018               0.999999999               0.000006474               0.000042574               0.999999999               0.000004082               0.000038723               0.999999999               0.000002803               0.000038436               0.999999999               0.000001783               0.000039956               0.999999999               0.000000760               0.000042400               0.999999999              -0.000000499               0.000045617               0.999999999              -0.000002137               0.000049571               0.999999999              -0.000004250               0.000054491               0.999999999              -0.000006867               0.000060109               0.999999999              -0.000009810               0.000066238               0.999999999              -0.000013070               0.000072403               0.999999999              -0.000016644               0.000079095               0.999999999              -0.000020548               0.000086499               0.999999999              -0.000024816               0.000094386               0.999999999              -0.000029434               0.000102764               0.999999999              -0.000034516               0.000111709               0.999999999              -0.000040086               0.000121215               0.999999999               0.000005913               0.000052372               0.999999999               0.000004509               0.000047621               0.999999999               0.000003467               0.000047537               0.999999999               0.000002341               0.000049674               0.999999999               0.000000979               0.000053062               0.999999999              -0.000000759               0.000057445               0.999999999              -0.000003023               0.000062830               0.999999999              -0.000005907               0.000069358               0.999999999              -0.000009275               0.000076630               0.999999999              -0.000013015               0.000084230               0.999999999              -0.000017080               0.000092088               0.999999999              -0.000021445               0.000100621               0.999999999              -0.000026220               0.000109900               0.999999999              -0.000031451               0.000119804               0.999999999              -0.000037170               0.000130419               0.999999999              -0.000043351               0.000141695               0.999999999              -0.000049955               0.000153667               0.999999999               0.000005285               0.000061660               0.999999999               0.000004950               0.000056110               0.999999999               0.000004054               0.000056325               0.999999999               0.000002687               0.000059188               0.999999999               0.000000921               0.000063593               0.999999999              -0.000001343               0.000069249               0.999999999              -0.000004307               0.000076269               0.999999999              -0.000007931               0.000084482               0.999999999              -0.000012031               0.000093401               0.999999999              -0.000016447               0.000102806               0.999999999              -0.000021180               0.000112623               0.999999999              -0.000026328               0.000123418               0.999999999              -0.000031934               0.000135211               0.999999999              -0.000038049               0.000147727               0.999999999              -0.000044701               0.000161100               0.999999999              -0.000051896               0.000175262               0.999999999              -0.000059562               0.000190140               0.999999999               0.000004578               0.000070283               0.999999999               0.000005393               0.000064170               0.999999999               0.000004479               0.000064790               0.999999999               0.000002810               0.000068444               0.999999999               0.000000624               0.000073955               0.999999999              -0.000002254               0.000081039               0.999999999              -0.000005950               0.000089758               0.999999999              -0.000010307               0.000099716               0.999999999              -0.000015035               0.000110506               0.999999999              -0.000019994               0.000121996               0.999999999              -0.000025257               0.000134441               0.999999999              -0.000030968               0.000148187               0.999999999              -0.000037246               0.000163072               0.999999999              -0.000044177               0.000178823               0.999999999              -0.000051744               0.000195513               0.999999999              -0.000059901               0.000213139               0.999999999              -0.000068504               0.000231574               0.999999999               0.000003811               0.000078104               0.999999999               0.000005771               0.000071778               0.999999999               0.000004721               0.000072890               0.999999999               0.000002754               0.000077382               0.999999999               0.000000117               0.000084116               0.999999999              -0.000003370               0.000092825               0.999999999              -0.000007796               0.000103341               0.999999999              -0.000012737               0.000115245               0.999999999              -0.000017898               0.000128265               0.999999999              -0.000023144               0.000142563               0.999999999              -0.000028757               0.000158237               0.999999999              -0.000035176               0.000175326               0.999999999              -0.000042277               0.000193765               0.999999999              -0.000049991               0.000213231               0.999999999              -0.000058339               0.000233793               0.999999999              -0.000067149               0.000255383               0.999999999              -0.000076329               0.000277648               0.999999999               0.000002938               0.000085388               0.999999999               0.000005867               0.000079510               0.999999999               0.000005266               0.000079903               0.999999999               0.000003602               0.000083670               0.999999999               0.000001367               0.000089606               0.999999999              -0.000001557               0.000097389               0.999999999              -0.000005347               0.000106851               0.999999999              -0.000009603               0.000117845               0.999999999              -0.000014055               0.000130094               0.999999999              -0.000018577               0.000143513               0.999999999              -0.000023213               0.000158115               0.999999999              -0.000028259               0.000174058               0.999999999              -0.000033931               0.000191243               0.999999999              -0.000040059               0.000209578               0.999999999              -0.000046592               0.000228883               0.999999999              -0.000053773               0.000249211               0.999999999              -0.000061386               0.000270508               0.999999999               0.000002142               0.000091880               0.999999999               0.000005648               0.000086847               0.999999999               0.000005541               0.000086903               0.999999999               0.000004265               0.000090065               0.999999999               0.000002455               0.000095332               0.999999999               0.000000054               0.000102318               0.999999999              -0.000003005               0.000110913               0.999999999              -0.000006535               0.000120972               0.999999999              -0.000010416               0.000132371               0.999999999              -0.000014377               0.000144998               0.999999999              -0.000018210               0.000158825               0.999999999              -0.000022142               0.000173753               0.999999999              -0.000026526               0.000189773               0.999999999              -0.000031224               0.000206909               0.999999999              -0.000036154               0.000225010               0.999999999              -0.000041618               0.000244076               0.999999999              -0.000047636               0.000264026               0.999999999               0.000001459               0.000097513               0.999999999               0.000005137               0.000093571               0.999999999               0.000005450               0.000093621               0.999999999               0.000004618               0.000096369               0.999999999               0.000003224               0.000101084               0.999999999               0.000001372               0.000107468               0.999999999              -0.000001050               0.000115322               0.999999999              -0.000003890               0.000124528               0.999999999              -0.000007171               0.000135165               0.999999999              -0.000010504               0.000147113               0.999999999              -0.000013711               0.000160192               0.999999999              -0.000016831               0.000174295               0.999999999              -0.000020056               0.000189421               0.999999999              -0.000023492               0.000205495               0.999999999              -0.000027120               0.000222481               0.999999999              -0.000030934               0.000240341               0.999999999              -0.000035158               0.000259099               0.999999999               0.000000929               0.000102252               0.999999999               0.000004380               0.000099522               0.999999999               0.000004975               0.000099740               0.999999999               0.000004538               0.000102290               0.999999999               0.000003593               0.000106647               0.999999999               0.000002183               0.000112561               0.999999999               0.000000363               0.000119805               0.999999999              -0.000001872               0.000128409               0.999999999              -0.000004363               0.000138453               0.999999999              -0.000007050               0.000149804               0.999999999              -0.000009672               0.000162286               0.999999999              -0.000012150               0.000175672               0.999999999              -0.000014514               0.000189948               0.999999999              -0.000016949               0.000205142               0.999999999              -0.000019464               0.000221278               0.999999999              -0.000021891               0.000238179               0.999999999              -0.000024486               0.000255880               0.999999999               0.000000508               0.000105944               0.999999999               0.000003419               0.000104433               0.999999999               0.000004139               0.000104984               0.999999999               0.000003980               0.000107483               0.999999999               0.000003406               0.000111641               0.999999999               0.000002421               0.000117248               0.999999999               0.000001118               0.000124095               0.999999999              -0.000000418               0.000132354               0.999999999              -0.000002236               0.000141968               0.999999999              -0.000004262               0.000152745               0.999999999              -0.000006286               0.000164632               0.999999999              -0.000008159               0.000177440               0.999999999              -0.000009855               0.000191080               0.999999999              -0.000011479               0.000205644               0.999999999              -0.000013046               0.000221099               0.999999999              -0.000014569               0.000237366               0.999999999              -0.000016037               0.000254355               0.999999999               0.000000227               0.000108610               0.999999999               0.000002342               0.000108081               0.999999999               0.000002957               0.000109012               0.999999999               0.000002964               0.000111577               0.999999999               0.000002661               0.000115659               0.999999999               0.000002059               0.000121083               0.999999999               0.000001265               0.000127802               0.999999999               0.000000292               0.000135820               0.999999999              -0.000000950               0.000145034               0.999999999              -0.000002269               0.000155408               0.999999999              -0.000003602               0.000166806               0.999999999              -0.000004835               0.000179153               0.999999999              -0.000005969               0.000192452               0.999999999              -0.000007010               0.000206679               0.999999999              -0.000007920               0.000221665               0.999999999              -0.000008744               0.000237393               0.999999999              -0.000009438               0.000253849               0.999999999               0.000000080               0.000110243               0.999999999               0.000001192               0.000110330               0.999999999               0.000001536               0.000111554               0.999999999               0.000001593               0.000114218               0.999999999               0.000001461               0.000118281               0.999999999               0.000001191               0.000123648               0.999999999               0.000000830               0.000130299               0.999999999               0.000000260               0.000138184               0.999999999              -0.000000286               0.000147188               0.999999999              -0.000000903               0.000157273               0.999999999              -0.000001550               0.000168375               0.999999999              -0.000002206               0.000180510               0.999999999              -0.000002815               0.000193653               0.999999999              -0.000003300               0.000207629               0.999999999              -0.000003699               0.000222311               0.999999999              -0.000004054               0.000237779               0.999999999              -0.000004280               0.000253981               0.999999999              -0.000000000               0.000110780               0.999999999               0.000000000               0.000111091               0.999999999               0.000000000               0.000112441               0.999999999              -0.000000000               0.000115120               0.999999999              -0.000000000               0.000119182               0.999999999              -0.000000000               0.000124555               0.999999999              -0.000000000               0.000131152               0.999999999              -0.000000000               0.000139054               0.999999999              -0.000000000               0.000148027               0.999999999              -0.000000000               0.000157919               0.999999999               0.000000000               0.000168940               0.999999999               0.000000000               0.000181093               0.999999999               0.000000000               0.000194138               0.999999999               0.000000000               0.000207979               0.999999999               0.000000000               0.000222602               0.999999999              -0.000000000               0.000237998               0.999999999              -0.000000000               0.000254112               0.999999999               0.000007621               0.000000000               0.999999999               0.000003164               0.000000000               0.999999999               0.000001024               0.000000000               0.999999999              -0.000000047               0.000000000               0.999999999              -0.000000621               0.000000000               0.999999999              -0.000000860               0.000000000               0.999999999              -0.000000942               0.000000000               0.999999999              -0.000001037               0.000000000               0.999999999              -0.000001233               0.000000000               0.999999999              -0.000001694               0.000000000               0.999999999              -0.000002497              -0.000000000               0.999999999              -0.000003621              -0.000000000               0.999999999              -0.000005064              -0.000000000               0.999999999              -0.000006934              -0.000000000               0.999999999              -0.000009358              -0.000000000               0.999999999              -0.000012327              -0.000000000               0.999999999              -0.000015848              -0.000000000               0.999999999               0.000007512              -0.000010918               0.999999999               0.000003217              -0.000009984               0.999999999               0.000001173              -0.000009794               0.999999999               0.000000095              -0.000010050               0.999999999              -0.000000475              -0.000010515               0.999999999              -0.000000797              -0.000011120               0.999999999              -0.000001015              -0.000011929               0.999999999              -0.000001243              -0.000012948               0.999999999              -0.000001664              -0.000014287               0.999999999              -0.000002365              -0.000015864               0.999999999              -0.000003359              -0.000017541               0.999999999              -0.000004671              -0.000019266               0.999999999              -0.000006384              -0.000021250               0.999999999              -0.000008536              -0.000023435               0.999999999              -0.000011114              -0.000025764               0.999999999              -0.000014223              -0.000028363               0.999999999              -0.000017915              -0.000031247               0.999999999               0.000007309              -0.000021754               0.999999999               0.000003393              -0.000019823               0.999999999               0.000001545              -0.000019525               0.999999999               0.000000529              -0.000020065               0.999999999              -0.000000118              -0.000021074               0.999999999              -0.000000655              -0.000022414               0.999999999              -0.000001188              -0.000024062               0.999999999              -0.000001890              -0.000026239               0.999999999              -0.000002885              -0.000028942               0.999999999              -0.000004178              -0.000032043               0.999999999              -0.000005830              -0.000035318               0.999999999              -0.000007767              -0.000038702               0.999999999              -0.000010037              -0.000042597               0.999999999              -0.000012768              -0.000046797               0.999999999              -0.000015948              -0.000051286               0.999999999              -0.000019589              -0.000056194               0.999999999              -0.000023696              -0.000061489               0.999999999               0.000006972              -0.000032354               0.999999999               0.000003678              -0.000029431               0.999999999               0.000002117              -0.000029079               0.999999999               0.000001148              -0.000030063               0.999999999               0.000000315              -0.000031709               0.999999999              -0.000000510              -0.000033905               0.999999999              -0.000001546              -0.000036615               0.999999999              -0.000002930              -0.000040050               0.999999999              -0.000004671              -0.000044212               0.999999999              -0.000006806              -0.000048795               0.999999999              -0.000009220              -0.000053564               0.999999999              -0.000011926              -0.000058573               0.999999999              -0.000015031              -0.000064228               0.999999999              -0.000018521              -0.000070293               0.999999999              -0.000022341              -0.000076767               0.999999999              -0.000026557              -0.000083722               0.999999999              -0.000031233              -0.000091018               0.999999999               0.000006474              -0.000042574               0.999999999               0.000004082              -0.000038723               0.999999999               0.000002803              -0.000038436               0.999999999               0.000001783              -0.000039956               0.999999999               0.000000760              -0.000042400               0.999999999              -0.000000499              -0.000045617               0.999999999              -0.000002137              -0.000049571               0.999999999              -0.000004250              -0.000054491               0.999999999              -0.000006867              -0.000060109               0.999999999              -0.000009810              -0.000066238               0.999999999              -0.000013070              -0.000072403               0.999999999              -0.000016644              -0.000079095               0.999999999              -0.000020548              -0.000086499               0.999999999              -0.000024816              -0.000094386               0.999999999              -0.000029434              -0.000102764               0.999999999              -0.000034516              -0.000111709               0.999999999              -0.000040086              -0.000121215               0.999999999               0.000005913              -0.000052372               0.999999999               0.000004509              -0.000047621               0.999999999               0.000003467              -0.000047537               0.999999999               0.000002341              -0.000049674               0.999999999               0.000000979              -0.000053062               0.999999999              -0.000000759              -0.000057445               0.999999999              -0.000003023              -0.000062830               0.999999999              -0.000005907              -0.000069358               0.999999999              -0.000009275              -0.000076630               0.999999999              -0.000013015              -0.000084230               0.999999999              -0.000017080              -0.000092088               0.999999999              -0.000021445              -0.000100621               0.999999999              -0.000026220              -0.000109900               0.999999999              -0.000031451              -0.000119804               0.999999999              -0.000037170              -0.000130419               0.999999999              -0.000043351              -0.000141695               0.999999999              -0.000049955              -0.000153667               0.999999999               0.000005285              -0.000061660               0.999999999               0.000004950              -0.000056110               0.999999999               0.000004054              -0.000056325               0.999999999               0.000002687              -0.000059188               0.999999999               0.000000921              -0.000063593               0.999999999              -0.000001343              -0.000069249               0.999999999              -0.000004307              -0.000076269               0.999999999              -0.000007931              -0.000084482               0.999999999              -0.000012031              -0.000093401               0.999999999              -0.000016447              -0.000102806               0.999999999              -0.000021180              -0.000112623               0.999999999              -0.000026328              -0.000123418               0.999999999              -0.000031934              -0.000135211               0.999999999              -0.000038049              -0.000147727               0.999999999              -0.000044701              -0.000161100               0.999999999              -0.000051896              -0.000175262               0.999999999              -0.000059562              -0.000190140               0.999999999               0.000004578              -0.000070283               0.999999999               0.000005393              -0.000064170               0.999999999               0.000004479              -0.000064790               0.999999999               0.000002810              -0.000068444               0.999999999               0.000000624              -0.000073955               0.999999999              -0.000002254              -0.000081039               0.999999999              -0.000005950              -0.000089758               0.999999999              -0.000010307              -0.000099716               0.999999999              -0.000015035              -0.000110506               0.999999999              -0.000019994              -0.000121996               0.999999999              -0.000025257              -0.000134441               0.999999999              -0.000030968              -0.000148187               0.999999999              -0.000037246              -0.000163072               0.999999999              -0.000044177              -0.000178823               0.999999999              -0.000051744              -0.000195513               0.999999999              -0.000059901              -0.000213139               0.999999999              -0.000068504              -0.000231574               0.999999999               0.000003811              -0.000078104               0.999999999               0.000005771              -0.000071778               0.999999999               0.000004721              -0.000072890               0.999999999               0.000002754              -0.000077382               0.999999999               0.000000117              -0.000084116               0.999999999              -0.000003370              -0.000092825               0.999999999              -0.000007796              -0.000103341               0.999999999              -0.000012737              -0.000115245               0.999999999              -0.000017898              -0.000128265               0.999999999              -0.000023144              -0.000142563               0.999999999              -0.000028757              -0.000158237               0.999999999              -0.000035176              -0.000175326               0.999999999              -0.000042277              -0.000193765               0.999999999              -0.000049991              -0.000213231               0.999999999              -0.000058339              -0.000233793               0.999999999              -0.000067149              -0.000255383               0.999999999              -0.000076329              -0.000277648               0.999999999               0.000002938              -0.000085388               0.999999999               0.000005867              -0.000079510               0.999999999               0.000005266              -0.000079903               0.999999999               0.000003602              -0.000083670               0.999999999               0.000001367              -0.000089606               0.999999999              -0.000001557              -0.000097389               0.999999999              -0.000005347              -0.000106851               0.999999999              -0.000009603              -0.000117845               0.999999999              -0.000014055              -0.000130094               0.999999999              -0.000018577              -0.000143513               0.999999999              -0.000023213              -0.000158115               0.999999999              -0.000028259              -0.000174058               0.999999999              -0.000033931              -0.000191243               0.999999999              -0.000040059              -0.000209578               0.999999999              -0.000046592              -0.000228883               0.999999999              -0.000053773              -0.000249211               0.999999999              -0.000061386              -0.000270508               0.999999999               0.000002142              -0.000091880               0.999999999               0.000005648              -0.000086847               0.999999999               0.000005541              -0.000086903               0.999999999               0.000004265              -0.000090065               0.999999999               0.000002455              -0.000095332               0.999999999               0.000000054              -0.000102318               0.999999999              -0.000003005              -0.000110913               0.999999999              -0.000006535              -0.000120972               0.999999999              -0.000010416              -0.000132371               0.999999999              -0.000014377              -0.000144998               0.999999999              -0.000018210              -0.000158825               0.999999999              -0.000022142              -0.000173753               0.999999999              -0.000026526              -0.000189773               0.999999999              -0.000031224              -0.000206909               0.999999999              -0.000036154              -0.000225010               0.999999999              -0.000041618              -0.000244076               0.999999999              -0.000047636              -0.000264026               0.999999999               0.000001459              -0.000097513               0.999999999               0.000005137              -0.000093571               0.999999999               0.000005450              -0.000093621               0.999999999               0.000004618              -0.000096369               0.999999999               0.000003224              -0.000101084               0.999999999               0.000001372              -0.000107468               0.999999999              -0.000001050              -0.000115322               0.999999999              -0.000003890              -0.000124528               0.999999999              -0.000007171              -0.000135165               0.999999999              -0.000010504              -0.000147113               0.999999999              -0.000013711              -0.000160192               0.999999999              -0.000016831              -0.000174295               0.999999999              -0.000020056              -0.000189421               0.999999999              -0.000023492              -0.000205495               0.999999999              -0.000027120              -0.000222481               0.999999999              -0.000030934              -0.000240341               0.999999999              -0.000035158              -0.000259099               0.999999999               0.000000929              -0.000102252               0.999999999               0.000004380              -0.000099522               0.999999999               0.000004975              -0.000099740               0.999999999               0.000004538              -0.000102290               0.999999999               0.000003593              -0.000106647               0.999999999               0.000002183              -0.000112561               0.999999999               0.000000363              -0.000119805               0.999999999              -0.000001872              -0.000128409               0.999999999              -0.000004363              -0.000138453               0.999999999              -0.000007050              -0.000149804               0.999999999              -0.000009672              -0.000162286               0.999999999              -0.000012150              -0.000175672               0.999999999              -0.000014514              -0.000189948               0.999999999              -0.000016949              -0.000205142               0.999999999              -0.000019464              -0.000221278               0.999999999              -0.000021891              -0.000238179               0.999999999              -0.000024486              -0.000255880               0.999999999               0.000000508              -0.000105944               0.999999999               0.000003419              -0.000104433               0.999999999               0.000004139              -0.000104984               0.999999999               0.000003980              -0.000107483               0.999999999               0.000003406              -0.000111641               0.999999999               0.000002421              -0.000117248               0.999999999               0.000001118              -0.000124095               0.999999999              -0.000000418              -0.000132354               0.999999999              -0.000002236              -0.000141968               0.999999999              -0.000004262              -0.000152745               0.999999999              -0.000006286              -0.000164632               0.999999999              -0.000008159              -0.000177440               0.999999999              -0.000009855              -0.000191080               0.999999999              -0.000011479              -0.000205644               0.999999999              -0.000013046              -0.000221099               0.999999999              -0.000014569              -0.000237366               0.999999999              -0.000016037              -0.000254355               0.999999999               0.000000227              -0.000108610               0.999999999               0.000002342              -0.000108081               0.999999999               0.000002957              -0.000109012               0.999999999               0.000002964              -0.000111577               0.999999999               0.000002661              -0.000115659               0.999999999               0.000002059              -0.000121083               0.999999999               0.000001265              -0.000127802               0.999999999               0.000000292              -0.000135820               0.999999999              -0.000000950              -0.000145034               0.999999999              -0.000002269              -0.000155408               0.999999999              -0.000003602              -0.000166806               0.999999999              -0.000004835              -0.000179153               0.999999999              -0.000005969              -0.000192452               0.999999999              -0.000007010              -0.000206679               0.999999999              -0.000007920              -0.000221665               0.999999999              -0.000008744              -0.000237393               0.999999999              -0.000009438              -0.000253849               0.999999999               0.000000080              -0.000110243               0.999999999               0.000001192              -0.000110330               0.999999999               0.000001536              -0.000111554               0.999999999               0.000001593              -0.000114218               0.999999999               0.000001461              -0.000118281               0.999999999               0.000001191              -0.000123648               0.999999999               0.000000830              -0.000130299               0.999999999               0.000000260              -0.000138184               0.999999999              -0.000000286              -0.000147188               0.999999999              -0.000000903              -0.000157273               0.999999999              -0.000001550              -0.000168375               0.999999999              -0.000002206              -0.000180510               0.999999999              -0.000002815              -0.000193653               0.999999999              -0.000003300              -0.000207629               0.999999999              -0.000003699              -0.000222311               0.999999999              -0.000004054              -0.000237779               0.999999999              -0.000004280              -0.000253981               0.999999999               0.000000000              -0.000110780               0.999999999               0.000000000              -0.000111091               0.999999999              -0.000000000              -0.000112441               0.999999999              -0.000000000              -0.000115120               0.999999999               0.000000000              -0.000119182               0.999999999               0.000000000              -0.000124555               0.999999999              -0.000000000              -0.000131152               0.999999999               0.000000000              -0.000139054               0.999999999              -0.000000000              -0.000148027               0.999999999              -0.000000000              -0.000157919               0.999999999              -0.000000000              -0.000168940               0.999999999              -0.000000000              -0.000181093               0.999999999              -0.000000000              -0.000194138               0.999999999              -0.000000000              -0.000207979               0.999999999              -0.000000000              -0.000222602               0.999999999               0.000000000              -0.000237998               0.999999999               0.000000000              -0.000254112               0.999999999              -0.000007621              -0.000000000               0.999999999              -0.000003164               0.000000000               0.999999999              -0.000001024               0.000000000               0.999999999               0.000000047               0.000000000               0.999999999               0.000000621               0.000000000               0.999999999               0.000000860               0.000000000               0.999999999               0.000000942              -0.000000000               0.999999999               0.000001037              -0.000000000               0.999999999               0.000001233              -0.000000000               0.999999999               0.000001694              -0.000000000               0.999999999               0.000002497              -0.000000000               0.999999999               0.000003621              -0.000000000               0.999999999               0.000005064              -0.000000000               0.999999999               0.000006934              -0.000000000               0.999999999               0.000009358              -0.000000000               0.999999999               0.000012327              -0.000000000               0.999999999               0.000015848              -0.000000000               0.999999999              -0.000007512              -0.000010918               0.999999999              -0.000003217              -0.000009984               0.999999999              -0.000001173              -0.000009794               0.999999999              -0.000000095              -0.000010050               0.999999999               0.000000475              -0.000010515               0.999999999               0.000000797              -0.000011120               0.999999999               0.000001015              -0.000011929               0.999999999               0.000001243              -0.000012948               0.999999999               0.000001664              -0.000014287               0.999999999               0.000002365              -0.000015864               0.999999999               0.000003359              -0.000017541               0.999999999               0.000004671              -0.000019266               0.999999999               0.000006384              -0.000021250               0.999999999               0.000008536              -0.000023435               0.999999999               0.000011114              -0.000025764               0.999999999               0.000014223              -0.000028363               0.999999999               0.000017915              -0.000031247               0.999999999              -0.000007309              -0.000021754               0.999999999              -0.000003393              -0.000019823               0.999999999              -0.000001545              -0.000019525               0.999999999              -0.000000529              -0.000020065               0.999999999               0.000000118              -0.000021074               0.999999999               0.000000655              -0.000022414               0.999999999               0.000001188              -0.000024062               0.999999999               0.000001890              -0.000026239               0.999999999               0.000002885              -0.000028942               0.999999999               0.000004178              -0.000032043               0.999999999               0.000005830              -0.000035318               0.999999999               0.000007767              -0.000038702               0.999999999               0.000010037              -0.000042597               0.999999999               0.000012768              -0.000046797               0.999999999               0.000015948              -0.000051286               0.999999999               0.000019589              -0.000056194               0.999999999               0.000023696              -0.000061489               0.999999999              -0.000006972              -0.000032354               0.999999999              -0.000003678              -0.000029431               0.999999999              -0.000002117              -0.000029079               0.999999999              -0.000001148              -0.000030063               0.999999999              -0.000000315              -0.000031709               0.999999999               0.000000510              -0.000033905               0.999999999               0.000001546              -0.000036615               0.999999999               0.000002930              -0.000040050               0.999999999               0.000004671              -0.000044212               0.999999999               0.000006806              -0.000048795               0.999999999               0.000009220              -0.000053564               0.999999999               0.000011926              -0.000058573               0.999999999               0.000015031              -0.000064228               0.999999999               0.000018521              -0.000070293               0.999999999               0.000022341              -0.000076767               0.999999999               0.000026557              -0.000083722               0.999999999               0.000031233              -0.000091018               0.999999999              -0.000006474              -0.000042574               0.999999999              -0.000004082              -0.000038723               0.999999999              -0.000002803              -0.000038436               0.999999999              -0.000001783              -0.000039956               0.999999999              -0.000000760              -0.000042400               0.999999999               0.000000499              -0.000045617               0.999999999               0.000002137              -0.000049571               0.999999999               0.000004250              -0.000054491               0.999999999               0.000006867              -0.000060109               0.999999999               0.000009810              -0.000066238               0.999999999               0.000013070              -0.000072403               0.999999999               0.000016644              -0.000079095               0.999999999               0.000020548              -0.000086499               0.999999999               0.000024816              -0.000094386               0.999999999               0.000029434              -0.000102764               0.999999999               0.000034516              -0.000111709               0.999999999               0.000040086              -0.000121215               0.999999999              -0.000005913              -0.000052372               0.999999999              -0.000004509              -0.000047621               0.999999999              -0.000003467              -0.000047537               0.999999999              -0.000002341              -0.000049674               0.999999999              -0.000000979              -0.000053062               0.999999999               0.000000759              -0.000057445               0.999999999               0.000003023              -0.000062830               0.999999999               0.000005907              -0.000069358               0.999999999               0.000009275              -0.000076630               0.999999999               0.000013015              -0.000084230               0.999999999               0.000017080              -0.000092088               0.999999999               0.000021445              -0.000100621               0.999999999               0.000026220              -0.000109900               0.999999999               0.000031451              -0.000119804               0.999999999               0.000037170              -0.000130419               0.999999999               0.000043351              -0.000141695               0.999999999               0.000049955              -0.000153667               0.999999999              -0.000005285              -0.000061660               0.999999999              -0.000004950              -0.000056110               0.999999999              -0.000004054              -0.000056325               0.999999999              -0.000002687              -0.000059188               0.999999999              -0.000000921              -0.000063593               0.999999999               0.000001343              -0.000069249               0.999999999               0.000004307              -0.000076269               0.999999999               0.000007931              -0.000084482               0.999999999               0.000012031              -0.000093401               0.999999999               0.000016447              -0.000102806               0.999999999               0.000021180              -0.000112623               0.999999999               0.000026328              -0.000123418               0.999999999               0.000031934              -0.000135211               0.999999999               0.000038049              -0.000147727               0.999999999               0.000044701              -0.000161100               0.999999999               0.000051896              -0.000175262               0.999999999               0.000059562              -0.000190140               0.999999999              -0.000004578              -0.000070283               0.999999999              -0.000005393              -0.000064170               0.999999999              -0.000004479              -0.000064790               0.999999999              -0.000002810              -0.000068444               0.999999999              -0.000000624              -0.000073955               0.999999999               0.000002254              -0.000081039               0.999999999               0.000005950              -0.000089758               0.999999999               0.000010307              -0.000099716               0.999999999               0.000015035              -0.000110506               0.999999999               0.000019994              -0.000121996               0.999999999               0.000025257              -0.000134441               0.999999999               0.000030968              -0.000148187               0.999999999               0.000037246              -0.000163072               0.999999999               0.000044177              -0.000178823               0.999999999               0.000051744              -0.000195513               0.999999999               0.000059901              -0.000213139               0.999999999               0.000068504              -0.000231574               0.999999999              -0.000003811              -0.000078104               0.999999999              -0.000005771              -0.000071778               0.999999999              -0.000004721              -0.000072890               0.999999999              -0.000002754              -0.000077382               0.999999999              -0.000000117              -0.000084116               0.999999999               0.000003370              -0.000092825               0.999999999               0.000007796              -0.000103341               0.999999999               0.000012737              -0.000115245               0.999999999               0.000017898              -0.000128265               0.999999999               0.000023144              -0.000142563               0.999999999               0.000028757              -0.000158237               0.999999999               0.000035176              -0.000175326               0.999999999               0.000042277              -0.000193765               0.999999999               0.000049991              -0.000213231               0.999999999               0.000058339              -0.000233793               0.999999999               0.000067149              -0.000255383               0.999999999               0.000076329              -0.000277648               0.999999999              -0.000002938              -0.000085388               0.999999999              -0.000005867              -0.000079510               0.999999999              -0.000005266              -0.000079903               0.999999999              -0.000003602              -0.000083670               0.999999999              -0.000001367              -0.000089606               0.999999999               0.000001557              -0.000097389               0.999999999               0.000005347              -0.000106851               0.999999999               0.000009603              -0.000117845               0.999999999               0.000014055              -0.000130094               0.999999999               0.000018577              -0.000143513               0.999999999               0.000023213              -0.000158115               0.999999999               0.000028259              -0.000174058               0.999999999               0.000033931              -0.000191243               0.999999999               0.000040059              -0.000209578               0.999999999               0.000046592              -0.000228883               0.999999999               0.000053773              -0.000249211               0.999999999               0.000061386              -0.000270508               0.999999999              -0.000002142              -0.000091880               0.999999999              -0.000005648              -0.000086847               0.999999999              -0.000005541              -0.000086903               0.999999999              -0.000004265              -0.000090065               0.999999999              -0.000002455              -0.000095332               0.999999999              -0.000000054              -0.000102318               0.999999999               0.000003005              -0.000110913               0.999999999               0.000006535              -0.000120972               0.999999999               0.000010416              -0.000132371               0.999999999               0.000014377              -0.000144998               0.999999999               0.000018210              -0.000158825               0.999999999               0.000022142              -0.000173753               0.999999999               0.000026526              -0.000189773               0.999999999               0.000031224              -0.000206909               0.999999999               0.000036154              -0.000225010               0.999999999               0.000041618              -0.000244076               0.999999999               0.000047636              -0.000264026               0.999999999              -0.000001459              -0.000097513               0.999999999              -0.000005137              -0.000093571               0.999999999              -0.000005450              -0.000093621               0.999999999              -0.000004618              -0.000096369               0.999999999              -0.000003224              -0.000101084               0.999999999              -0.000001372              -0.000107468               0.999999999               0.000001050              -0.000115322               0.999999999               0.000003890              -0.000124528               0.999999999               0.000007171              -0.000135165               0.999999999               0.000010504              -0.000147113               0.999999999               0.000013711              -0.000160192               0.999999999               0.000016831              -0.000174295               0.999999999               0.000020056              -0.000189421               0.999999999               0.000023492              -0.000205495               0.999999999               0.000027120              -0.000222481               0.999999999               0.000030934              -0.000240341               0.999999999               0.000035158              -0.000259099               0.999999999              -0.000000929              -0.000102252               0.999999999              -0.000004380              -0.000099522               0.999999999              -0.000004975              -0.000099740               0.999999999              -0.000004538              -0.000102290               0.999999999              -0.000003593              -0.000106647               0.999999999              -0.000002183              -0.000112561               0.999999999              -0.000000363              -0.000119805               0.999999999               0.000001872              -0.000128409               0.999999999               0.000004363              -0.000138453               0.999999999               0.000007050              -0.000149804               0.999999999               0.000009672              -0.000162286               0.999999999               0.000012150              -0.000175672               0.999999999               0.000014514              -0.000189948               0.999999999               0.000016949              -0.000205142               0.999999999               0.000019464              -0.000221278               0.999999999               0.000021891              -0.000238179               0.999999999               0.000024486              -0.000255880               0.999999999              -0.000000508              -0.000105944               0.999999999              -0.000003419              -0.000104433               0.999999999              -0.000004139              -0.000104984               0.999999999              -0.000003980              -0.000107483               0.999999999              -0.000003406              -0.000111641               0.999999999              -0.000002421              -0.000117248               0.999999999              -0.000001118              -0.000124095               0.999999999               0.000000418              -0.000132354               0.999999999               0.000002236              -0.000141968               0.999999999               0.000004262              -0.000152745               0.999999999               0.000006286              -0.000164632               0.999999999               0.000008159              -0.000177440               0.999999999               0.000009855              -0.000191080               0.999999999               0.000011479              -0.000205644               0.999999999               0.000013046              -0.000221099               0.999999999               0.000014569              -0.000237366               0.999999999               0.000016037              -0.000254355               0.999999999              -0.000000227              -0.000108610               0.999999999              -0.000002342              -0.000108081               0.999999999              -0.000002957              -0.000109012               0.999999999              -0.000002964              -0.000111577               0.999999999              -0.000002661              -0.000115659               0.999999999              -0.000002059              -0.000121083               0.999999999              -0.000001265              -0.000127802               0.999999999              -0.000000292              -0.000135820               0.999999999               0.000000950              -0.000145034               0.999999999               0.000002269              -0.000155408               0.999999999               0.000003602              -0.000166806               0.999999999               0.000004835              -0.000179153               0.999999999               0.000005969              -0.000192452               0.999999999               0.000007010              -0.000206679               0.999999999               0.000007920              -0.000221665               0.999999999               0.000008744              -0.000237393               0.999999999               0.000009438              -0.000253849               0.999999999              -0.000000080              -0.000110243               0.999999999              -0.000001192              -0.000110330               0.999999999              -0.000001536              -0.000111554               0.999999999              -0.000001593              -0.000114218               0.999999999              -0.000001461              -0.000118281               0.999999999              -0.000001191              -0.000123648               0.999999999              -0.000000830              -0.000130299               0.999999999              -0.000000260              -0.000138184               0.999999999               0.000000286              -0.000147188               0.999999999               0.000000903              -0.000157273               0.999999999               0.000001550              -0.000168375               0.999999999               0.000002206              -0.000180510               0.999999999               0.000002815              -0.000193653               0.999999999               0.000003300              -0.000207629               0.999999999               0.000003699              -0.000222311               0.999999999               0.000004054              -0.000237779               0.999999999               0.000004280              -0.000253981               0.999999999               0.000000000              -0.000110780               0.999999999               0.000000000              -0.000111091               0.999999999              -0.000000000              -0.000112441               0.999999999              -0.000000000              -0.000115120               0.999999999               0.000000000              -0.000119182               0.999999999               0.000000000              -0.000124555               0.999999999              -0.000000000              -0.000131152               0.999999999               0.000000000              -0.000139054               0.999999999              -0.000000000              -0.000148027               0.999999999              -0.000000000              -0.000157919               0.999999999              -0.000000000              -0.000168940               0.999999999              -0.000000000              -0.000181093               0.999999999              -0.000000000              -0.000194138               0.999999999              -0.000000000              -0.000207979               0.999999999              -0.000000000              -0.000222602               0.999999999               0.000000000              -0.000237998               0.999999999               0.000000000              -0.000254112               0.999999999              -0.000007621              -0.000000000               0.999999999              -0.000003164               0.000000000               0.999999999              -0.000001024               0.000000000               0.999999999               0.000000047               0.000000000               0.999999999               0.000000621               0.000000000               0.999999999               0.000000860               0.000000000               0.999999999               0.000000942              -0.000000000               0.999999999               0.000001037              -0.000000000               0.999999999               0.000001233              -0.000000000               0.999999999               0.000001694              -0.000000000               0.999999999               0.000002497              -0.000000000               0.999999999               0.000003621              -0.000000000               0.999999999               0.000005064              -0.000000000               0.999999999               0.000006934              -0.000000000               0.999999999               0.000009358              -0.000000000               0.999999999               0.000012327              -0.000000000               0.999999999               0.000015848              -0.000000000               0.999999999              -0.000007512               0.000010918               0.999999999              -0.000003217               0.000009984               0.999999999              -0.000001173               0.000009794               0.999999999              -0.000000095               0.000010050               0.999999999               0.000000475               0.000010515               0.999999999               0.000000797               0.000011120               0.999999999               0.000001015               0.000011929               0.999999999               0.000001243               0.000012948               0.999999999               0.000001664               0.000014287               0.999999999               0.000002365               0.000015864               0.999999999               0.000003359               0.000017541               0.999999999               0.000004671               0.000019266               0.999999999               0.000006384               0.000021250               0.999999999               0.000008536               0.000023435               0.999999999               0.000011114               0.000025764               0.999999999               0.000014223               0.000028363               0.999999999               0.000017915               0.000031247               0.999999999              -0.000007309               0.000021754               0.999999999              -0.000003393               0.000019823               0.999999999              -0.000001545               0.000019525               0.999999999              -0.000000529               0.000020065               0.999999999               0.000000118               0.000021074               0.999999999               0.000000655               0.000022414               0.999999999               0.000001188               0.000024062               0.999999999               0.000001890               0.000026239               0.999999999               0.000002885               0.000028942               0.999999999               0.000004178               0.000032043               0.999999999               0.000005830               0.000035318               0.999999999               0.000007767               0.000038702               0.999999999               0.000010037               0.000042597               0.999999999               0.000012768               0.000046797               0.999999999               0.000015948               0.000051286               0.999999999               0.000019589               0.000056194               0.999999999               0.000023696               0.000061489               0.999999999              -0.000006972               0.000032354               0.999999999              -0.000003678               0.000029431               0.999999999              -0.000002117               0.000029079               0.999999999              -0.000001148               0.000030063               0.999999999              -0.000000315               0.000031709               0.999999999               0.000000510               0.000033905               0.999999999               0.000001546               0.000036615               0.999999999               0.000002930               0.000040050               0.999999999               0.000004671               0.000044212               0.999999999               0.000006806               0.000048795               0.999999999               0.000009220               0.000053564               0.999999999               0.000011926               0.000058573               0.999999999               0.000015031               0.000064228               0.999999999               0.000018521               0.000070293               0.999999999               0.000022341               0.000076767               0.999999999               0.000026557               0.000083722               0.999999999               0.000031233               0.000091018               0.999999999              -0.000006474               0.000042574               0.999999999              -0.000004082               0.000038723               0.999999999              -0.000002803               0.000038436               0.999999999              -0.000001783               0.000039956               0.999999999              -0.000000760               0.000042400               0.999999999               0.000000499               0.000045617               0.999999999               0.000002137               0.000049571               0.999999999               0.000004250               0.000054491               0.999999999               0.000006867               0.000060109               0.999999999               0.000009810               0.000066238               0.999999999               0.000013070               0.000072403               0.999999999               0.000016644               0.000079095               0.999999999               0.000020548               0.000086499               0.999999999               0.000024816               0.000094386               0.999999999               0.000029434               0.000102764               0.999999999               0.000034516               0.000111709               0.999999999               0.000040086               0.000121215               0.999999999              -0.000005913               0.000052372               0.999999999              -0.000004509               0.000047621               0.999999999              -0.000003467               0.000047537               0.999999999              -0.000002341               0.000049674               0.999999999              -0.000000979               0.000053062               0.999999999               0.000000759               0.000057445               0.999999999               0.000003023               0.000062830               0.999999999               0.000005907               0.000069358               0.999999999               0.000009275               0.000076630               0.999999999               0.000013015               0.000084230               0.999999999               0.000017080               0.000092088               0.999999999               0.000021445               0.000100621               0.999999999               0.000026220               0.000109900               0.999999999               0.000031451               0.000119804               0.999999999               0.000037170               0.000130419               0.999999999               0.000043351               0.000141695               0.999999999               0.000049955               0.000153667               0.999999999              -0.000005285               0.000061660               0.999999999              -0.000004950               0.000056110               0.999999999              -0.000004054               0.000056325               0.999999999              -0.000002687               0.000059188               0.999999999              -0.000000921               0.000063593               0.999999999               0.000001343               0.000069249               0.999999999               0.000004307               0.000076269               0.999999999               0.000007931               0.000084482               0.999999999               0.000012031               0.000093401               0.999999999               0.000016447               0.000102806               0.999999999               0.000021180               0.000112623               0.999999999               0.000026328               0.000123418               0.999999999               0.000031934               0.000135211               0.999999999               0.000038049               0.000147727               0.999999999               0.000044701               0.000161100               0.999999999               0.000051896               0.000175262               0.999999999               0.000059562               0.000190140               0.999999999              -0.000004578               0.000070283               0.999999999              -0.000005393               0.000064170               0.999999999              -0.000004479               0.000064790               0.999999999              -0.000002810               0.000068444               0.999999999              -0.000000624               0.000073955               0.999999999               0.000002254               0.000081039               0.999999999               0.000005950               0.000089758               0.999999999               0.000010307               0.000099716               0.999999999               0.000015035               0.000110506               0.999999999               0.000019994               0.000121996               0.999999999               0.000025257               0.000134441               0.999999999               0.000030968               0.000148187               0.999999999               0.000037246               0.000163072               0.999999999               0.000044177               0.000178823               0.999999999               0.000051744               0.000195513               0.999999999               0.000059901               0.000213139               0.999999999               0.000068504               0.000231574               0.999999999              -0.000003811               0.000078104               0.999999999              -0.000005771               0.000071778               0.999999999              -0.000004721               0.000072890               0.999999999              -0.000002754               0.000077382               0.999999999              -0.000000117               0.000084116               0.999999999               0.000003370               0.000092825               0.999999999               0.000007796               0.000103341               0.999999999               0.000012737               0.000115245               0.999999999               0.000017898               0.000128265               0.999999999               0.000023144               0.000142563               0.999999999               0.000028757               0.000158237               0.999999999               0.000035176               0.000175326               0.999999999               0.000042277               0.000193765               0.999999999               0.000049991               0.000213231               0.999999999               0.000058339               0.000233793               0.999999999               0.000067149               0.000255383               0.999999999               0.000076329               0.000277648               0.999999999              -0.000002938               0.000085388               0.999999999              -0.000005867               0.000079510               0.999999999              -0.000005266               0.000079903               0.999999999              -0.000003602               0.000083670               0.999999999              -0.000001367               0.000089606               0.999999999               0.000001557               0.000097389               0.999999999               0.000005347               0.000106851               0.999999999               0.000009603               0.000117845               0.999999999               0.000014055               0.000130094               0.999999999               0.000018577               0.000143513               0.999999999               0.000023213               0.000158115               0.999999999               0.000028259               0.000174058               0.999999999               0.000033931               0.000191243               0.999999999               0.000040059               0.000209578               0.999999999               0.000046592               0.000228883               0.999999999               0.000053773               0.000249211               0.999999999               0.000061386               0.000270508               0.999999999              -0.000002142               0.000091880               0.999999999              -0.000005648               0.000086847               0.999999999              -0.000005541               0.000086903               0.999999999              -0.000004265               0.000090065               0.999999999              -0.000002455               0.000095332               0.999999999              -0.000000054               0.000102318               0.999999999               0.000003005               0.000110913               0.999999999               0.000006535               0.000120972               0.999999999               0.000010416               0.000132371               0.999999999               0.000014377               0.000144998               0.999999999               0.000018210               0.000158825               0.999999999               0.000022142               0.000173753               0.999999999               0.000026526               0.000189773               0.999999999               0.000031224               0.000206909               0.999999999               0.000036154               0.000225010               0.999999999               0.000041618               0.000244076               0.999999999               0.000047636               0.000264026               0.999999999              -0.000001459               0.000097513               0.999999999              -0.000005137               0.000093571               0.999999999              -0.000005450               0.000093621               0.999999999              -0.000004618               0.000096369               0.999999999              -0.000003224               0.000101084               0.999999999              -0.000001372               0.000107468               0.999999999               0.000001050               0.000115322               0.999999999               0.000003890               0.000124528               0.999999999               0.000007171               0.000135165               0.999999999               0.000010504               0.000147113               0.999999999               0.000013711               0.000160192               0.999999999               0.000016831               0.000174295               0.999999999               0.000020056               0.000189421               0.999999999               0.000023492               0.000205495               0.999999999               0.000027120               0.000222481               0.999999999               0.000030934               0.000240341               0.999999999               0.000035158               0.000259099               0.999999999              -0.000000929               0.000102252               0.999999999              -0.000004380               0.000099522               0.999999999              -0.000004975               0.000099740               0.999999999              -0.000004538               0.000102290               0.999999999              -0.000003593               0.000106647               0.999999999              -0.000002183               0.000112561               0.999999999              -0.000000363               0.000119805               0.999999999               0.000001872               0.000128409               0.999999999               0.000004363               0.000138453               0.999999999               0.000007050               0.000149804               0.999999999               0.000009672               0.000162286               0.999999999               0.000012150               0.000175672               0.999999999               0.000014514               0.000189948               0.999999999               0.000016949               0.000205142               0.999999999               0.000019464               0.000221278               0.999999999               0.000021891               0.000238179               0.999999999               0.000024486               0.000255880               0.999999999              -0.000000508               0.000105944               0.999999999              -0.000003419               0.000104433               0.999999999              -0.000004139               0.000104984               0.999999999              -0.000003980               0.000107483               0.999999999              -0.000003406               0.000111641               0.999999999              -0.000002421               0.000117248               0.999999999              -0.000001118               0.000124095               0.999999999               0.000000418               0.000132354               0.999999999               0.000002236               0.000141968               0.999999999               0.000004262               0.000152745               0.999999999               0.000006286               0.000164632               0.999999999               0.000008159               0.000177440               0.999999999               0.000009855               0.000191080               0.999999999               0.000011479               0.000205644               0.999999999               0.000013046               0.000221099               0.999999999               0.000014569               0.000237366               0.999999999               0.000016037               0.000254355               0.999999999              -0.000000227               0.000108610               0.999999999              -0.000002342               0.000108081               0.999999999              -0.000002957               0.000109012               0.999999999              -0.000002964               0.000111577               0.999999999              -0.000002661               0.000115659               0.999999999              -0.000002059               0.000121083               0.999999999              -0.000001265               0.000127802               0.999999999              -0.000000292               0.000135820               0.999999999               0.000000950               0.000145034               0.999999999               0.000002269               0.000155408               0.999999999               0.000003602               0.000166806               0.999999999               0.000004835               0.000179153               0.999999999               0.000005969               0.000192452               0.999999999               0.000007010               0.000206679               0.999999999               0.000007920               0.000221665               0.999999999               0.000008744               0.000237393               0.999999999               0.000009438               0.000253849               0.999999999              -0.000000080               0.000110243               0.999999999              -0.000001192               0.000110330               0.999999999              -0.000001536               0.000111554               0.999999999              -0.000001593               0.000114218               0.999999999              -0.000001461               0.000118281               0.999999999              -0.000001191               0.000123648               0.999999999              -0.000000830               0.000130299               0.999999999              -0.000000260               0.000138184               0.999999999               0.000000286               0.000147188               0.999999999               0.000000903               0.000157273               0.999999999               0.000001550               0.000168375               0.999999999               0.000002206               0.000180510               0.999999999               0.000002815               0.000193653               0.999999999               0.000003300               0.000207629               0.999999999               0.000003699               0.000222311               0.999999999               0.000004054               0.000237779               0.999999999               0.000004280               0.000253981               0.999999999              -0.000000000               0.000110780               0.999999999               0.000000000               0.000111091               0.999999999               0.000000000               0.000112441               0.999999999              -0.000000000               0.000115120               0.999999999              -0.000000000               0.000119182               0.999999999              -0.000000000               0.000124555               0.999999999              -0.000000000               0.000131152               0.999999999              -0.000000000               0.000139054               0.999999999              -0.000000000               0.000148027               0.999999999              -0.000000000               0.000157919               0.999999999               0.000000000               0.000168940               0.999999999               0.000000000               0.000181093               0.999999999               0.000000000               0.000194138               0.999999999               0.000000000               0.000207979               0.999999999               0.000000000               0.000222602               0.999999999              -0.000000000               0.000237998               0.999999999              -0.000000000               0.000254112               0.999999999 </DataArray>
<DataArray type="Float64"                                    Name="stress"                                                      NumberOfComponents="10" format="ascii">
              0.000178128               0.002064561              -0.000000000              -0.000191272               0.000751937               0.000560666               0.000000000               0.000000000               0.000000000               0.000000000               0.000209799               0.001737676              -0.000000000              -0.000138534               0.000625398               0.000486863               0.000000000               0.000000000               0.000000000               0.000000000               0.000307845               0.001470072              -0.000000000              -0.000068317               0.000512791               0.000444474               0.000000000               0.000000000               0.000000000               0.000000000               0.000344843               0.001319412              -0.000000000              -0.000035610               0.000451670               0.000416059               0.000000000               0.000000000               0.000000000               0.000000000               0.000359976               0.001225758               0.000000000              -0.000018229               0.000414658               0.000396430               0.000000000               0.000000000               0.000000000               0.000000000               0.000365678               0.001165466              -0.000000000              -0.000008554               0.000391336               0.000382782               0.000000000               0.000000000               0.000000000               0.000000000               0.000361615               0.001130523              -0.000000000              -0.000005710               0.000378741               0.000373031               0.000000000               0.000000000               0.000000000               0.000000000               0.000348749               0.001116096              -0.000000000              -0.000008731               0.000374939               0.000366208               0.000000000               0.000000000               0.000000000               0.000000000               0.000327366               0.001120777              -0.000000000              -0.000017335               0.000379367               0.000362032               0.000000000               0.000000000               0.000000000               0.000000000               0.000298389               0.001136026              -0.000000000              -0.000030107               0.000388708               0.000358600               0.000000000               0.000000000               0.000000000               0.000000000               0.000267332               0.001153999              -0.000000000              -0.000044000               0.000399329               0.000355329               0.000000000               0.000000000               0.000000000               0.000000000               0.000235350               0.001173132              -0.000000000              -0.000058385               0.000410502               0.000352117               0.000000000               0.000000000               0.000000000               0.000000000               0.000198974               0.001198504              -0.000000000              -0.000075198               0.000424563               0.000349365               0.000000000               0.000000000               0.000000000               0.000000000               0.000154007               0.001226754              -0.000000000              -0.000095591               0.000440778               0.000345186               0.000000000               0.000000000               0.000000000               0.000000000               0.000103027               0.001256496              -0.000000000              -0.000118427               0.000458303               0.000339877               0.000000000               0.000000000               0.000000000               0.000000000               0.000050989               0.001292296               0.000000000              -0.000142416               0.000478233               0.000335817               0.000000000               0.000000000               0.000000000               0.000000000               0.000029431               0.001323684               0.000000000              -0.000154423               0.000492698               0.000338275               0.000000000               0.000000000               0.000000000               0.000000000               0.000192951               0.002035028              -0.000161064              -0.000182021               0.000739010               0.000556988               0.000000000               0.000000000               0.000000000               0.000000000               0.000216988               0.001714813              -0.000110256              -0.000132981               0.000615926               0.000482945               0.000000000               0.000000000               0.000000000               0.000000000               0.000306037               0.001458085              -0.000057414              -0.000067497               0.000508522               0.000441026               0.000000000               0.000000000               0.000000000               0.000000000               0.000338849               0.001313068              -0.000033531              -0.000037065               0.000450040               0.000412975               0.000000000               0.000000000               0.000000000               0.000000000               0.000351552               0.001224587              -0.000023424              -0.000021241               0.000415272               0.000394031               0.000000000               0.000000000               0.000000000               0.000000000               0.000354420               0.001168927              -0.000018965              -0.000013208               0.000394041               0.000380833               0.000000000               0.000000000               0.000000000               0.000000000               0.000349797               0.001136496              -0.000015723              -0.000010888               0.000382457               0.000371569               0.000000000               0.000000000               0.000000000               0.000000000               0.000335975               0.001125366              -0.000012416              -0.000014680               0.000380012               0.000365331               0.000000000               0.000000000               0.000000000               0.000000000               0.000313729               0.001130142              -0.000010934              -0.000023619               0.000384583               0.000360964               0.000000000               0.000000000               0.000000000               0.000000000               0.000287425               0.001143833              -0.000013690              -0.000035194               0.000393005               0.000357811               0.000000000               0.000000000               0.000000000               0.000000000               0.000259696               0.001159778              -0.000019215              -0.000047586               0.000402451               0.000354865               0.000000000               0.000000000               0.000000000               0.000000000               0.000227863               0.001176403              -0.000020010              -0.000061601               0.000412664               0.000351063               0.000000000               0.000000000               0.000000000               0.000000000               0.000189985               0.001198558              -0.000017652              -0.000078575               0.000425707               0.000347132               0.000000000               0.000000000               0.000000000               0.000000000               0.000148679               0.001223854              -0.000017327              -0.000097227               0.000440356               0.000343129               0.000000000               0.000000000               0.000000000               0.000000000               0.000102764               0.001250684              -0.000014421              -0.000117799               0.000456157               0.000338358               0.000000000               0.000000000               0.000000000               0.000000000               0.000050941               0.001279908              -0.000008152              -0.000140885               0.000473593               0.000332708               0.000000000               0.000000000               0.000000000               0.000000000               0.000027899               0.001304861              -0.000005383              -0.000152645               0.000485831               0.000333186               0.000000000               0.000000000               0.000000000               0.000000000               0.000227353               0.001943902              -0.000306369              -0.000157730               0.000700538               0.000542807               0.000000000               0.000000000               0.000000000               0.000000000               0.000232215               0.001648348              -0.000209757              -0.000118963               0.000589098               0.000470135               0.000000000               0.000000000               0.000000000               0.000000000               0.000300752               0.001422684              -0.000110259              -0.000065054               0.000495908               0.000430854               0.000000000               0.000000000               0.000000000               0.000000000               0.000322568               0.001297032              -0.000066165              -0.000041166               0.000446061               0.000404896               0.000000000               0.000000000               0.000000000               0.000000000               0.000328151               0.001221153              -0.000047389              -0.000029587               0.000416909               0.000387322               0.000000000               0.000000000               0.000000000               0.000000000               0.000326239               0.001176824              -0.000038870              -0.000024764               0.000400525               0.000375762               0.000000000               0.000000000               0.000000000               0.000000000               0.000317197               0.001153698              -0.000032069              -0.000025263               0.000392983               0.000367720               0.000000000               0.000000000               0.000000000               0.000000000               0.000300455               0.001149235              -0.000025374              -0.000030984               0.000393402               0.000362419               0.000000000               0.000000000               0.000000000               0.000000000               0.000279484               0.001156007              -0.000022839              -0.000039694               0.000398563               0.000358869               0.000000000               0.000000000               0.000000000               0.000000000               0.000255823               0.001165458              -0.000027290              -0.000049748               0.000405065               0.000355317               0.000000000               0.000000000               0.000000000               0.000000000               0.000231973               0.001175475              -0.000035134              -0.000059944               0.000411803               0.000351858               0.000000000               0.000000000               0.000000000               0.000000000               0.000206484               0.001188669              -0.000034205              -0.000071152               0.000419936               0.000348784               0.000000000               0.000000000               0.000000000               0.000000000               0.000172176               0.001204838              -0.000028655              -0.000086038               0.000430288               0.000344250               0.000000000               0.000000000               0.000000000               0.000000000               0.000133097               0.001222016              -0.000026164              -0.000102840               0.000441615               0.000338774               0.000000000               0.000000000               0.000000000               0.000000000               0.000092157               0.001240969              -0.000019970              -0.000120562               0.000453840               0.000333278               0.000000000               0.000000000               0.000000000               0.000000000               0.000046273               0.001259070              -0.000010469              -0.000140031               0.000466363               0.000326332               0.000000000               0.000000000               0.000000000               0.000000000               0.000024791               0.001273184              -0.000006587              -0.000149851               0.000474341               0.000324490               0.000000000               0.000000000               0.000000000               0.000000000               0.000277093               0.001799564              -0.000424804              -0.000121036               0.000640194               0.000519158               0.000000000               0.000000000               0.000000000               0.000000000               0.000253059               0.001548068              -0.000290921              -0.000098611               0.000548888               0.000450277               0.000000000               0.000000000               0.000000000               0.000000000               0.000291282               0.001370095              -0.000154756              -0.000062031               0.000477371               0.000415340               0.000000000               0.000000000               0.000000000               0.000000000               0.000298587               0.001272466              -0.000097116              -0.000047088               0.000439847               0.000392759               0.000000000               0.000000000               0.000000000               0.000000000               0.000296365               0.001215194              -0.000071568              -0.000040762               0.000418648               0.000377886               0.000000000               0.000000000               0.000000000               0.000000000               0.000288773               0.001186128              -0.000058743              -0.000039976               0.000408697               0.000368721               0.000000000               0.000000000               0.000000000               0.000000000               0.000273128               0.001177109              -0.000048693              -0.000044716               0.000407271               0.000362555               0.000000000               0.000000000               0.000000000               0.000000000               0.000254156               0.001182082              -0.000038769              -0.000052452               0.000411507               0.000359056               0.000000000               0.000000000               0.000000000               0.000000000               0.000234179               0.001190223              -0.000035260              -0.000060961               0.000417057               0.000356097               0.000000000               0.000000000               0.000000000               0.000000000               0.000215390               0.001197232              -0.000040509              -0.000068883               0.000422034               0.000353152               0.000000000               0.000000000               0.000000000               0.000000000               0.000197175               0.001201824              -0.000046114              -0.000076287               0.000426033               0.000349746               0.000000000               0.000000000               0.000000000               0.000000000               0.000174509               0.001212130              -0.000040850              -0.000086075               0.000432731               0.000346656               0.000000000               0.000000000               0.000000000               0.000000000               0.000144831               0.001223815              -0.000031833              -0.000098665               0.000440822               0.000342157               0.000000000               0.000000000               0.000000000               0.000000000               0.000114933               0.001236889              -0.000025840              -0.000111511               0.000449462               0.000337952               0.000000000               0.000000000               0.000000000               0.000000000               0.000082081               0.001250611              -0.000016625              -0.000125546               0.000458715               0.000333169               0.000000000               0.000000000               0.000000000               0.000000000               0.000041346               0.001262426              -0.000007132              -0.000142298               0.000468237               0.000325939               0.000000000               0.000000000               0.000000000               0.000000000               0.000022415               0.001273280              -0.000004875              -0.000150754               0.000474674               0.000323920               0.000000000               0.000000000               0.000000000               0.000000000               0.000335778               0.001623663              -0.000506151              -0.000077042               0.000566896               0.000489855               0.000000000               0.000000000               0.000000000               0.000000000               0.000276870               0.001426445              -0.000349802              -0.000074479               0.000500303               0.000425824               0.000000000               0.000000000               0.000000000               0.000000000               0.000278237               0.001307372              -0.000191874              -0.000059083               0.000455481               0.000396398               0.000000000               0.000000000               0.000000000               0.000000000               0.000273428               0.001240648              -0.000125473              -0.000052546               0.000431061               0.000378515               0.000000000               0.000000000               0.000000000               0.000000000               0.000265180               0.001206120              -0.000095352              -0.000051323               0.000419144               0.000367821               0.000000000               0.000000000               0.000000000               0.000000000               0.000250771               0.001194015              -0.000078535              -0.000055213               0.000416405               0.000361192               0.000000000               0.000000000               0.000000000               0.000000000               0.000230722               0.001199816              -0.000063716              -0.000063456               0.000421087               0.000357631               0.000000000               0.000000000               0.000000000               0.000000000               0.000208443               0.001214527              -0.000052066              -0.000073649               0.000429388               0.000355739               0.000000000               0.000000000               0.000000000               0.000000000               0.000190184               0.001226064              -0.000048046              -0.000081939               0.000435997               0.000354058               0.000000000               0.000000000               0.000000000               0.000000000               0.000175318               0.001231881              -0.000052861              -0.000088241               0.000440036               0.000351796               0.000000000               0.000000000               0.000000000               0.000000000               0.000160334               0.001238971              -0.000054961              -0.000094746               0.000444568               0.000349822               0.000000000               0.000000000               0.000000000               0.000000000               0.000143110               0.001253420              -0.000044303              -0.000103011               0.000452140               0.000349129               0.000000000               0.000000000               0.000000000               0.000000000               0.000119797               0.001267233              -0.000033034              -0.000113480               0.000460234               0.000346753               0.000000000               0.000000000               0.000000000               0.000000000               0.000095575               0.001282581              -0.000025577              -0.000124481               0.000469016               0.000344535               0.000000000               0.000000000               0.000000000               0.000000000               0.000068146               0.001300095              -0.000017207              -0.000136957               0.000479013               0.000342056               0.000000000               0.000000000               0.000000000               0.000000000               0.000033930               0.001317180              -0.000007964              -0.000151924               0.000489697               0.000337773               0.000000000               0.000000000               0.000000000               0.000000000               0.000020277               0.001333183              -0.000005828              -0.000159043               0.000497404               0.000338361               0.000000000               0.000000000               0.000000000               0.000000000               0.000384954               0.001430471              -0.000551663              -0.000034452               0.000488303               0.000453851               0.000000000               0.000000000               0.000000000               0.000000000               0.000296171               0.001294831              -0.000387178              -0.000050790               0.000448536               0.000397746               0.000000000               0.000000000               0.000000000               0.000000000               0.000264854               0.001240234              -0.000221136              -0.000055709               0.000431977               0.000376268               0.000000000               0.000000000               0.000000000               0.000000000               0.000250681               0.001206474              -0.000151273              -0.000056804               0.000421089               0.000364285               0.000000000               0.000000000               0.000000000               0.000000000               0.000239560               0.001193630              -0.000117789              -0.000059369               0.000417662               0.000358294               0.000000000               0.000000000               0.000000000               0.000000000               0.000221605               0.001198483              -0.000096156              -0.000066708               0.000421726               0.000355018               0.000000000               0.000000000               0.000000000               0.000000000               0.000198663               0.001219394              -0.000077622              -0.000077925               0.000432436               0.000354510               0.000000000               0.000000000               0.000000000               0.000000000               0.000176369               0.001241318              -0.000064196              -0.000089026               0.000443444               0.000354418               0.000000000               0.000000000               0.000000000               0.000000000               0.000159805               0.001256782              -0.000060619              -0.000097171               0.000451314               0.000354143               0.000000000               0.000000000               0.000000000               0.000000000               0.000146360               0.001269023              -0.000063361              -0.000103743               0.000457584               0.000353842               0.000000000               0.000000000               0.000000000               0.000000000               0.000134578               0.001289397              -0.000059440              -0.000110708               0.000466697               0.000355990               0.000000000               0.000000000               0.000000000               0.000000000               0.000120144               0.001317767              -0.000046299              -0.000119667               0.000479140               0.000359474               0.000000000               0.000000000               0.000000000               0.000000000               0.000098745               0.001346684              -0.000035730              -0.000131306               0.000492659               0.000361353               0.000000000               0.000000000               0.000000000               0.000000000               0.000073839               0.001375892              -0.000027248              -0.000144297               0.000506725               0.000362429               0.000000000               0.000000000               0.000000000               0.000000000               0.000048593               0.001407709              -0.000018585              -0.000157741               0.000521812               0.000364071               0.000000000               0.000000000               0.000000000               0.000000000               0.000024453               0.001440171              -0.000009854              -0.000170851               0.000537002               0.000366151               0.000000000               0.000000000               0.000000000               0.000000000               0.000018051               0.001464266              -0.000008019              -0.000176264               0.000546838               0.000370574               0.000000000               0.000000000               0.000000000               0.000000000               0.000420370               0.001229589              -0.000563321               0.000003939               0.000408546               0.000412485               0.000000000               0.000000000               0.000000000               0.000000000               0.000307421               0.001162950              -0.000404286              -0.000030086               0.000397675               0.000367588               0.000000000               0.000000000               0.000000000               0.000000000               0.000251077               0.001175150              -0.000243280              -0.000052740               0.000409293               0.000356553               0.000000000               0.000000000               0.000000000               0.000000000               0.000232787               0.001173965              -0.000173576              -0.000059451               0.000411135               0.000351684               0.000000000               0.000000000               0.000000000               0.000000000               0.000220280               0.001181616              -0.000136451              -0.000065097               0.000415567               0.000350470               0.000000000               0.000000000               0.000000000               0.000000000               0.000201025               0.001204017              -0.000110314              -0.000075118               0.000426374               0.000351256               0.000000000               0.000000000               0.000000000               0.000000000               0.000178339               0.001237117              -0.000089403              -0.000087762               0.000441622               0.000353860               0.000000000               0.000000000               0.000000000               0.000000000               0.000159379               0.001264616              -0.000075804              -0.000098310               0.000454304               0.000355995               0.000000000               0.000000000               0.000000000               0.000000000               0.000148152               0.001288448              -0.000069937              -0.000105499               0.000464645               0.000359146               0.000000000               0.000000000               0.000000000               0.000000000               0.000139639               0.001318865              -0.000067455              -0.000112493               0.000477115               0.000364622               0.000000000               0.000000000               0.000000000               0.000000000               0.000128040               0.001363105              -0.000057910              -0.000122373               0.000495155               0.000372782               0.000000000               0.000000000               0.000000000               0.000000000               0.000111947               0.001416557              -0.000041733              -0.000135089               0.000517211               0.000382122               0.000000000               0.000000000               0.000000000               0.000000000               0.000090373               0.001469794              -0.000031817              -0.000149834               0.000539871               0.000390037               0.000000000               0.000000000               0.000000000               0.000000000               0.000064960               0.001520014              -0.000024578              -0.000165642               0.000561880               0.000396239               0.000000000               0.000000000               0.000000000               0.000000000               0.000038657               0.001568256              -0.000015803              -0.000181535               0.000583258               0.000401723               0.000000000               0.000000000               0.000000000               0.000000000               0.000016699               0.001616419              -0.000008818              -0.000195790               0.000604064               0.000408275               0.000000000               0.000000000               0.000000000               0.000000000               0.000013457               0.001650421              -0.000009306              -0.000201256               0.000617220               0.000415964               0.000000000               0.000000000               0.000000000               0.000000000               0.000442893               0.001034276              -0.000542911               0.000036799               0.000332489               0.000369288               0.000000000               0.000000000               0.000000000               0.000000000               0.000312748               0.001038924              -0.000404216              -0.000012585               0.000350500               0.000337914               0.000000000               0.000000000               0.000000000               0.000000000               0.000239278               0.001115185              -0.000259514              -0.000049669               0.000388281               0.000338612               0.000000000               0.000000000               0.000000000               0.000000000               0.000220494               0.001144152              -0.000190135              -0.000060334               0.000401492               0.000341158               0.000000000               0.000000000               0.000000000               0.000000000               0.000206537               0.001174298              -0.000149938              -0.000069336               0.000414541               0.000345205               0.000000000               0.000000000               0.000000000               0.000000000               0.000185883               0.001215799              -0.000121328              -0.000082268               0.000432685               0.000350416               0.000000000               0.000000000               0.000000000               0.000000000               0.000165501               0.001259070              -0.000098634              -0.000095321               0.000451459               0.000356139               0.000000000               0.000000000               0.000000000               0.000000000               0.000153657               0.001297987              -0.000082767              -0.000104627               0.000467534               0.000362907               0.000000000               0.000000000               0.000000000               0.000000000               0.000151591               0.001343041              -0.000071702              -0.000111033               0.000484687               0.000373654               0.000000000               0.000000000               0.000000000               0.000000000               0.000148930               0.001403717              -0.000060971              -0.000119616               0.000507773               0.000388157               0.000000000               0.000000000               0.000000000               0.000000000               0.000136950               0.001478170              -0.000046045              -0.000133414               0.000537190               0.000403775               0.000000000               0.000000000               0.000000000               0.000000000               0.000118647               0.001553574              -0.000030643              -0.000149704               0.000567754               0.000418050               0.000000000               0.000000000               0.000000000               0.000000000               0.000095389               0.001624220              -0.000023510              -0.000167256               0.000597153               0.000429897               0.000000000               0.000000000               0.000000000               0.000000000               0.000067645               0.001690195              -0.000019157              -0.000185907               0.000625362               0.000439455               0.000000000               0.000000000               0.000000000               0.000000000               0.000040699               0.001753142              -0.000011980              -0.000203880               0.000652335               0.000448455               0.000000000               0.000000000               0.000000000               0.000000000               0.000019008               0.001813533              -0.000005487              -0.000219563               0.000677692               0.000458130               0.000000000               0.000000000               0.000000000               0.000000000               0.000014908               0.001853212              -0.000006441              -0.000226060               0.000693084               0.000467024               0.000000000               0.000000000               0.000000000               0.000000000               0.000453333               0.000861179              -0.000501057               0.000062351               0.000266273               0.000328624               0.000000000               0.000000000               0.000000000               0.000000000               0.000319943               0.000929038              -0.000395366               0.000003848               0.000308393               0.000312242               0.000000000               0.000000000               0.000000000               0.000000000               0.000235397               0.001059782              -0.000274663              -0.000044199               0.000367990               0.000323791               0.000000000               0.000000000               0.000000000               0.000000000               0.000216091               0.001118244              -0.000205670              -0.000058746               0.000392326               0.000333580               0.000000000               0.000000000               0.000000000               0.000000000               0.000200479               0.001170297              -0.000162167              -0.000071107               0.000413798               0.000342690               0.000000000               0.000000000               0.000000000               0.000000000               0.000179120               0.001228309              -0.000132393              -0.000086369               0.000438222               0.000351853               0.000000000               0.000000000               0.000000000               0.000000000               0.000163317               0.001284920              -0.000108216              -0.000099371               0.000461426               0.000362055               0.000000000               0.000000000               0.000000000               0.000000000               0.000158754               0.001341825              -0.000086957              -0.000108195               0.000483336               0.000375140               0.000000000               0.000000000               0.000000000               0.000000000               0.000164370               0.001411925              -0.000067413              -0.000114851               0.000508921               0.000394069               0.000000000               0.000000000               0.000000000               0.000000000               0.000169041               0.001498520              -0.000049571              -0.000123924               0.000540810               0.000416885               0.000000000               0.000000000               0.000000000               0.000000000               0.000156726               0.001588687              -0.000035473              -0.000139813               0.000576161               0.000436348               0.000000000               0.000000000               0.000000000               0.000000000               0.000135647               0.001675724              -0.000024828              -0.000158598               0.000611435               0.000452837               0.000000000               0.000000000               0.000000000               0.000000000               0.000115145               0.001755051              -0.000018003              -0.000176201               0.000643745               0.000467543               0.000000000               0.000000000               0.000000000               0.000000000               0.000090643               0.001829082              -0.000012619              -0.000194643               0.000674569               0.000479926               0.000000000               0.000000000               0.000000000               0.000000000               0.000066233               0.001901565              -0.000005467              -0.000212858               0.000704801               0.000491944               0.000000000               0.000000000               0.000000000               0.000000000               0.000047850               0.001968066              -0.000000346              -0.000228064               0.000732037               0.000503973               0.000000000               0.000000000               0.000000000               0.000000000               0.000038621               0.002002086               0.000000505              -0.000235777               0.000745948               0.000510170               0.000000000               0.000000000               0.000000000               0.000000000               0.000447915               0.000688743              -0.000447308               0.000081874               0.000202287               0.000284161               0.000000000               0.000000000               0.000000000               0.000000000               0.000328257               0.000797877              -0.000382686               0.000023361               0.000258169               0.000281530               0.000000000               0.000000000               0.000000000               0.000000000               0.000240664               0.000970017              -0.000294385              -0.000031003               0.000333670               0.000302667               0.000000000               0.000000000               0.000000000               0.000000000               0.000220025               0.001059394              -0.000227680              -0.000049915               0.000369766               0.000319851               0.000000000               0.000000000               0.000000000               0.000000000               0.000206029               0.001129556              -0.000182162              -0.000063934               0.000397826               0.000333892               0.000000000               0.000000000               0.000000000               0.000000000               0.000188240               0.001199993              -0.000151969              -0.000079409               0.000426463               0.000347054               0.000000000               0.000000000               0.000000000               0.000000000               0.000173100               0.001273114              -0.000126256              -0.000094226               0.000455776               0.000361550               0.000000000               0.000000000               0.000000000               0.000000000               0.000169133               0.001349054              -0.000101140              -0.000105207               0.000484749               0.000379542               0.000000000               0.000000000               0.000000000               0.000000000               0.000177704               0.001432746              -0.000079395              -0.000112454               0.000515062               0.000402608               0.000000000               0.000000000               0.000000000               0.000000000               0.000190601               0.001525150              -0.000059720              -0.000119168               0.000548101               0.000428933               0.000000000               0.000000000               0.000000000               0.000000000               0.000193417               0.001623040              -0.000044364              -0.000130348               0.000584458               0.000454109               0.000000000               0.000000000               0.000000000               0.000000000               0.000181268               0.001716956              -0.000034316              -0.000146644               0.000621194               0.000474550               0.000000000               0.000000000               0.000000000               0.000000000               0.000163294               0.001801082              -0.000024959              -0.000163900               0.000654988               0.000491088               0.000000000               0.000000000               0.000000000               0.000000000               0.000141249               0.001876951              -0.000013944              -0.000181650               0.000686194               0.000504544               0.000000000               0.000000000               0.000000000               0.000000000               0.000116304               0.001949276              -0.000006597              -0.000200045               0.000716434               0.000516389               0.000000000               0.000000000               0.000000000               0.000000000               0.000097539               0.002022716              -0.000003252              -0.000216262               0.000746319               0.000530058               0.000000000               0.000000000               0.000000000               0.000000000               0.000083573               0.002054014               0.000001189              -0.000225411               0.000759802               0.000534390               0.000000000               0.000000000               0.000000000               0.000000000               0.000422283               0.000525904              -0.000381080               0.000092617               0.000144427               0.000237044               0.000000000               0.000000000               0.000000000               0.000000000               0.000334647               0.000664101              -0.000358133               0.000042479               0.000207205               0.000249684               0.000000000               0.000000000               0.000000000               0.000000000               0.000257003               0.000866763              -0.000307145              -0.000011970               0.000292908               0.000280938               0.000000000               0.000000000               0.000000000               0.000000000               0.000233893               0.000983083              -0.000247836              -0.000035176               0.000339416               0.000304241               0.000000000               0.000000000               0.000000000               0.000000000               0.000221879               0.001071513              -0.000202977              -0.000050735               0.000374079               0.000323344               0.000000000               0.000000000               0.000000000               0.000000000               0.000208184               0.001156373              -0.000172130              -0.000066477               0.000407613               0.000341135               0.000000000               0.000000000               0.000000000               0.000000000               0.000194793               0.001241443              -0.000145872              -0.000082133               0.000441188               0.000359055               0.000000000               0.000000000               0.000000000               0.000000000               0.000190969               0.001328918              -0.000121618              -0.000094501               0.000474469               0.000379967               0.000000000               0.000000000               0.000000000               0.000000000               0.000203011               0.001425307              -0.000100798              -0.000102034               0.000509109               0.000407075               0.000000000               0.000000000               0.000000000               0.000000000               0.000221636               0.001527658              -0.000078505              -0.000107843               0.000545162               0.000437318               0.000000000               0.000000000               0.000000000               0.000000000               0.000234052               0.001627724              -0.000058289              -0.000115696               0.000581134               0.000465439               0.000000000               0.000000000               0.000000000               0.000000000               0.000231984               0.001718723              -0.000045316              -0.000127846               0.000615517               0.000487671               0.000000000               0.000000000               0.000000000               0.000000000               0.000219742               0.001804828              -0.000034076              -0.000143200               0.000649337               0.000506137               0.000000000               0.000000000               0.000000000               0.000000000               0.000203004               0.001882759              -0.000019574              -0.000159218               0.000680653               0.000521435               0.000000000               0.000000000               0.000000000               0.000000000               0.000183044               0.001955136              -0.000009638              -0.000175750               0.000710289               0.000534539               0.000000000               0.000000000               0.000000000               0.000000000               0.000159171               0.002024756              -0.000004877              -0.000193405               0.000739380               0.000545975               0.000000000               0.000000000               0.000000000               0.000000000               0.000138177               0.002051261               0.000000714              -0.000204591               0.000751944               0.000547353               0.000000000               0.000000000               0.000000000               0.000000000               0.000373845               0.000383161              -0.000307326               0.000092296               0.000096954               0.000189249               0.000000000               0.000000000               0.000000000               0.000000000               0.000329875               0.000535811              -0.000318565               0.000056726               0.000159693               0.000216419               0.000000000               0.000000000               0.000000000               0.000000000               0.000276420               0.000751130              -0.000300818               0.000009766               0.000247119               0.000256885               0.000000000               0.000000000               0.000000000               0.000000000               0.000255450               0.000889173              -0.000254631              -0.000015353               0.000301506               0.000286153               0.000000000               0.000000000               0.000000000               0.000000000               0.000245153               0.000998265              -0.000214279              -0.000032851               0.000343702               0.000310851               0.000000000               0.000000000               0.000000000               0.000000000               0.000236490               0.001098055              -0.000185156              -0.000048573               0.000382206               0.000333633               0.000000000               0.000000000               0.000000000               0.000000000               0.000227215               0.001192353              -0.000161003              -0.000063839               0.000418727               0.000354888               0.000000000               0.000000000               0.000000000               0.000000000               0.000226490               0.001296681              -0.000140466              -0.000077151               0.000457940               0.000380789               0.000000000               0.000000000               0.000000000               0.000000000               0.000235025               0.001410971              -0.000120518              -0.000088237               0.000499731               0.000411494               0.000000000               0.000000000               0.000000000               0.000000000               0.000251118               0.001521707              -0.000097306              -0.000096044               0.000539245               0.000443201               0.000000000               0.000000000               0.000000000               0.000000000               0.000267355               0.001621693              -0.000074733              -0.000102453               0.000574710               0.000472257               0.000000000               0.000000000               0.000000000               0.000000000               0.000275306               0.001713260              -0.000056707              -0.000110917               0.000608053               0.000497136               0.000000000               0.000000000               0.000000000               0.000000000               0.000271380               0.001798766              -0.000042098              -0.000123078               0.000640609               0.000517531               0.000000000               0.000000000               0.000000000               0.000000000               0.000262374               0.001878695              -0.000028337              -0.000136446               0.000671708               0.000535261               0.000000000               0.000000000               0.000000000               0.000000000               0.000250013               0.001953933              -0.000015236              -0.000150486               0.000701467               0.000550980               0.000000000               0.000000000               0.000000000               0.000000000               0.000228650               0.002024303              -0.000005222              -0.000167294               0.000730525               0.000563232               0.000000000               0.000000000               0.000000000               0.000000000               0.000205909               0.002052316               0.000001784              -0.000179323               0.000743873               0.000564550               0.000000000               0.000000000               0.000000000               0.000000000               0.000311045               0.000265280              -0.000231280               0.000083481               0.000060599               0.000144080               0.000000000               0.000000000               0.000000000               0.000000000               0.000314152               0.000417249              -0.000266474               0.000065650               0.000117198               0.000182848               0.000000000               0.000000000               0.000000000               0.000000000               0.000293336               0.000631072              -0.000274243               0.000031116               0.000199983               0.000231099               0.000000000               0.000000000               0.000000000               0.000000000               0.000282978               0.000787148              -0.000242730               0.000007723               0.000259806               0.000267529               0.000000000               0.000000000               0.000000000               0.000000000               0.000276314               0.000914683              -0.000211233              -0.000010718               0.000308464               0.000297746               0.000000000               0.000000000               0.000000000               0.000000000               0.000271640               0.001026657              -0.000186672              -0.000026467               0.000351038               0.000324571               0.000000000               0.000000000               0.000000000               0.000000000               0.000266514               0.001135656              -0.000165948              -0.000042014               0.000392553               0.000350539               0.000000000               0.000000000               0.000000000               0.000000000               0.000267566               0.001259700              -0.000148377              -0.000057125               0.000438937               0.000381812               0.000000000               0.000000000               0.000000000               0.000000000               0.000273164               0.001385966              -0.000130925              -0.000070809               0.000485587               0.000414778               0.000000000               0.000000000               0.000000000               0.000000000               0.000285055               0.001501529              -0.000110553              -0.000080795               0.000527437               0.000446641               0.000000000               0.000000000               0.000000000               0.000000000               0.000299099               0.001601500              -0.000087906              -0.000088025               0.000563170               0.000475145               0.000000000               0.000000000               0.000000000               0.000000000               0.000309612               0.001689781              -0.000066320              -0.000095118               0.000594961               0.000499843               0.000000000               0.000000000               0.000000000               0.000000000               0.000315053               0.001777002              -0.000048757              -0.000103980               0.000626988               0.000523008               0.000000000               0.000000000               0.000000000               0.000000000               0.000316794               0.001866422              -0.000035078              -0.000114505               0.000660303               0.000545798               0.000000000               0.000000000               0.000000000               0.000000000               0.000313205               0.001948317              -0.000019918              -0.000126088               0.000691462               0.000565374               0.000000000               0.000000000               0.000000000               0.000000000               0.000304036               0.002022434              -0.000007014              -0.000138790               0.000720401               0.000581611               0.000000000               0.000000000               0.000000000               0.000000000               0.000289216               0.002053615               0.000000474              -0.000148246               0.000733947               0.000585701               0.000000000               0.000000000               0.000000000               0.000000000               0.000243028               0.000177713              -0.000157929               0.000068920               0.000036264               0.000105184               0.000000000               0.000000000               0.000000000               0.000000000               0.000290527               0.000316559              -0.000203241               0.000069377               0.000082393               0.000151770               0.000000000               0.000000000               0.000000000               0.000000000               0.000307102               0.000518954              -0.000227362               0.000050293               0.000156219               0.000206512               0.000000000               0.000000000               0.000000000               0.000000000               0.000311604               0.000686296              -0.000209847               0.000031064               0.000218408               0.000249473               0.000000000               0.000000000               0.000000000               0.000000000               0.000312277               0.000828730              -0.000188222               0.000013512               0.000271736               0.000285249               0.000000000               0.000000000               0.000000000               0.000000000               0.000309728               0.000953197              -0.000169947              -0.000003002               0.000318730               0.000315728               0.000000000               0.000000000               0.000000000               0.000000000               0.000308845               0.001080509              -0.000153648              -0.000019247               0.000366582               0.000347335               0.000000000               0.000000000               0.000000000               0.000000000               0.000311816               0.001216990              -0.000139878              -0.000035193               0.000417390               0.000382197               0.000000000               0.000000000               0.000000000               0.000000000               0.000317291               0.001344380              -0.000126713              -0.000049063               0.000464476               0.000415413               0.000000000               0.000000000               0.000000000               0.000000000               0.000323085               0.001459669              -0.000109585              -0.000061302               0.000506985               0.000445684               0.000000000               0.000000000               0.000000000               0.000000000               0.000331147               0.001562613              -0.000088387              -0.000071146               0.000544581               0.000473435               0.000000000               0.000000000               0.000000000               0.000000000               0.000340569               0.001655351              -0.000067440              -0.000079205               0.000578180               0.000498975               0.000000000               0.000000000               0.000000000               0.000000000               0.000353262               0.001751719              -0.000050955              -0.000086492               0.000612731               0.000526239               0.000000000               0.000000000               0.000000000               0.000000000               0.000364976               0.001849864              -0.000037705              -0.000094367               0.000648071               0.000553704               0.000000000               0.000000000               0.000000000               0.000000000               0.000371963               0.001939022              -0.000024118              -0.000102891               0.000680631               0.000577740               0.000000000               0.000000000               0.000000000               0.000000000               0.000376680               0.002020190              -0.000011591              -0.000111269               0.000710480               0.000599211               0.000000000               0.000000000               0.000000000               0.000000000               0.000372152               0.002055223              -0.000003941              -0.000117346               0.000724183               0.000606837               0.000000000               0.000000000               0.000000000               0.000000000               0.000176423               0.000117972              -0.000095376               0.000051412               0.000022186               0.000073598               0.000000000               0.000000000               0.000000000               0.000000000               0.000263518               0.000240325              -0.000135584               0.000068778               0.000057181               0.000125959               0.000000000               0.000000000               0.000000000               0.000000000               0.000316683               0.000428016              -0.000162449               0.000065253               0.000120919               0.000186173               0.000000000               0.000000000               0.000000000               0.000000000               0.000336176               0.000599929              -0.000155363               0.000051074               0.000182950               0.000234024               0.000000000               0.000000000               0.000000000               0.000000000               0.000344821               0.000751967              -0.000142747               0.000035312               0.000238883               0.000274194               0.000000000               0.000000000               0.000000000               0.000000000               0.000346867               0.000890865              -0.000130719               0.000018717               0.000290713               0.000309430               0.000000000               0.000000000               0.000000000               0.000000000               0.000349924               0.001030562              -0.000120437               0.000002401               0.000342717               0.000345118               0.000000000               0.000000000               0.000000000               0.000000000               0.000355813               0.001167434              -0.000111997              -0.000012499               0.000393307               0.000380808               0.000000000               0.000000000               0.000000000               0.000000000               0.000356798               0.001293584              -0.000101498              -0.000027899               0.000440490               0.000412591               0.000000000               0.000000000               0.000000000               0.000000000               0.000356851               0.001410402              -0.000087865              -0.000042481               0.000484290               0.000441809               0.000000000               0.000000000               0.000000000               0.000000000               0.000360501               0.001518653              -0.000072240              -0.000054643               0.000524427               0.000469784               0.000000000               0.000000000               0.000000000               0.000000000               0.000371897               0.001625915              -0.000057591              -0.000063778               0.000563226               0.000499448               0.000000000               0.000000000               0.000000000               0.000000000               0.000389398               0.001734418              -0.000045872              -0.000070778               0.000601726               0.000530948               0.000000000               0.000000000               0.000000000               0.000000000               0.000405128               0.001832763              -0.000034452              -0.000077172               0.000636639               0.000559467               0.000000000               0.000000000               0.000000000               0.000000000               0.000418727               0.001921413              -0.000023153              -0.000083154               0.000668182               0.000585029               0.000000000               0.000000000               0.000000000               0.000000000               0.000432829               0.002007934              -0.000012169              -0.000088681               0.000698865               0.000610184               0.000000000               0.000000000               0.000000000               0.000000000               0.000436553               0.002048096              -0.000005497              -0.000092304               0.000713460               0.000621156               0.000000000               0.000000000               0.000000000               0.000000000               0.000127580               0.000081223              -0.000044095               0.000037689               0.000014511               0.000052200               0.000000000               0.000000000               0.000000000               0.000000000               0.000243081               0.000192976              -0.000067770               0.000067033               0.000041980               0.000109013               0.000000000               0.000000000               0.000000000               0.000000000               0.000321362               0.000369088              -0.000084797               0.000074374               0.000098237               0.000172611               0.000000000               0.000000000               0.000000000               0.000000000               0.000353182               0.000540967              -0.000082700               0.000064822               0.000158713               0.000223535               0.000000000               0.000000000               0.000000000               0.000000000               0.000368459               0.000699090              -0.000077131               0.000050785               0.000216099               0.000266884               0.000000000               0.000000000               0.000000000               0.000000000               0.000375643               0.000847427              -0.000071245               0.000034937               0.000270827               0.000305764               0.000000000               0.000000000               0.000000000               0.000000000               0.000381361               0.000992775              -0.000067280               0.000018913               0.000324617               0.000343531               0.000000000               0.000000000               0.000000000               0.000000000               0.000384100               0.001128579              -0.000063063               0.000002965               0.000375201               0.000378166               0.000000000               0.000000000               0.000000000               0.000000000               0.000381971               0.001251880              -0.000056171              -0.000013246               0.000421704               0.000408459               0.000000000               0.000000000               0.000000000               0.000000000               0.000381667               0.001370669              -0.000048501              -0.000028208               0.000466288               0.000438079               0.000000000               0.000000000               0.000000000               0.000000000               0.000387136               0.001490243              -0.000041499              -0.000041104               0.000510444               0.000469340               0.000000000               0.000000000               0.000000000               0.000000000               0.000399346               0.001609547              -0.000035620              -0.000051439               0.000553656               0.000502218               0.000000000               0.000000000               0.000000000               0.000000000               0.000414206               0.001718770              -0.000028371              -0.000059519               0.000592757               0.000533238               0.000000000               0.000000000               0.000000000               0.000000000               0.000429143               0.001813243              -0.000020265              -0.000065727               0.000626317               0.000560591               0.000000000               0.000000000               0.000000000               0.000000000               0.000447863               0.001905444              -0.000014047              -0.000070232               0.000658552               0.000588321               0.000000000               0.000000000               0.000000000               0.000000000               0.000470629               0.001999307              -0.000007933              -0.000073427               0.000690905               0.000617477               0.000000000               0.000000000               0.000000000               0.000000000               0.000481602               0.002043977              -0.000004002              -0.000074896               0.000706284               0.000631388               0.000000000               0.000000000               0.000000000               0.000000000               0.000110232               0.000069418               0.000000000               0.000032659               0.000012252               0.000044912               0.000000000               0.000000000               0.000000000               0.000000000               0.000235878               0.000177697              -0.000000000               0.000066241               0.000037151               0.000103393               0.000000000               0.000000000               0.000000000               0.000000000               0.000322549               0.000348210              -0.000000000               0.000077429               0.000090259               0.000167688               0.000000000               0.000000000               0.000000000               0.000000000               0.000359541               0.000519351              -0.000000000               0.000069908               0.000149812               0.000219721               0.000000000               0.000000000               0.000000000               0.000000000               0.000377595               0.000680756              -0.000000000               0.000056503               0.000208082               0.000264585               0.000000000               0.000000000               0.000000000               0.000000000               0.000386865               0.000831185              -0.000000000               0.000041176               0.000263334               0.000304509               0.000000000               0.000000000               0.000000000               0.000000000               0.000393322               0.000979345              -0.000000000               0.000025078               0.000318086               0.000343163               0.000000000               0.000000000               0.000000000               0.000000000               0.000391951               0.001115659              -0.000000000               0.000007524               0.000369375               0.000376899               0.000000000               0.000000000               0.000000000               0.000000000               0.000390160               0.001234079               0.000000000              -0.000007950               0.000414006               0.000406056               0.000000000               0.000000000               0.000000000               0.000000000               0.000391976               0.001354118               0.000000000              -0.000022274               0.000458793               0.000436519               0.000000000               0.000000000               0.000000000               0.000000000               0.000400332               0.001483716               0.000000000              -0.000035340               0.000506347               0.000471007               0.000000000               0.000000000               0.000000000               0.000000000               0.000410152               0.001604477              -0.000000000              -0.000046753               0.000550405               0.000503652               0.000000000               0.000000000               0.000000000               0.000000000               0.000420871               0.001708666              -0.000000000              -0.000055757               0.000588135               0.000532379               0.000000000               0.000000000               0.000000000               0.000000000               0.000436875               0.001804539              -0.000000000              -0.000061739               0.000622086               0.000560348               0.000000000               0.000000000               0.000000000               0.000000000               0.000458797               0.001900790              -0.000000000              -0.000065550               0.000655440               0.000589890               0.000000000               0.000000000               0.000000000               0.000000000               0.000484416               0.001996267               0.000000000              -0.000067877               0.000688041               0.000620164               0.000000000               0.000000000               0.000000000               0.000000000               0.000498271               0.002042069               0.000000000              -0.000068407               0.000703485               0.000635078               0.000000000               0.000000000               0.000000000               0.000000000               0.000000000               0.000000000               0.000000000               0.000000000               0.000000000               0.000000000               0.000000000               0.000000000               0.000000000               0.000000000               0.000000000               0.000000000               0.000000000               0.000000000               0.000000000               0.000000000               0.000000000               0.000000000               0.000000000               0.000000000               0.000000000               0.000000000               0.000000000               0.000000000               0.000000000               0.000000000               0.000000000               0.000000000               0.000000000               0.000000000               0.000000000               0.000000000               0.000000000               0.000000000               0.000000000               0.000000000               0.000000000               0.000000000               0.000000000               0.000000000               0.000000000               0.000000000               0.000000000               0.000000000               0.000000000               0.000000000               0.000000000               0.000000000               0.000000000               0.000000000               0.000000000               0.000000000               0.000000000               0.000000000               0.000000000               0.000000000               0.000000000               0.000000000               0.000000000               0.000000000               0.000000000               0.000000000               0.000000000               0.000000000               0.000000000               0.000000000               0.000000000               0.000000000               0.000000000               0.000000000               0.000000000               0.000000000               0.000000000               0.000000000               0.000000000               0.000000000               0.000000000               0.000000000               0.000000000               0.000000000               0.000000000               0.000000000               0.000000000               0.000000000               0.000000000               0.000000000               0.000000000               0.000000000               0.000000000               0.000000000               0.000000000               0.000000000               0.000000000               0.000000000               0.000000000               0.000000000               0.000000000               0.000000000               0.000000000               0.000000000               0.000000000               0.000000000               0.000000000               0.000000000               0.000000000               0.000000000               0.000000000               0.000000000               0.000000000               0.000000000               0.000000000               0.000000000               0.000000000               0.000000000               0.000000000               0.000000000               0.000000000               0.000000000               0.000000000               0.000000000               0.000000000               0.000000000               0.000000000               0.000000000               0.000000000               0.000000000               0.000000000               0.000000000               0.000000000               0.000000000               0.000000000               0.000000000               0.000000000               0.000000000               0.000000000               0.000000000               0.000000000               0.000000000               0.000000000               0.000000000               0.000000000               0.000000000               0.000000000               0.000000000               0.000000000               0.000000000               0.000000000               0.000000000               0.000000000               0.000000000               0.000000000               0.000000000               0.000000000               0.000000000               0.000000000               0.000000000               0.000000000               0.000000000               0.000000000               0.000000000               0.000000000               0.000000000               0.000000000               0.000000000               0.000000000               0.000000000               0.000000000               0.000000000               0.000000000               0.000000000               0.000192951               0.002035028               0.000161064              -0.000182021               0.000739010               0.000556988               0.000000000               0.000000000               0.000000000               0.000000000               0.000216988               0.001714813               0.000110256              -0.000132981               0.000615926               0.000482945               0.000000000               0.000000000               0.000000000               0.000000000               0.000306037               0.001458085               0.000057414              -0.000067497               0.000508522               0.000441026               0.000000000               0.000000000               0.000000000               0.000000000               0.000338849               0.001313068               0.000033531              -0.000037065               0.000450040               0.000412975               0.000000000               0.000000000               0.000000000               0.000000000               0.000351552               0.001224587               0.000023424              -0.000021241               0.000415272               0.000394031               0.000000000               0.000000000               0.000000000               0.000000000               0.000354420               0.001168927               0.000018965              -0.000013208               0.000394041               0.000380833               0.000000000               0.000000000               0.000000000               0.000000000               0.000349797               0.001136496               0.000015723              -0.000010888               0.000382457               0.000371569               0.000000000               0.000000000               0.000000000               0.000000000               0.000335975               0.001125366               0.000012416              -0.000014680               0.000380012               0.000365331               0.000000000               0.000000000               0.000000000               0.000000000               0.000313729               0.001130142               0.000010934              -0.000023619               0.000384583               0.000360964               0.000000000               0.000000000               0.000000000               0.000000000               0.000287425               0.001143833               0.000013690              -0.000035194               0.000393005               0.000357811               0.000000000               0.000000000               0.000000000               0.000000000               0.000259696               0.001159778               0.000019215              -0.000047586               0.000402451               0.000354865               0.000000000               0.000000000               0.000000000               0.000000000               0.000227863               0.001176403               0.000020010              -0.000061601               0.000412664               0.000351063               0.000000000               0.000000000               0.000000000               0.000000000               0.000189985               0.001198558               0.000017652              -0.000078575               0.000425707               0.000347132               0.000000000               0.000000000               0.000000000               0.000000000               0.000148679               0.001223854               0.000017327              -0.000097227               0.000440356               0.000343129               0.000000000               0.000000000               0.000000000               0.000000000               0.000102764               0.001250684               0.000014421              -0.000117799               0.000456157               0.000338358               0.000000000               0.000000000               0.000000000               0.000000000               0.000050941               0.001279908               0.000008152              -0.000140885               0.000473593               0.000332708               0.000000000               0.000000000               0.000000000               0.000000000               0.000027899               0.001304861               0.000005383              -0.000152645               0.000485831               0.000333186               0.000000000               0.000000000               0.000000000               0.000000000               0.000227353               0.001943902               0.000306369              -0.000157730               0.000700538               0.000542807               0.000000000               0.000000000               0.000000000               0.000000000               0.000232215               0.001648348               0.000209757              -0.000118963               0.000589098               0.000470135               0.000000000               0.000000000               0.000000000               0.000000000               0.000300752               0.001422684               0.000110259              -0.000065054               0.000495908               0.000430854               0.000000000               0.000000000               0.000000000               0.000000000               0.000322568               0.001297032               0.000066165              -0.000041166               0.000446061               0.000404896               0.000000000               0.000000000               0.000000000               0.000000000               0.000328151               0.001221153               0.000047389              -0.000029587               0.000416909               0.000387322               0.000000000               0.000000000               0.000000000               0.000000000               0.000326239               0.001176824               0.000038870              -0.000024764               0.000400525               0.000375762               0.000000000               0.000000000               0.000000000               0.000000000               0.000317197               0.001153698               0.000032069              -0.000025263               0.000392983               0.000367720               0.000000000               0.000000000               0.000000000               0.000000000               0.000300455               0.001149235               0.000025374              -0.000030984               0.000393402               0.000362419               0.000000000               0.000000000               0.000000000               0.000000000               0.000279484               0.001156007               0.000022839              -0.000039694               0.000398563               0.000358869               0.000000000               0.000000000               0.000000000               0.000000000               0.000255823               0.001165458               0.000027290              -0.000049748               0.000405065               0.000355317               0.000000000               0.000000000               0.000000000               0.000000000               0.000231973               0.001175475               0.000035134              -0.000059944               0.000411803               0.000351858               0.000000000               0.000000000               0.000000000               0.000000000               0.000206484               0.001188669               0.000034205              -0.000071152               0.000419936               0.000348784               0.000000000               0.000000000               0.000000000               0.000000000               0.000172176               0.001204838               0.000028655              -0.000086038               0.000430288               0.000344250               0.000000000               0.000000000               0.000000000               0.000000000               0.000133097               0.001222016               0.000026164              -0.000102840               0.000441615               0.000338774               0.000000000               0.000000000               0.000000000               0.000000000               0.000092157               0.001240969               0.000019970              -0.000120562               0.000453840               0.000333278               0.000000000               0.000000000               0.000000000               0.000000000               0.000046273               0.001259070               0.000010469              -0.000140031               0.000466363               0.000326332               0.000000000               0.000000000               0.000000000               0.000000000               0.000024791               0.001273184               0.000006587              -0.000149851               0.000474341               0.000324490               0.000000000               0.000000000               0.000000000               0.000000000               0.000277093               0.001799564               0.000424804              -0.000121036               0.000640194               0.000519158               0.000000000               0.000000000               0.000000000               0.000000000               0.000253059               0.001548068               0.000290921              -0.000098611               0.000548888               0.000450277               0.000000000               0.000000000               0.000000000               0.000000000               0.000291282               0.001370095               0.000154756              -0.000062031               0.000477371               0.000415340               0.000000000               0.000000000               0.000000000               0.000000000               0.000298587               0.001272466               0.000097116              -0.000047088               0.000439847               0.000392759               0.000000000               0.000000000               0.000000000               0.000000000               0.000296365               0.001215194               0.000071568              -0.000040762               0.000418648               0.000377886               0.000000000               0.000000000               0.000000000               0.000000000               0.000288773               0.001186128               0.000058743              -0.000039976               0.000408697               0.000368721               0.000000000               0.000000000               0.000000000               0.000000000               0.000273128               0.001177109               0.000048693              -0.000044716               0.000407271               0.000362555               0.000000000               0.000000000               0.000000000               0.000000000               0.000254156               0.001182082               0.000038769              -0.000052452               0.000411507               0.000359056               0.000000000               0.000000000               0.000000000               0.000000000               0.000234179               0.001190223               0.000035260              -0.000060961               0.000417057               0.000356097               0.000000000               0.000000000               0.000000000               0.000000000               0.000215390               0.001197232               0.000040509              -0.000068883               0.000422034               0.000353152               0.000000000               0.000000000               0.000000000               0.000000000               0.000197175               0.001201824               0.000046114              -0.000076287               0.000426033               0.000349746               0.000000000               0.000000000               0.000000000               0.000000000               0.000174509               0.001212130               0.000040850              -0.000086075               0.000432731               0.000346656               0.000000000               0.000000000               0.000000000               0.000000000               0.000144831               0.001223815               0.000031833              -0.000098665               0.000440822               0.000342157               0.000000000               0.000000000               0.000000000               0.000000000               0.000114933               0.001236889               0.000025840              -0.000111511               0.000449462               0.000337952               0.000000000               0.000000000               0.000000000               0.000000000               0.000082081               0.001250611               0.000016625              -0.000125546               0.000458715               0.000333169               0.000000000               0.000000000               0.000000000               0.000000000               0.000041346               0.001262426               0.000007132              -0.000142298               0.000468237               0.000325939               0.000000000               0.000000000               0.000000000               0.000000000               0.000022415               0.001273280               0.000004875              -0.000150754               0.000474674               0.000323920               0.000000000               0.000000000               0.000000000               0.000000000               0.000335778               0.001623663               0.000506151              -0.000077042               0.000566896               0.000489855               0.000000000               0.000000000               0.000000000               0.000000000               0.000276870               0.001426445               0.000349802              -0.000074479               0.000500303               0.000425824               0.000000000               0.000000000               0.000000000               0.000000000               0.000278237               0.001307372               0.000191874              -0.000059083               0.000455481               0.000396398               0.000000000               0.000000000               0.000000000               0.000000000               0.000273428               0.001240648               0.000125473              -0.000052546               0.000431061               0.000378515               0.000000000               0.000000000               0.000000000               0.000000000               0.000265180               0.001206120               0.000095352              -0.000051323               0.000419144               0.000367821               0.000000000               0.000000000               0.000000000               0.000000000               0.000250771               0.001194015               0.000078535              -0.000055213               0.000416405               0.000361192               0.000000000               0.000000000               0.000000000               0.000000000               0.000230722               0.001199816               0.000063716              -0.000063456               0.000421087               0.000357631               0.000000000               0.000000000               0.000000000               0.000000000               0.000208443               0.001214527               0.000052066              -0.000073649               0.000429388               0.000355739               0.000000000               0.000000000               0.000000000               0.000000000               0.000190184               0.001226064               0.000048046              -0.000081939               0.000435997               0.000354058               0.000000000               0.000000000               0.000000000               0.000000000               0.000175318               0.001231881               0.000052861              -0.000088241               0.000440036               0.000351796               0.000000000               0.000000000               0.000000000               0.000000000               0.000160334               0.001238971               0.000054961              -0.000094746               0.000444568               0.000349822               0.000000000               0.000000000               0.000000000               0.000000000               0.000143110               0.001253420               0.000044303              -0.000103011               0.000452140               0.000349129               0.000000000               0.000000000               0.000000000               0.000000000               0.000119797               0.001267233               0.000033034              -0.000113480               0.000460234               0.000346753               0.000000000               0.000000000               0.000000000               0.000000000               0.000095575               0.001282581               0.000025577              -0.000124481               0.000469016               0.000344535               0.000000000               0.000000000               0.000000000               0.000000000               0.000068146               0.001300095               0.000017207              -0.000136957               0.000479013               0.000342056               0.000000000               0.000000000               0.000000000               0.000000000               0.000033930               0.001317180               0.000007964              -0.000151924               0.000489697               0.000337773               0.000000000               0.000000000               0.000000000               0.000000000               0.000020277               0.001333183               0.000005828              -0.000159043               0.000497404               0.000338361               0.000000000               0.000000000               0.000000000               0.000000000               0.000384954               0.001430471               0.000551663              -0.000034452               0.000488303               0.000453851               0.000000000               0.000000000               0.000000000               0.000000000               0.000296171               0.001294831               0.000387178              -0.000050790               0.000448536               0.000397746               0.000000000               0.000000000               0.000000000               0.000000000               0.000264854               0.001240234               0.000221136              -0.000055709               0.000431977               0.000376268               0.000000000               0.000000000               0.000000000               0.000000000               0.000250681               0.001206474               0.000151273              -0.000056804               0.000421089               0.000364285               0.000000000               0.000000000               0.000000000               0.000000000               0.000239560               0.001193630               0.000117789              -0.000059369               0.000417662               0.000358294               0.000000000               0.000000000               0.000000000               0.000000000               0.000221605               0.001198483               0.000096156              -0.000066708               0.000421726               0.000355018               0.000000000               0.000000000               0.000000000               0.000000000               0.000198663               0.001219394               0.000077622              -0.000077925               0.000432436               0.000354510               0.000000000               0.000000000               0.000000000               0.000000000               0.000176369               0.001241318               0.000064196              -0.000089026               0.000443444               0.000354418               0.000000000               0.000000000               0.000000000               0.000000000               0.000159805               0.001256782               0.000060619              -0.000097171               0.000451314               0.000354143               0.000000000               0.000000000               0.000000000               0.000000000               0.000146360               0.001269023               0.000063361              -0.000103743               0.000457584               0.000353842               0.000000000               0.000000000               0.000000000               0.000000000               0.000134578               0.001289397               0.000059440              -0.000110708               0.000466697               0.000355990               0.000000000               0.000000000               0.000000000               0.000000000               0.000120144               0.001317767               0.000046299              -0.000119667               0.000479140               0.000359474               0.000000000               0.000000000               0.000000000               0.000000000               0.000098745               0.001346684               0.000035730              -0.000131306               0.000492659               0.000361353               0.000000000               0.000000000               0.000000000               0.000000000               0.000073839               0.001375892               0.000027248              -0.000144297               0.000506725               0.000362429               0.000000000               0.000000000               0.000000000               0.000000000               0.000048593               0.001407709               0.000018585              -0.000157741               0.000521812               0.000364071               0.000000000               0.000000000               0.000000000               0.000000000               0.000024453               0.001440171               0.000009854              -0.000170851               0.000537002               0.000366151               0.000000000               0.000000000               0.000000000               0.000000000               0.000018051               0.001464266               0.000008019              -0.000176264               0.000546838               0.000370574               0.000000000               0.000000000               0.000000000               0.000000000               0.000420370               0.001229589               0.000563321               0.000003939               0.000408546               0.000412485               0.000000000               0.000000000               0.000000000               0.000000000               0.000307421               0.001162950               0.000404286              -0.000030086               0.000397675               0.000367588               0.000000000               0.000000000               0.000000000               0.000000000               0.000251077               0.001175150               0.000243280              -0.000052740               0.000409293               0.000356553               0.000000000               0.000000000               0.000000000               0.000000000               0.000232787               0.001173965               0.000173576              -0.000059451               0.000411135               0.000351684               0.000000000               0.000000000               0.000000000               0.000000000               0.000220280               0.001181616               0.000136451              -0.000065097               0.000415567               0.000350470               0.000000000               0.000000000               0.000000000               0.000000000               0.000201025               0.001204017               0.000110314              -0.000075118               0.000426374               0.000351256               0.000000000               0.000000000               0.000000000               0.000000000               0.000178339               0.001237117               0.000089403              -0.000087762               0.000441622               0.000353860               0.000000000               0.000000000               0.000000000               0.000000000               0.000159379               0.001264616               0.000075804              -0.000098310               0.000454304               0.000355995               0.000000000               0.000000000               0.000000000               0.000000000               0.000148152               0.001288448               0.000069937              -0.000105499               0.000464645               0.000359146               0.000000000               0.000000000               0.000000000               0.000000000               0.000139639               0.001318865               0.000067455              -0.000112493               0.000477115               0.000364622               0.000000000               0.000000000               0.000000000               0.000000000               0.000128040               0.001363105               0.000057910              -0.000122373               0.000495155               0.000372782               0.000000000               0.000000000               0.000000000               0.000000000               0.000111947               0.001416557               0.000041733              -0.000135089               0.000517211               0.000382122               0.000000000               0.000000000               0.000000000               0.000000000               0.000090373               0.001469794               0.000031817              -0.000149834               0.000539871               0.000390037               0.000000000               0.000000000               0.000000000               0.000000000               0.000064960               0.001520014               0.000024578              -0.000165642               0.000561880               0.000396239               0.000000000               0.000000000               0.000000000               0.000000000               0.000038657               0.001568256               0.000015803              -0.000181535               0.000583258               0.000401723               0.000000000               0.000000000               0.000000000               0.000000000               0.000016699               0.001616419               0.000008818              -0.000195790               0.000604064               0.000408275               0.000000000               0.000000000               0.000000000               0.000000000               0.000013457               0.001650421               0.000009306              -0.000201256               0.000617220               0.000415964               0.000000000               0.000000000               0.000000000               0.000000000               0.000442893               0.001034276               0.000542911               0.000036799               0.000332489               0.000369288               0.000000000               0.000000000               0.000000000               0.000000000               0.000312748               0.001038924               0.000404216              -0.000012585               0.000350500               0.000337914               0.000000000               0.000000000               0.000000000               0.000000000               0.000239278               0.001115185               0.000259514              -0.000049669               0.000388281               0.000338612               0.000000000               0.000000000               0.000000000               0.000000000               0.000220494               0.001144152               0.000190135              -0.000060334               0.000401492               0.000341158               0.000000000               0.000000000               0.000000000               0.000000000               0.000206537               0.001174298               0.000149938              -0.000069336               0.000414541               0.000345205               0.000000000               0.000000000               0.000000000               0.000000000               0.000185883               0.001215799               0.000121328              -0.000082268               0.000432685               0.000350416               0.000000000               0.000000000               0.000000000               0.000000000               0.000165501               0.001259070               0.000098634              -0.000095321               0.000451459               0.000356139               0.000000000               0.000000000               0.000000000               0.000000000               0.000153657               0.001297987               0.000082767              -0.000104627               0.000467534               0.000362907               0.000000000               0.000000000               0.000000000               0.000000000               0.000151591               0.001343041               0.000071702              -0.000111033               0.000484687               0.000373654               0.000000000               0.000000000               0.000000000               0.000000000               0.000148930               0.001403717               0.000060971              -0.000119616               0.000507773               0.000388157               0.000000000               0.000000000               0.000000000               0.000000000               0.000136950               0.001478170               0.000046045              -0.000133414               0.000537190               0.000403775               0.000000000               0.000000000               0.000000000               0.000000000               0.000118647               0.001553574               0.000030643              -0.000149704               0.000567754               0.000418050               0.000000000               0.000000000               0.000000000               0.000000000               0.000095389               0.001624220               0.000023510              -0.000167256               0.000597153               0.000429897               0.000000000               0.000000000               0.000000000               0.000000000               0.000067645               0.001690195               0.000019157              -0.000185907               0.000625362               0.000439455               0.000000000               0.000000000               0.000000000               0.000000000               0.000040699               0.001753142               0.000011980              -0.000203880               0.000652335               0.000448455               0.000000000               0.000000000               0.000000000               0.000000000               0.000019008               0.001813533               0.000005487              -0.000219563               0.000677692               0.000458130               0.000000000               0.000000000               0.000000000               0.000000000               0.000014908               0.001853212               0.000006441              -0.000226060               0.000693084               0.000467024               0.000000000               0.000000000               0.000000000               0.000000000               0.000453333               0.000861179               0.000501057               0.000062351               0.000266273               0.000328624               0.000000000               0.000000000               0.000000000               0.000000000               0.000319943               0.000929038               0.000395366               0.000003848               0.000308393               0.000312242               0.000000000               0.000000000               0.000000000               0.000000000               0.000235397               0.001059782               0.000274663              -0.000044199               0.000367990               0.000323791               0.000000000               0.000000000               0.000000000               0.000000000               0.000216091               0.001118244               0.000205670              -0.000058746               0.000392326               0.000333580               0.000000000               0.000000000               0.000000000               0.000000000               0.000200479               0.001170297               0.000162167              -0.000071107               0.000413798               0.000342690               0.000000000               0.000000000               0.000000000               0.000000000               0.000179120               0.001228309               0.000132393              -0.000086369               0.000438222               0.000351853               0.000000000               0.000000000               0.000000000               0.000000000               0.000163317               0.001284920               0.000108216              -0.000099371               0.000461426               0.000362055               0.000000000               0.000000000               0.000000000               0.000000000               0.000158754               0.001341825               0.000086957              -0.000108195               0.000483336               0.000375140               0.000000000               0.000000000               0.000000000               0.000000000               0.000164370               0.001411925               0.000067413              -0.000114851               0.000508921               0.000394069               0.000000000               0.000000000               0.000000000               0.000000000               0.000169041               0.001498520               0.000049571              -0.000123924               0.000540810               0.000416885               0.000000000               0.000000000               0.000000000               0.000000000               0.000156726               0.001588687               0.000035473              -0.000139813               0.000576161               0.000436348               0.000000000               0.000000000               0.000000000               0.000000000               0.000135647               0.001675724               0.000024828              -0.000158598               0.000611435               0.000452837               0.000000000               0.000000000               0.000000000               0.000000000               0.000115145               0.001755051               0.000018003              -0.000176201               0.000643745               0.000467543               0.000000000               0.000000000               0.000000000               0.000000000               0.000090643               0.001829082               0.000012619              -0.000194643               0.000674569               0.000479926               0.000000000               0.000000000               0.000000000               0.000000000               0.000066233               0.001901565               0.000005467              -0.000212858               0.000704801               0.000491944               0.000000000               0.000000000               0.000000000               0.000000000               0.000047850               0.001968066               0.000000346              -0.000228064               0.000732037               0.000503973               0.000000000               0.000000000               0.000000000               0.000000000               0.000038621               0.002002086              -0.000000505              -0.000235777               0.000745948               0.000510170               0.000000000               0.000000000               0.000000000               0.000000000               0.000447915               0.000688743               0.000447308               0.000081874               0.000202287               0.000284161               0.000000000               0.000000000               0.000000000               0.000000000               0.000328257               0.000797877               0.000382686               0.000023361               0.000258169               0.000281530               0.000000000               0.000000000               0.000000000               0.000000000               0.000240664               0.000970017               0.000294385              -0.000031003               0.000333670               0.000302667               0.000000000               0.000000000               0.000000000               0.000000000               0.000220025               0.001059394               0.000227680              -0.000049915               0.000369766               0.000319851               0.000000000               0.000000000               0.000000000               0.000000000               0.000206029               0.001129556               0.000182162              -0.000063934               0.000397826               0.000333892               0.000000000               0.000000000               0.000000000               0.000000000               0.000188240               0.001199993               0.000151969              -0.000079409               0.000426463               0.000347054               0.000000000               0.000000000               0.000000000               0.000000000               0.000173100               0.001273114               0.000126256              -0.000094226               0.000455776               0.000361550               0.000000000               0.000000000               0.000000000               0.000000000               0.000169133               0.001349054               0.000101140              -0.000105207               0.000484749               0.000379542               0.000000000               0.000000000               0.000000000               0.000000000               0.000177704               0.001432746               0.000079395              -0.000112454               0.000515062               0.000402608               0.000000000               0.000000000               0.000000000               0.000000000               0.000190601               0.001525150               0.000059720              -0.000119168               0.000548101               0.000428933               0.000000000               0.000000000               0.000000000               0.000000000               0.000193417               0.001623040               0.000044364              -0.000130348               0.000584458               0.000454109               0.000000000               0.000000000               0.000000000               0.000000000               0.000181268               0.001716956               0.000034316              -0.000146644               0.000621194               0.000474550               0.000000000               0.000000000               0.000000000               0.000000000               0.000163294               0.001801082               0.000024959              -0.000163900               0.000654988               0.000491088               0.000000000               0.000000000               0.000000000               0.000000000               0.000141249               0.001876951               0.000013944              -0.000181650               0.000686194               0.000504544               0.000000000               0.000000000               0.000000000               0.000000000               0.000116304               0.001949276               0.000006597              -0.000200045               0.000716434               0.000516389               0.000000000               0.000000000               0.000000000               0.000000000               0.000097539               0.002022716               0.000003252              -0.000216262               0.000746319               0.000530058               0.000000000               0.000000000               0.000000000               0.000000000               0.000083573               0.002054014              -0.000001189              -0.000225411               0.000759802               0.000534390               0.000000000               0.000000000               0.000000000               0.000000000               0.000422283               0.000525904               0.000381080               0.000092617               0.000144427               0.000237044               0.000000000               0.000000000               0.000000000               0.000000000               0.000334647               0.000664101               0.000358133               0.000042479               0.000207205               0.000249684               0.000000000               0.000000000               0.000000000               0.000000000               0.000257003               0.000866763               0.000307145              -0.000011970               0.000292908               0.000280938               0.000000000               0.000000000               0.000000000               0.000000000               0.000233893               0.000983083               0.000247836              -0.000035176               0.000339416               0.000304241               0.000000000               0.000000000               0.000000000               0.000000000               0.000221879               0.001071513               0.000202977              -0.000050735               0.000374079               0.000323344               0.000000000               0.000000000               0.000000000               0.000000000               0.000208184               0.001156373               0.000172130              -0.000066477               0.000407613               0.000341135               0.000000000               0.000000000               0.000000000               0.000000000               0.000194793               0.001241443               0.000145872              -0.000082133               0.000441188               0.000359055               0.000000000               0.000000000               0.000000000               0.000000000               0.000190969               0.001328918               0.000121618              -0.000094501               0.000474469               0.000379967               0.000000000               0.000000000               0.000000000               0.000000000               0.000203011               0.001425307               0.000100798              -0.000102034               0.000509109               0.000407075               0.000000000               0.000000000               0.000000000               0.000000000               0.000221636               0.001527658               0.000078505              -0.000107843               0.000545162               0.000437318               0.000000000               0.000000000               0.000000000               0.000000000               0.000234052               0.001627724               0.000058289              -0.000115696               0.000581134               0.000465439               0.000000000               0.000000000               0.000000000               0.000000000               0.000231984               0.001718723               0.000045316              -0.000127846               0.000615517               0.000487671               0.000000000               0.000000000               0.000000000               0.000000000               0.000219742               0.001804828               0.000034076              -0.000143200               0.000649337               0.000506137               0.000000000               0.000000000               0.000000000               0.000000000               0.000203004               0.001882759               0.000019574              -0.000159218               0.000680653               0.000521435               0.000000000               0.000000000               0.000000000               0.000000000               0.000183044               0.001955136               0.000009638              -0.000175750               0.000710289               0.000534539               0.000000000               0.000000000               0.000000000               0.000000000               0.000159171               0.002024756               0.000004877              -0.000193405               0.000739380               0.000545975               0.000000000               0.000000000               0.000000000               0.000000000               0.000138177               0.002051261              -0.000000714              -0.000204591               0.000751944               0.000547353               0.000000000               0.000000000               0.000000000               0.000000000               0.000373845               0.000383161               0.000307326               0.000092296               0.000096954               0.000189249               0.000000000               0.000000000               0.000000000               0.000000000               0.000329875               0.000535811               0.000318565               0.000056726               0.000159693               0.000216419               0.000000000               0.000000000               0.000000000               0.000000000               0.000276420               0.000751130               0.000300818               0.000009766               0.000247119               0.000256885               0.000000000               0.000000000               0.000000000               0.000000000               0.000255450               0.000889173               0.000254631              -0.000015353               0.000301506               0.000286153               0.000000000               0.000000000               0.000000000               0.000000000               0.000245153               0.000998265               0.000214279              -0.000032851               0.000343702               0.000310851               0.000000000               0.000000000               0.000000000               0.000000000               0.000236490               0.001098055               0.000185156              -0.000048573               0.000382206               0.000333633               0.000000000               0.000000000               0.000000000               0.000000000               0.000227215               0.001192353               0.000161003              -0.000063839               0.000418727               0.000354888               0.000000000               0.000000000               0.000000000               0.000000000               0.000226490               0.001296681               0.000140466              -0.000077151               0.000457940               0.000380789               0.000000000               0.000000000               0.000000000               0.000000000               0.000235025               0.001410971               0.000120518              -0.000088237               0.000499731               0.000411494               0.000000000               0.000000000               0.000000000               0.000000000               0.000251118               0.001521707               0.000097306              -0.000096044               0.000539245               0.000443201               0.000000000               0.000000000               0.000000000               0.000000000               0.000267355               0.001621693               0.000074733              -0.000102453               0.000574710               0.000472257               0.000000000               0.000000000               0.000000000               0.000000000               0.000275306               0.001713260               0.000056707              -0.000110917               0.000608053               0.000497136               0.000000000               0.000000000               0.000000000               0.000000000               0.000271380               0.001798766               0.000042098              -0.000123078               0.000640609               0.000517531               0.000000000               0.000000000               0.000000000               0.000000000               0.000262374               0.001878695               0.000028337              -0.000136446               0.000671708               0.000535261               0.000000000               0.000000000               0.000000000               0.000000000               0.000250013               0.001953933               0.000015236              -0.000150486               0.000701467               0.000550980               0.000000000               0.000000000               0.000000000               0.000000000               0.000228650               0.002024303               0.000005222              -0.000167294               0.000730525               0.000563232               0.000000000               0.000000000               0.000000000               0.000000000               0.000205909               0.002052316              -0.000001784              -0.000179323               0.000743873               0.000564550               0.000000000               0.000000000               0.000000000               0.000000000               0.000311045               0.000265280               0.000231280               0.000083481               0.000060599               0.000144080               0.000000000               0.000000000               0.000000000               0.000000000               0.000314152               0.000417249               0.000266474               0.000065650               0.000117198               0.000182848               0.000000000               0.000000000               0.000000000               0.000000000               0.000293336               0.000631072               0.000274243               0.000031116               0.000199983               0.000231099               0.000000000               0.000000000               0.000000000               0.000000000               0.000282978               0.000787148               0.000242730               0.000007723               0.000259806               0.000267529               0.000000000               0.000000000               0.000000000               0.000000000               0.000276314               0.000914683               0.000211233              -0.000010718               0.000308464               0.000297746               0.000000000               0.000000000               0.000000000               0.000000000               0.000271640               0.001026657               0.000186672              -0.000026467               0.000351038               0.000324571               0.000000000               0.000000000               0.000000000               0.000000000               0.000266514               0.001135656               0.000165948              -0.000042014               0.000392553               0.000350539               0.000000000               0.000000000               0.000000000               0.000000000               0.000267566               0.001259700               0.000148377              -0.000057125               0.000438937               0.000381812               0.000000000               0.000000000               0.000000000               0.000000000               0.000273164               0.001385966               0.000130925              -0.000070809               0.000485587               0.000414778               0.000000000               0.000000000               0.000000000               0.000000000               0.000285055               0.001501529               0.000110553              -0.000080795               0.000527437               0.000446641               0.000000000               0.000000000               0.000000000               0.000000000               0.000299099               0.001601500               0.000087906              -0.000088025               0.000563170               0.000475145               0.000000000               0.000000000               0.000000000               0.000000000               0.000309612               0.001689781               0.000066320              -0.000095118               0.000594961               0.000499843               0.000000000               0.000000000               0.000000000               0.000000000               0.000315053               0.001777002               0.000048757              -0.000103980               0.000626988               0.000523008               0.000000000               0.000000000               0.000000000               0.000000000               0.000316794               0.001866422               0.000035078              -0.000114505               0.000660303               0.000545798               0.000000000               0.000000000               0.000000000               0.000000000               0.000313205               0.001948317               0.000019918              -0.000126088               0.000691462               0.000565374               0.000000000               0.000000000               0.000000000               0.000000000               0.000304036               0.002022434               0.000007014              -0.000138790               0.000720401               0.000581611               0.000000000               0.000000000               0.000000000               0.000000000               0.000289216               0.002053615              -0.000000474              -0.000148246               0.000733947               0.000585701               0.000000000               0.000000000               0.000000000               0.000000000               0.000243028               0.000177713               0.000157929               0.000068920               0.000036264               0.000105184               0.000000000               0.000000000               0.000000000               0.000000000               0.000290527               0.000316559               0.000203241               0.000069377               0.000082393               0.000151770               0.000000000               0.000000000               0.000000000               0.000000000               0.000307102               0.000518954               0.000227362               0.000050293               0.000156219               0.000206512               0.000000000               0.000000000               0.000000000               0.000000000               0.000311604               0.000686296               0.000209847               0.000031064               0.000218408               0.000249473               0.000000000               0.000000000               0.000000000               0.000000000               0.000312277               0.000828730               0.000188222               0.000013512               0.000271736               0.000285249               0.000000000               0.000000000               0.000000000               0.000000000               0.000309728               0.000953197               0.000169947              -0.000003002               0.000318730               0.000315728               0.000000000               0.000000000               0.000000000               0.000000000               0.000308845               0.001080509               0.000153648              -0.000019247               0.000366582               0.000347335               0.000000000               0.000000000               0.000000000               0.000000000               0.000311816               0.001216990               0.000139878              -0.000035193               0.000417390               0.000382197               0.000000000               0.000000000               0.000000000               0.000000000               0.000317291               0.001344380               0.000126713              -0.000049063               0.000464476               0.000415413               0.000000000               0.000000000               0.000000000               0.000000000               0.000323085               0.001459669               0.000109585              -0.000061302               0.000506985               0.000445684               0.000000000               0.000000000               0.000000000               0.000000000               0.000331147               0.001562613               0.000088387              -0.000071146               0.000544581               0.000473435               0.000000000               0.000000000               0.000000000               0.000000000               0.000340569               0.001655351               0.000067440              -0.000079205               0.000578180               0.000498975               0.000000000               0.000000000               0.000000000               0.000000000               0.000353262               0.001751719               0.000050955              -0.000086492               0.000612731               0.000526239               0.000000000               0.000000000               0.000000000               0.000000000               0.000364976               0.001849864               0.000037705              -0.000094367               0.000648071               0.000553704               0.000000000               0.000000000               0.000000000               0.000000000               0.000371963               0.001939022               0.000024118              -0.000102891               0.000680631               0.000577740               0.000000000               0.000000000               0.000000000               0.000000000               0.000376680               0.002020190               0.000011591              -0.000111269               0.000710480               0.000599211               0.000000000               0.000000000               0.000000000               0.000000000               0.000372152               0.002055223               0.000003941              -0.000117346               0.000724183               0.000606837               0.000000000               0.000000000               0.000000000               0.000000000               0.000176423               0.000117972               0.000095376               0.000051412               0.000022186               0.000073598               0.000000000               0.000000000               0.000000000               0.000000000               0.000263518               0.000240325               0.000135584               0.000068778               0.000057181               0.000125959               0.000000000               0.000000000               0.000000000               0.000000000               0.000316683               0.000428016               0.000162449               0.000065253               0.000120919               0.000186173               0.000000000               0.000000000               0.000000000               0.000000000               0.000336176               0.000599929               0.000155363               0.000051074               0.000182950               0.000234024               0.000000000               0.000000000               0.000000000               0.000000000               0.000344821               0.000751967               0.000142747               0.000035312               0.000238883               0.000274194               0.000000000               0.000000000               0.000000000               0.000000000               0.000346867               0.000890865               0.000130719               0.000018717               0.000290713               0.000309430               0.000000000               0.000000000               0.000000000               0.000000000               0.000349924               0.001030562               0.000120437               0.000002401               0.000342717               0.000345118               0.000000000               0.000000000               0.000000000               0.000000000               0.000355813               0.001167434               0.000111997              -0.000012499               0.000393307               0.000380808               0.000000000               0.000000000               0.000000000               0.000000000               0.000356798               0.001293584               0.000101498              -0.000027899               0.000440490               0.000412591               0.000000000               0.000000000               0.000000000               0.000000000               0.000356851               0.001410402               0.000087865              -0.000042481               0.000484290               0.000441809               0.000000000               0.000000000               0.000000000               0.000000000               0.000360501               0.001518653               0.000072240              -0.000054643               0.000524427               0.000469784               0.000000000               0.000000000               0.000000000               0.000000000               0.000371897               0.001625915               0.000057591              -0.000063778               0.000563226               0.000499448               0.000000000               0.000000000               0.000000000               0.000000000               0.000389398               0.001734418               0.000045872              -0.000070778               0.000601726               0.000530948               0.000000000               0.000000000               0.000000000               0.000000000               0.000405128               0.001832763               0.000034452              -0.000077172               0.000636639               0.000559467               0.000000000               0.000000000               0.000000000               0.000000000               0.000418727               0.001921413               0.000023153              -0.000083154               0.000668182               0.000585029               0.000000000               0.000000000               0.000000000               0.000000000               0.000432829               0.002007934               0.000012169              -0.000088681               0.000698865               0.000610184               0.000000000               0.000000000               0.000000000               0.000000000               0.000436553               0.002048096               0.000005497              -0.000092304               0.000713460               0.000621156               0.000000000               0.000000000               0.000000000               0.000000000               0.000127580               0.000081223               0.000044095               0.000037689               0.000014511               0.000052200               0.000000000               0.000000000               0.000000000               0.000000000               0.000243081               0.000192976               0.000067770               0.000067033               0.000041980               0.000109013               0.000000000               0.000000000               0.000000000               0.000000000               0.000321362               0.000369088               0.000084797               0.000074374               0.000098237               0.000172611               0.000000000               0.000000000               0.000000000               0.000000000               0.000353182               0.000540967               0.000082700               0.000064822               0.000158713               0.000223535               0.000000000               0.000000000               0.000000000               0.000000000               0.000368459               0.000699090               0.000077131               0.000050785               0.000216099               0.000266884               0.000000000               0.000000000               0.000000000               0.000000000               0.000375643               0.000847427               0.000071245               0.000034937               0.000270827               0.000305764               0.000000000               0.000000000               0.000000000               0.000000000               0.000381361               0.000992775               0.000067280               0.000018913               0.000324617               0.000343531               0.000000000               0.000000000               0.000000000               0.000000000               0.000384100               0.001128579               0.000063063               0.000002965               0.000375201               0.000378166               0.000000000               0.000000000               0.000000000               0.000000000               0.000381971               0.001251880               0.000056171              -0.000013246               0.000421704               0.000408459               0.000000000               0.000000000               0.000000000               0.000000000               0.000381667               0.001370669               0.000048501              -0.000028208               0.000466288               0.000438079               0.000000000               0.000000000               0.000000000               0.000000000               0.000387136               0.001490243               0.000041499              -0.000041104               0.000510444               0.000469340               0.000000000               0.000000000               0.000000000               0.000000000               0.000399346               0.001609547               0.000035620              -0.000051439               0.000553656               0.000502218               0.000000000               0.000000000               0.000000000               0.000000000               0.000414206               0.001718770               0.000028371              -0.000059519               0.000592757               0.000533238               0.000000000               0.000000000               0.000000000               0.000000000               0.000429143               0.001813243               0.000020265              -0.000065727               0.000626317               0.000560591               0.000000000               0.000000000               0.000000000               0.000000000               0.000447863               0.001905444               0.000014047              -0.000070232               0.000658552               0.000588321               0.000000000               0.000000000               0.000000000               0.000000000               0.000470629               0.001999307               0.000007933              -0.000073427               0.000690905               0.000617477               0.000000000               0.000000000               0.000000000               0.000000000               0.000481602               0.002043977               0.000004002              -0.000074896               0.000706284               0.000631388               0.000000000               0.000000000               0.000000000               0.000000000               0.000110232               0.000069418               0.000000000               0.000032659               0.000012252               0.000044912               0.000000000               0.000000000               0.000000000               0.000000000               0.000235878               0.000177697               0.000000000               0.000066241               0.000037151               0.000103393               0.000000000               0.000000000               0.000000000               0.000000000               0.000322549               0.000348210               0.000000000               0.000077429               0.000090259               0.000167688               0.000000000               0.000000000               0.000000000               0.000000000               0.000359541               0.000519351              -0.000000000               0.000069908               0.000149812               0.000219721               0.000000000               0.000000000               0.000000000               0.000000000               0.000377595               0.000680756              -0.000000000               0.000056503               0.000208082               0.000264585               0.000000000               0.000000000               0.000000000               0.000000000               0.000386865               0.000831185               0.000000000               0.000041176               0.000263334               0.000304509               0.000000000               0.000000000               0.000000000               0.000000000               0.000393322               0.000979345               0.000000000               0.000025078               0.000318086               0.000343163               0.000000000               0.000000000               0.000000000               0.000000000               0.000391951               0.001115659               0.000000000               0.000007524               0.000369375               0.000376899               0.000000000               0.000000000               0.000000000               0.000000000               0.000390160               0.001234079               0.000000000              -0.000007950               0.000414006               0.000406056               0.000000000               0.000000000               0.000000000               0.000000000               0.000391976               0.001354118               0.000000000              -0.000022274               0.000458793               0.000436519               0.000000000               0.000000000               0.000000000               0.000000000               0.000400332               0.001483716               0.000000000              -0.000035340               0.000506347               0.000471007               0.000000000               0.000000000               0.000000000               0.000000000               0.000410152               0.001604477               0.000000000              -0.000046753               0.000550405               0.000503652               0.000000000               0.000000000               0.000000000               0.000000000               0.000420871               0.001708666               0.000000000              -0.000055757               0.000588135               0.000532379               0.000000000               0.000000000               0.000000000               0.000000000               0.000436875               0.001804539               0.000000000              -0.000061739               0.000622086               0.000560348               0.000000000               0.000000000               0.000000000               0.000000000               0.000458797               0.001900790              -0.000000000              -0.000065550               0.000655440               0.000589890               0.000000000               0.000000000               0.000000000               0.000000000               0.000484416               0.001996267               0.000000000              -0.000067877               0.000688041               0.000620164               0.000000000               0.000000000               0.000000000               0.000000000               0.000498271               0.002042069               0.000000000              -0.000068407               0.000703485               0.000635078               0.000000000               0.000000000               0.000000000               0.000000000               0.000178128               0.002064561              -0.000000000              -0.000191272               0.000751937               0.000560666               0.000000000               0.000000000               0.000000000               0.000000000               0.000209799               0.001737676              -0.000000000              -0.000138534               0.000625398               0.000486863               0.000000000               0.000000000               0.000000000               0.000000000               0.000307845               0.001470072               0.000000000              -0.000068317               0.000512791               0.000444474               0.000000000               0.000000000               0.000000000               0.000000000               0.000344843               0.001319412               0.000000000              -0.000035610               0.000451670               0.000416059               0.000000000               0.000000000               0.000000000               0.000000000               0.000359976               0.001225758              -0.000000000              -0.000018229               0.000414658               0.000396430               0.000000000               0.000000000               0.000000000               0.000000000               0.000365678               0.001165466              -0.000000000              -0.000008554               0.000391336               0.000382782               0.000000000               0.000000000               0.000000000               0.000000000               0.000361615               0.001130523               0.000000000              -0.000005710               0.000378741               0.000373031               0.000000000               0.000000000               0.000000000               0.000000000               0.000348749               0.001116096               0.000000000              -0.000008731               0.000374939               0.000366208               0.000000000               0.000000000               0.000000000               0.000000000               0.000327366               0.001120777               0.000000000              -0.000017335               0.000379367               0.000362032               0.000000000               0.000000000               0.000000000               0.000000000               0.000298389               0.001136026               0.000000000              -0.000030107               0.000388708               0.000358600               0.000000000               0.000000000               0.000000000               0.000000000               0.000267332               0.001153999               0.000000000              -0.000044000               0.000399329               0.000355329               0.000000000               0.000000000               0.000000000               0.000000000               0.000235350               0.001173132               0.000000000              -0.000058385               0.000410502               0.000352117               0.000000000               0.000000000               0.000000000               0.000000000               0.000198974               0.001198504               0.000000000              -0.000075198               0.000424563               0.000349365               0.000000000               0.000000000               0.000000000               0.000000000               0.000154007               0.001226754              -0.000000000              -0.000095591               0.000440778               0.000345186               0.000000000               0.000000000               0.000000000               0.000000000               0.000103027               0.001256496              -0.000000000              -0.000118427               0.000458303               0.000339877               0.000000000               0.000000000               0.000000000               0.000000000               0.000050989               0.001292296              -0.000000000              -0.000142416               0.000478233               0.000335817               0.000000000               0.000000000               0.000000000               0.000000000               0.000029431               0.001323684              -0.000000000              -0.000154423               0.000492698               0.000338275               0.000000000               0.000000000               0.000000000               0.000000000               0.000192951               0.002035028              -0.000161064              -0.000182021               0.000739010               0.000556988               0.000000000               0.000000000               0.000000000               0.000000000               0.000216988               0.001714813              -0.000110256              -0.000132981               0.000615926               0.000482945               0.000000000               0.000000000               0.000000000               0.000000000               0.000306037               0.001458085              -0.000057414              -0.000067497               0.000508522               0.000441026               0.000000000               0.000000000               0.000000000               0.000000000               0.000338849               0.001313068              -0.000033531              -0.000037065               0.000450040               0.000412975               0.000000000               0.000000000               0.000000000               0.000000000               0.000351552               0.001224587              -0.000023424              -0.000021241               0.000415272               0.000394031               0.000000000               0.000000000               0.000000000               0.000000000               0.000354420               0.001168927              -0.000018965              -0.000013208               0.000394041               0.000380833               0.000000000               0.000000000               0.000000000               0.000000000               0.000349797               0.001136496              -0.000015723              -0.000010888               0.000382457               0.000371569               0.000000000               0.000000000               0.000000000               0.000000000               0.000335975               0.001125366              -0.000012416              -0.000014680               0.000380012               0.000365331               0.000000000               0.000000000               0.000000000               0.000000000               0.000313729               0.001130142              -0.000010934              -0.000023619               0.000384583               0.000360964               0.000000000               0.000000000               0.000000000               0.000000000               0.000287425               0.001143833              -0.000013690              -0.000035194               0.000393005               0.000357811               0.000000000               0.000000000               0.000000000               0.000000000               0.000259696               0.001159778              -0.000019215              -0.000047586               0.000402451               0.000354865               0.000000000               0.000000000               0.000000000               0.000000000               0.000227863               0.001176403              -0.000020010              -0.000061601               0.000412664               0.000351063               0.000000000               0.000000000               0.000000000               0.000000000               0.000189985               0.001198558              -0.000017652              -0.000078575               0.000425707               0.000347132               0.000000000               0.000000000               0.000000000               0.000000000               0.000148679               0.001223854              -0.000017327              -0.000097227               0.000440356               0.000343129               0.000000000               0.000000000               0.000000000               0.000000000               0.000102764               0.001250684              -0.000014421              -0.000117799               0.000456157               0.000338358               0.000000000               0.000000000               0.000000000               0.000000000               0.000050941               0.001279908              -0.000008152              -0.000140885               0.000473593               0.000332708               0.000000000               0.000000000               0.000000000               0.000000000               0.000027899               0.001304861              -0.000005383              -0.000152645               0.000485831               0.000333186               0.000000000               0.000000000               0.000000000               0.000000000               0.000227353               0.001943902              -0.000306369              -0.000157730               0.000700538               0.000542807               0.000000000               0.000000000               0.000000000               0.000000000               0.000232215               0.001648348              -0.000209757              -0.000118963               0.000589098               0.000470135               0.000000000               0.000000000               0.000000000               0.000000000               0.000300752               0.001422684              -0.000110259              -0.000065054               0.000495908               0.000430854               0.000000000               0.000000000               0.000000000               0.000000000               0.000322568               0.001297032              -0.000066165              -0.000041166               0.000446061               0.000404896               0.000000000               0.000000000               0.000000000               0.000000000               0.000328151               0.001221153              -0.000047389              -0.000029587               0.000416909               0.000387322               0.000000000               0.000000000               0.000000000               0.000000000               0.000326239               0.001176824              -0.000038870              -0.000024764               0.000400525               0.000375762               0.000000000               0.000000000               0.000000000               0.000000000               0.000317197               0.001153698              -0.000032069              -0.000025263               0.000392983               0.000367720               0.000000000               0.000000000               0.000000000               0.000000000               0.000300455               0.001149235              -0.000025374              -0.000030984               0.000393402               0.000362419               0.000000000               0.000000000               0.000000000               0.000000000               0.000279484               0.001156007              -0.000022839              -0.000039694               0.000398563               0.000358869               0.000000000               0.000000000               0.000000000               0.000000000               0.000255823               0.001165458              -0.000027290              -0.000049748               0.000405065               0.000355317               0.000000000               0.000000000               0.000000000               0.000000000               0.000231973               0.001175475              -0.000035134              -0.000059944               0.000411803               0.000351858               0.000000000               0.000000000               0.000000000               0.000000000               0.000206484               0.001188669              -0.000034205              -0.000071152               0.000419936               0.000348784               0.000000000               0.000000000               0.000000000               0.000000000               0.000172176               0.001204838              -0.000028655              -0.000086038               0.000430288               0.000344250               0.000000000               0.000000000               0.000000000               0.000000000               0.000133097               0.001222016              -0.000026164              -0.000102840               0.000441615               0.000338774               0.000000000               0.000000000               0.000000000               0.000000000               0.000092157               0.001240969              -0.000019970              -0.000120562               0.000453840               0.000333278               0.000000000               0.000000000               0.000000000               0.000000000               0.000046273               0.001259070              -0.000010469              -0.000140031               0.000466363               0.000326332               0.000000000               0.000000000               0.000000000               0.000000000               0.000024791               0.001273184              -0.000006587              -0.000149851               0.000474341               0.000324490               0.000000000               0.000000000               0.000000000               0.000000000               0.000277093               0.001799564              -0.000424804              -0.000121036               0.000640194               0.000519158               0.000000000               0.000000000               0.000000000               0.000000000               0.000253059               0.001548068              -0.000290921              -0.000098611               0.000548888               0.000450277               0.000000000               0.000000000               0.000000000               0.000000000               0.000291282               0.001370095              -0.000154756              -0.000062031               0.000477371               0.000415340               0.000000000               0.000000000               0.000000000               0.000000000               0.000298587               0.001272466              -0.000097116              -0.000047088               0.000439847               0.000392759               0.000000000               0.000000000               0.000000000               0.000000000               0.000296365               0.001215194              -0.000071568              -0.000040762               0.000418648               0.000377886               0.000000000               0.000000000               0.000000000               0.000000000               0.000288773               0.001186128              -0.000058743              -0.000039976               0.000408697               0.000368721               0.000000000               0.000000000               0.000000000               0.000000000               0.000273128               0.001177109              -0.000048693              -0.000044716               0.000407271               0.000362555               0.000000000               0.000000000               0.000000000               0.000000000               0.000254156               0.001182082              -0.000038769              -0.000052452               0.000411507               0.000359056               0.000000000               0.000000000               0.000000000               0.000000000               0.000234179               0.001190223              -0.000035260              -0.000060961               0.000417057               0.000356097               0.000000000               0.000000000               0.000000000               0.000000000               0.000215390               0.001197232              -0.000040509              -0.000068883               0.000422034               0.000353152               0.000000000               0.000000000               0.000000000               0.000000000               0.000197175               0.001201824              -0.000046114              -0.000076287               0.000426033               0.000349746               0.000000000               0.000000000               0.000000000               0.000000000               0.000174509               0.001212130              -0.000040850              -0.000086075               0.000432731               0.000346656               0.000000000               0.000000000               0.000000000               0.000000000               0.000144831               0.001223815              -0.000031833              -0.000098665               0.000440822               0.000342157               0.000000000               0.000000000               0.000000000               0.000000000               0.000114933               0.001236889              -0.000025840              -0.000111511               0.000449462               0.000337952               0.000000000               0.000000000               0.000000000               0.000000000               0.000082081               0.001250611              -0.000016625              -0.000125546               0.000458715               0.000333169               0.000000000               0.000000000               0.000000000               0.000000000               0.000041346               0.001262426              -0.000007132              -0.000142298               0.000468237               0.000325939               0.000000000               0.000000000               0.000000000               0.000000000               0.000022415               0.001273280              -0.000004875              -0.000150754               0.000474674               0.000323920               0.000000000               0.000000000               0.000000000               0.000000000               0.000335778               0.001623663              -0.000506151              -0.000077042               0.000566896               0.000489855               0.000000000               0.000000000               0.000000000               0.000000000               0.000276870               0.001426445              -0.000349802              -0.000074479               0.000500303               0.000425824               0.000000000               0.000000000               0.000000000               0.000000000               0.000278237               0.001307372              -0.000191874              -0.000059083               0.000455481               0.000396398               0.000000000               0.000000000               0.000000000               0.000000000               0.000273428               0.001240648              -0.000125473              -0.000052546               0.000431061               0.000378515               0.000000000               0.000000000               0.000000000               0.000000000               0.000265180               0.001206120              -0.000095352              -0.000051323               0.000419144               0.000367821               0.000000000               0.000000000               0.000000000               0.000000000               0.000250771               0.001194015              -0.000078535              -0.000055213               0.000416405               0.000361192               0.000000000               0.000000000               0.000000000               0.000000000               0.000230722               0.001199816              -0.000063716              -0.000063456               0.000421087               0.000357631               0.000000000               0.000000000               0.000000000               0.000000000               0.000208443               0.001214527              -0.000052066              -0.000073649               0.000429388               0.000355739               0.000000000               0.000000000               0.000000000               0.000000000               0.000190184               0.001226064              -0.000048046              -0.000081939               0.000435997               0.000354058               0.000000000               0.000000000               0.000000000               0.000000000               0.000175318               0.001231881              -0.000052861              -0.000088241               0.000440036               0.000351796               0.000000000               0.000000000               0.000000000               0.000000000               0.000160334               0.001238971              -0.000054961              -0.000094746               0.000444568               0.000349822               0.000000000               0.000000000               0.000000000               0.000000000               0.000143110               0.001253420              -0.000044303              -0.000103011               0.000452140               0.000349129               0.000000000               0.000000000               0.000000000               0.000000000               0.000119797               0.001267233              -0.000033034              -0.000113480               0.000460234               0.000346753               0.000000000               0.000000000               0.000000000               0.000000000               0.000095575               0.001282581              -0.000025577              -0.000124481               0.000469016               0.000344535               0.000000000               0.000000000               0.000000000               0.000000000               0.000068146               0.001300095              -0.000017207              -0.000136957               0.000479013               0.000342056               0.000000000               0.000000000               0.000000000               0.000000000               0.000033930               0.001317180              -0.000007964              -0.000151924               0.000489697               0.000337773               0.000000000               0.000000000               0.000000000               0.000000000               0.000020277               0.001333183              -0.000005828              -0.000159043               0.000497404               0.000338361               0.000000000               0.000000000               0.000000000               0.000000000               0.000384954               0.001430471              -0.000551663              -0.000034452               0.000488303               0.000453851               0.000000000               0.000000000               0.000000000               0.000000000               0.000296171               0.001294831              -0.000387178              -0.000050790               0.000448536               0.000397746               0.000000000               0.000000000               0.000000000               0.000000000               0.000264854               0.001240234              -0.000221136              -0.000055709               0.000431977               0.000376268               0.000000000               0.000000000               0.000000000               0.000000000               0.000250681               0.001206474              -0.000151273              -0.000056804               0.000421089               0.000364285               0.000000000               0.000000000               0.000000000               0.000000000               0.000239560               0.001193630              -0.000117789              -0.000059369               0.000417662               0.000358294               0.000000000               0.000000000               0.000000000               0.000000000               0.000221605               0.001198483              -0.000096156              -0.000066708               0.000421726               0.000355018               0.000000000               0.000000000               0.000000000               0.000000000               0.000198663               0.001219394              -0.000077622              -0.000077925               0.000432436               0.000354510               0.000000000               0.000000000               0.000000000               0.000000000               0.000176369               0.001241318              -0.000064196              -0.000089026               0.000443444               0.000354418               0.000000000               0.000000000               0.000000000               0.000000000               0.000159805               0.001256782              -0.000060619              -0.000097171               0.000451314               0.000354143               0.000000000               0.000000000               0.000000000               0.000000000               0.000146360               0.001269023              -0.000063361              -0.000103743               0.000457584               0.000353842               0.000000000               0.000000000               0.000000000               0.000000000               0.000134578               0.001289397              -0.000059440              -0.000110708               0.000466697               0.000355990               0.000000000               0.000000000               0.000000000               0.000000000               0.000120144               0.001317767              -0.000046299              -0.000119667               0.000479140               0.000359474               0.000000000               0.000000000               0.000000000               0.000000000               0.000098745               0.001346684              -0.000035730              -0.000131306               0.000492659               0.000361353               0.000000000               0.000000000               0.000000000               0.000000000               0.000073839               0.001375892              -0.000027248              -0.000144297               0.000506725               0.000362429               0.000000000               0.000000000               0.000000000               0.000000000               0.000048593               0.001407709              -0.000018585              -0.000157741               0.000521812               0.000364071               0.000000000               0.000000000               0.000000000               0.000000000               0.000024453               0.001440171              -0.000009854              -0.000170851               0.000537002               0.000366151               0.000000000               0.000000000               0.000000000               0.000000000               0.000018051               0.001464266              -0.000008019              -0.000176264               0.000546838               0.000370574               0.000000000               0.000000000               0.000000000               0.000000000               0.000420370               0.001229589              -0.000563321               0.000003939               0.000408546               0.000412485               0.000000000               0.000000000               0.000000000               0.000000000               0.000307421               0.001162950              -0.000404286              -0.000030086               0.000397675               0.000367588               0.000000000               0.000000000               0.000000000               0.000000000               0.000251077               0.001175150              -0.000243280              -0.000052740               0.000409293               0.000356553               0.000000000               0.000000000               0.000000000               0.000000000               0.000232787               0.001173965              -0.000173576              -0.000059451               0.000411135               0.000351684               0.000000000               0.000000000               0.000000000               0.000000000               0.000220280               0.001181616              -0.000136451              -0.000065097               0.000415567               0.000350470               0.000000000               0.000000000               0.000000000               0.000000000               0.000201025               0.001204017              -0.000110314              -0.000075118               0.000426374               0.000351256               0.000000000               0.000000000               0.000000000               0.000000000               0.000178339               0.001237117              -0.000089403              -0.000087762               0.000441622               0.000353860               0.000000000               0.000000000               0.000000000               0.000000000               0.000159379               0.001264616              -0.000075804              -0.000098310               0.000454304               0.000355995               0.000000000               0.000000000               0.000000000               0.000000000               0.000148152               0.001288448              -0.000069937              -0.000105499               0.000464645               0.000359146               0.000000000               0.000000000               0.000000000               0.000000000               0.000139639               0.001318865              -0.000067455              -0.000112493               0.000477115               0.000364622               0.000000000               0.000000000               0.000000000               0.000000000               0.000128040               0.001363105              -0.000057910              -0.000122373               0.000495155               0.000372782               0.000000000               0.000000000               0.000000000               0.000000000               0.000111947               0.001416557              -0.000041733              -0.000135089               0.000517211               0.000382122               0.000000000               0.000000000               0.000000000               0.000000000               0.000090373               0.001469794              -0.000031817              -0.000149834               0.000539871               0.000390037               0.000000000               0.000000000               0.000000000               0.000000000               0.000064960               0.001520014              -0.000024578              -0.000165642               0.000561880               0.000396239               0.000000000               0.000000000               0.000000000               0.000000000               0.000038657               0.001568256              -0.000015803              -0.000181535               0.000583258               0.000401723               0.000000000               0.000000000               0.000000000               0.000000000               0.000016699               0.001616419              -0.000008818              -0.000195790               0.000604064               0.000408275               0.000000000               0.000000000               0.000000000               0.000000000               0.000013457               0.001650421              -0.000009306              -0.000201256               0.000617220               0.000415964               0.000000000               0.000000000               0.000000000               0.000000000               0.000442893               0.001034276              -0.000542911               0.000036799               0.000332489               0.000369288               0.000000000               0.000000000               0.000000000               0.000000000               0.000312748               0.001038924              -0.000404216              -0.000012585               0.000350500               0.000337914               0.000000000               0.000000000               0.000000000               0.000000000               0.000239278               0.001115185              -0.000259514              -0.000049669               0.000388281               0.000338612               0.000000000               0.000000000               0.000000000               0.000000000               0.000220494               0.001144152              -0.000190135              -0.000060334               0.000401492               0.000341158               0.000000000               0.000000000               0.000000000               0.000000000               0.000206537               0.001174298              -0.000149938              -0.000069336               0.000414541               0.000345205               0.000000000               0.000000000               0.000000000               0.000000000               0.000185883               0.001215799              -0.000121328              -0.000082268               0.000432685               0.000350416               0.000000000               0.000000000               0.000000000               0.000000000               0.000165501               0.001259070              -0.000098634              -0.000095321               0.000451459               0.000356139               0.000000000               0.000000000               0.000000000               0.000000000               0.000153657               0.001297987              -0.000082767              -0.000104627               0.000467534               0.000362907               0.000000000               0.000000000               0.000000000               0.000000000               0.000151591               0.001343041              -0.000071702              -0.000111033               0.000484687               0.000373654               0.000000000               0.000000000               0.000000000               0.000000000               0.000148930               0.001403717              -0.000060971              -0.000119616               0.000507773               0.000388157               0.000000000               0.000000000               0.000000000               0.000000000               0.000136950               0.001478170              -0.000046045              -0.000133414               0.000537190               0.000403775               0.000000000               0.000000000               0.000000000               0.000000000               0.000118647               0.001553574              -0.000030643              -0.000149704               0.000567754               0.000418050               0.000000000               0.000000000               0.000000000               0.000000000               0.000095389               0.001624220              -0.000023510              -0.000167256               0.000597153               0.000429897               0.000000000               0.000000000               0.000000000               0.000000000               0.000067645               0.001690195              -0.000019157              -0.000185907               0.000625362               0.000439455               0.000000000               0.000000000               0.000000000               0.000000000               0.000040699               0.001753142              -0.000011980              -0.000203880               0.000652335               0.000448455               0.000000000               0.000000000               0.000000000               0.000000000               0.000019008               0.001813533              -0.000005487              -0.000219563               0.000677692               0.000458130               0.000000000               0.000000000               0.000000000               0.000000000               0.000014908               0.001853212              -0.000006441              -0.000226060               0.000693084               0.000467024               0.000000000               0.000000000               0.000000000               0.000000000               0.000453333               0.000861179              -0.000501057               0.000062351               0.000266273               0.000328624               0.000000000               0.000000000               0.000000000               0.000000000               0.000319943               0.000929038              -0.000395366               0.000003848               0.000308393               0.000312242               0.000000000               0.000000000               0.000000000               0.000000000               0.000235397               0.001059782              -0.000274663              -0.000044199               0.000367990               0.000323791               0.000000000               0.000000000               0.000000000               0.000000000               0.000216091               0.001118244              -0.000205670              -0.000058746               0.000392326               0.000333580               0.000000000               0.000000000               0.000000000               0.000000000               0.000200479               0.001170297              -0.000162167              -0.000071107               0.000413798               0.000342690               0.000000000               0.000000000               0.000000000               0.000000000               0.000179120               0.001228309              -0.000132393              -0.000086369               0.000438222               0.000351853               0.000000000               0.000000000               0.000000000               0.000000000               0.000163317               0.001284920              -0.000108216              -0.000099371               0.000461426               0.000362055               0.000000000               0.000000000               0.000000000               0.000000000               0.000158754               0.001341825              -0.000086957              -0.000108195               0.000483336               0.000375140               0.000000000               0.000000000               0.000000000               0.000000000               0.000164370               0.001411925              -0.000067413              -0.000114851               0.000508921               0.000394069               0.000000000               0.000000000               0.000000000               0.000000000               0.000169041               0.001498520              -0.000049571              -0.000123924               0.000540810               0.000416885               0.000000000               0.000000000               0.000000000               0.000000000               0.000156726               0.001588687              -0.000035473              -0.000139813               0.000576161               0.000436348               0.000000000               0.000000000               0.000000000               0.000000000               0.000135647               0.001675724              -0.000024828              -0.000158598               0.000611435               0.000452837               0.000000000               0.000000000               0.000000000               0.000000000               0.000115145               0.001755051              -0.000018003              -0.000176201               0.000643745               0.000467543               0.000000000               0.000000000               0.000000000               0.000000000               0.000090643               0.001829082              -0.000012619              -0.000194643               0.000674569               0.000479926               0.000000000               0.000000000               0.000000000               0.000000000               0.000066233               0.001901565              -0.000005467              -0.000212858               0.000704801               0.000491944               0.000000000               0.000000000               0.000000000               0.000000000               0.000047850               0.001968066              -0.000000346              -0.000228064               0.000732037               0.000503973               0.000000000               0.000000000               0.000000000               0.000000000               0.000038621               0.002002086               0.000000505              -0.000235777               0.000745948               0.000510170               0.000000000               0.000000000               0.000000000               0.000000000               0.000447915               0.000688743              -0.000447308               0.000081874               0.000202287               0.000284161               0.000000000               0.000000000               0.000000000               0.000000000               0.000328257               0.000797877              -0.000382686               0.000023361               0.000258169               0.000281530               0.000000000               0.000000000               0.000000000               0.000000000               0.000240664               0.000970017              -0.000294385              -0.000031003               0.000333670               0.000302667               0.000000000               0.000000000               0.000000000               0.000000000               0.000220025               0.001059394              -0.000227680              -0.000049915               0.000369766               0.000319851               0.000000000               0.000000000               0.000000000               0.000000000               0.000206029               0.001129556              -0.000182162              -0.000063934               0.000397826               0.000333892               0.000000000               0.000000000               0.000000000               0.000000000               0.000188240               0.001199993              -0.000151969              -0.000079409               0.000426463               0.000347054               0.000000000               0.000000000               0.000000000               0.000000000               0.000173100               0.001273114              -0.000126256              -0.000094226               0.000455776               0.000361550               0.000000000               0.000000000               0.000000000               0.000000000               0.000169133               0.001349054              -0.000101140              -0.000105207               0.000484749               0.000379542               0.000000000               0.000000000               0.000000000               0.000000000               0.000177704               0.001432746              -0.000079395              -0.000112454               0.000515062               0.000402608               0.000000000               0.000000000               0.000000000               0.000000000               0.000190601               0.001525150              -0.000059720              -0.000119168               0.000548101               0.000428933               0.000000000               0.000000000               0.000000000               0.000000000               0.000193417               0.001623040              -0.000044364              -0.000130348               0.000584458               0.000454109               0.000000000               0.000000000               0.000000000               0.000000000               0.000181268               0.001716956              -0.000034316              -0.000146644               0.000621194               0.000474550               0.000000000               0.000000000               0.000000000               0.000000000               0.000163294               0.001801082              -0.000024959              -0.000163900               0.000654988               0.000491088               0.000000000               0.000000000               0.000000000               0.000000000               0.000141249               0.001876951              -0.000013944              -0.000181650               0.000686194               0.000504544               0.000000000               0.000000000               0.000000000               0.000000000               0.000116304               0.001949276              -0.000006597              -0.000200045               0.000716434               0.000516389               0.000000000               0.000000000               0.000000000               0.000000000               0.000097539               0.002022716              -0.000003252              -0.000216262               0.000746319               0.000530058               0.000000000               0.000000000               0.000000000               0.000000000               0.000083573               0.002054014               0.000001189              -0.000225411               0.000759802               0.000534390               0.000000000               0.000000000               0.000000000               0.000000000               0.000422283               0.000525904              -0.000381080               0.000092617               0.000144427               0.000237044               0.000000000               0.000000000               0.000000000               0.000000000               0.000334647               0.000664101              -0.000358133               0.000042479               0.000207205               0.000249684               0.000000000               0.000000000               0.000000000               0.000000000               0.000257003               0.000866763              -0.000307145              -0.000011970               0.000292908               0.000280938               0.000000000               0.000000000               0.000000000               0.000000000               0.000233893               0.000983083              -0.000247836              -0.000035176               0.000339416               0.000304241               0.000000000               0.000000000               0.000000000               0.000000000               0.000221879               0.001071513              -0.000202977              -0.000050735               0.000374079               0.000323344               0.000000000               0.000000000               0.000000000               0.000000000               0.000208184               0.001156373              -0.000172130              -0.000066477               0.000407613               0.000341135               0.000000000               0.000000000               0.000000000               0.000000000               0.000194793               0.001241443              -0.000145872              -0.000082133               0.000441188               0.000359055               0.000000000               0.000000000               0.000000000               0.000000000               0.000190969               0.001328918              -0.000121618              -0.000094501               0.000474469               0.000379967               0.000000000               0.000000000               0.000000000               0.000000000               0.000203011               0.001425307              -0.000100798              -0.000102034               0.000509109               0.000407075               0.000000000               0.000000000               0.000000000               0.000000000               0.000221636               0.001527658              -0.000078505              -0.000107843               0.000545162               0.000437318               0.000000000               0.000000000               0.000000000               0.000000000               0.000234052               0.001627724              -0.000058289              -0.000115696               0.000581134               0.000465439               0.000000000               0.000000000               0.000000000               0.000000000               0.000231984               0.001718723              -0.000045316              -0.000127846               0.000615517               0.000487671               0.000000000               0.000000000               0.000000000               0.000000000               0.000219742               0.001804828              -0.000034076              -0.000143200               0.000649337               0.000506137               0.000000000               0.000000000               0.000000000               0.000000000               0.000203004               0.001882759              -0.000019574              -0.000159218               0.000680653               0.000521435               0.000000000               0.000000000               0.000000000               0.000000000               0.000183044               0.001955136              -0.000009638              -0.000175750               0.000710289               0.000534539               0.000000000               0.000000000               0.000000000               0.000000000               0.000159171               0.002024756              -0.000004877              -0.000193405               0.000739380               0.000545975               0.000000000               0.000000000               0.000000000               0.000000000               0.000138177               0.002051261               0.000000714              -0.000204591               0.000751944               0.000547353               0.000000000               0.000000000               0.000000000               0.000000000               0.000373845               0.000383161              -0.000307326               0.000092296               0.000096954               0.000189249               0.000000000               0.000000000               0.000000000               0.000000000               0.000329875               0.000535811              -0.000318565               0.000056726               0.000159693               0.000216419               0.000000000               0.000000000               0.000000000               0.000000000               0.000276420               0.000751130              -0.000300818               0.000009766               0.000247119               0.000256885               0.000000000               0.000000000               0.000000000               0.000000000               0.000255450               0.000889173              -0.000254631              -0.000015353               0.000301506               0.000286153               0.000000000               0.000000000               0.000000000               0.000000000               0.000245153               0.000998265              -0.000214279              -0.000032851               0.000343702               0.000310851               0.000000000               0.000000000               0.000000000               0.000000000               0.000236490               0.001098055              -0.000185156              -0.000048573               0.000382206               0.000333633               0.000000000               0.000000000               0.000000000               0.000000000               0.000227215               0.001192353              -0.000161003              -0.000063839               0.000418727               0.000354888               0.000000000               0.000000000               0.000000000               0.000000000               0.000226490               0.001296681              -0.000140466              -0.000077151               0.000457940               0.000380789               0.000000000               0.000000000               0.000000000               0.000000000               0.000235025               0.001410971              -0.000120518              -0.000088237               0.000499731               0.000411494               0.000000000               0.000000000               0.000000000               0.000000000               0.000251118               0.001521707              -0.000097306              -0.000096044               0.000539245               0.000443201               0.000000000               0.000000000               0.000000000               0.000000000               0.000267355               0.001621693              -0.000074733              -0.000102453               0.000574710               0.000472257               0.000000000               0.000000000               0.000000000               0.000000000               0.000275306               0.001713260              -0.000056707              -0.000110917               0.000608053               0.000497136               0.000000000               0.000000000               0.000000000               0.000000000               0.000271380               0.001798766              -0.000042098              -0.000123078               0.000640609               0.000517531               0.000000000               0.000000000               0.000000000               0.000000000               0.000262374               0.001878695              -0.000028337              -0.000136446               0.000671708               0.000535261               0.000000000               0.000000000               0.000000000               0.000000000               0.000250013               0.001953933              -0.000015236              -0.000150486               0.000701467               0.000550980               0.000000000               0.000000000               0.000000000               0.000000000               0.000228650               0.002024303              -0.000005222              -0.000167294               0.000730525               0.000563232               0.000000000               0.000000000               0.000000000               0.000000000               0.000205909               0.002052316               0.000001784              -0.000179323               0.000743873               0.000564550               0.000000000               0.000000000               0.000000000               0.000000000               0.000311045               0.000265280              -0.000231280               0.000083481               0.000060599               0.000144080               0.000000000               0.000000000               0.000000000               0.000000000               0.000314152               0.000417249              -0.000266474               0.000065650               0.000117198               0.000182848               0.000000000               0.000000000               0.000000000               0.000000000               0.000293336               0.000631072              -0.000274243               0.000031116               0.000199983               0.000231099               0.000000000               0.000000000               0.000000000               0.000000000               0.000282978               0.000787148              -0.000242730               0.000007723               0.000259806               0.000267529               0.000000000               0.000000000               0.000000000               0.000000000               0.000276314               0.000914683              -0.000211233              -0.000010718               0.000308464               0.000297746               0.000000000               0.000000000               0.000000000               0.000000000               0.000271640               0.001026657              -0.000186672              -0.000026467               0.000351038               0.000324571               0.000000000               0.000000000               0.000000000               0.000000000               0.000266514               0.001135656              -0.000165948              -0.000042014               0.000392553               0.000350539               0.000000000               0.000000000               0.000000000               0.000000000               0.000267566               0.001259700              -0.000148377              -0.000057125               0.000438937               0.000381812               0.000000000               0.000000000               0.000000000               0.000000000               0.000273164               0.001385966              -0.000130925              -0.000070809               0.000485587               0.000414778               0.000000000               0.000000000               0.000000000               0.000000000               0.000285055               0.001501529              -0.000110553              -0.000080795               0.000527437               0.000446641               0.000000000               0.000000000               0.000000000               0.000000000               0.000299099               0.001601500              -0.000087906              -0.000088025               0.000563170               0.000475145               0.000000000               0.000000000               0.000000000               0.000000000               0.000309612               0.001689781              -0.000066320              -0.000095118               0.000594961               0.000499843               0.000000000               0.000000000               0.000000000               0.000000000               0.000315053               0.001777002              -0.000048757              -0.000103980               0.000626988               0.000523008               0.000000000               0.000000000               0.000000000               0.000000000               0.000316794               0.001866422              -0.000035078              -0.000114505               0.000660303               0.000545798               0.000000000               0.000000000               0.000000000               0.000000000               0.000313205               0.001948317              -0.000019918              -0.000126088               0.000691462               0.000565374               0.000000000               0.000000000               0.000000000               0.000000000               0.000304036               0.002022434              -0.000007014              -0.000138790               0.000720401               0.000581611               0.000000000               0.000000000               0.000000000               0.000000000               0.000289216               0.002053615               0.000000474              -0.000148246               0.000733947               0.000585701               0.000000000               0.000000000               0.000000000               0.000000000               0.000243028               0.000177713              -0.000157929               0.000068920               0.000036264               0.000105184               0.000000000               0.000000000               0.000000000               0.000000000               0.000290527               0.000316559              -0.000203241               0.000069377               0.000082393               0.000151770               0.000000000               0.000000000               0.000000000               0.000000000               0.000307102               0.000518954              -0.000227362               0.000050293               0.000156219               0.000206512               0.000000000               0.000000000               0.000000000               0.000000000               0.000311604               0.000686296              -0.000209847               0.000031064               0.000218408               0.000249473               0.000000000               0.000000000               0.000000000               0.000000000               0.000312277               0.000828730              -0.000188222               0.000013512               0.000271736               0.000285249               0.000000000               0.000000000               0.000000000               0.000000000               0.000309728               0.000953197              -0.000169947              -0.000003002               0.000318730               0.000315728               0.000000000               0.000000000               0.000000000               0.000000000               0.000308845               0.001080509              -0.000153648              -0.000019247               0.000366582               0.000347335               0.000000000               0.000000000               0.000000000               0.000000000               0.000311816               0.001216990              -0.000139878              -0.000035193               0.000417390               0.000382197               0.000000000               0.000000000               0.000000000               0.000000000               0.000317291               0.001344380              -0.000126713              -0.000049063               0.000464476               0.000415413               0.000000000               0.000000000               0.000000000               0.000000000               0.000323085               0.001459669              -0.000109585              -0.000061302               0.000506985               0.000445684               0.000000000               0.000000000               0.000000000               0.000000000               0.000331147               0.001562613              -0.000088387              -0.000071146               0.000544581               0.000473435               0.000000000               0.000000000               0.000000000               0.000000000               0.000340569               0.001655351              -0.000067440              -0.000079205               0.000578180               0.000498975               0.000000000               0.000000000               0.000000000               0.000000000               0.000353262               0.001751719              -0.000050955              -0.000086492               0.000612731               0.000526239               0.000000000               0.000000000               0.000000000               0.000000000               0.000364976               0.001849864              -0.000037705              -0.000094367               0.000648071               0.000553704               0.000000000               0.000000000               0.000000000               0.000000000               0.000371963               0.001939022              -0.000024118              -0.000102891               0.000680631               0.000577740               0.000000000               0.000000000               0.000000000               0.000000000               0.000376680               0.002020190              -0.000011591              -0.000111269               0.000710480               0.000599211               0.000000000               0.000000000               0.000000000               0.000000000               0.000372152               0.002055223              -0.000003941              -0.000117346               0.000724183               0.000606837               0.000000000               0.000000000               0.000000000               0.000000000               0.000176423               0.000117972              -0.000095376               0.000051412               0.000022186               0.000073598               0.000000000               0.000000000               0.000000000               0.000000000               0.000263518               0.000240325              -0.000135584               0.000068778               0.000057181               0.000125959               0.000000000               0.000000000               0.000000000               0.000000000               0.000316683               0.000428016              -0.000162449               0.000065253               0.000120919               0.000186173               0.000000000               0.000000000               0.000000000               0.000000000               0.000336176               0.000599929              -0.000155363               0.000051074               0.000182950               0.000234024               0.000000000               0.000000000               0.000000000               0.000000000               0.000344821               0.000751967              -0.000142747               0.000035312               0.000238883               0.000274194               0.000000000               0.000000000               0.000000000               0.000000000               0.000346867               0.000890865              -0.000130719               0.000018717               0.000290713               0.000309430               0.000000000               0.000000000               0.000000000               0.000000000               0.000349924               0.001030562              -0.000120437               0.000002401               0.000342717               0.000345118               0.000000000               0.000000000               0.000000000               0.000000000               0.000355813               0.001167434              -0.000111997              -0.000012499               0.000393307               0.000380808               0.000000000               0.000000000               0.000000000               0.000000000               0.000356798               0.001293584              -0.000101498              -0.000027899               0.000440490               0.000412591               0.000000000               0.000000000               0.000000000               0.000000000               0.000356851               0.001410402              -0.000087865              -0.000042481               0.000484290               0.000441809               0.000000000               0.000000000               0.000000000               0.000000000               0.000360501               0.001518653              -0.000072240              -0.000054643               0.000524427               0.000469784               0.000000000               0.000000000               0.000000000               0.000000000               0.000371897               0.001625915              -0.000057591              -0.000063778               0.000563226               0.000499448               0.000000000               0.000000000               0.000000000               0.000000000               0.000389398               0.001734418              -0.000045872              -0.000070778               0.000601726               0.000530948               0.000000000               0.000000000               0.000000000               0.000000000               0.000405128               0.001832763              -0.000034452              -0.000077172               0.000636639               0.000559467               0.000000000               0.000000000               0.000000000               0.000000000               0.000418727               0.001921413              -0.000023153              -0.000083154               0.000668182               0.000585029               0.000000000               0.000000000               0.000000000               0.000000000               0.000432829               0.002007934              -0.000012169              -0.000088681               0.000698865               0.000610184               0.000000000               0.000000000               0.000000000               0.000000000               0.000436553               0.002048096              -0.000005497              -0.000092304               0.000713460               0.000621156               0.000000000               0.000000000               0.000000000               0.000000000               0.000127580               0.000081223              -0.000044095               0.000037689               0.000014511               0.000052200               0.000000000               0.000000000               0.000000000               0.000000000               0.000243081               0.000192976              -0.000067770               0.000067033               0.000041980               0.000109013               0.000000000               0.000000000               0.000000000               0.000000000               0.000321362               0.000369088              -0.000084797               0.000074374               0.000098237               0.000172611               0.000000000               0.000000000               0.000000000               0.000000000               0.000353182               0.000540967              -0.000082700               0.000064822               0.000158713               0.000223535               0.000000000               0.000000000               0.000000000               0.000000000               0.000368459               0.000699090              -0.000077131               0.000050785               0.000216099               0.000266884               0.000000000               0.000000000               0.000000000               0.000000000               0.000375643               0.000847427              -0.000071245               0.000034937               0.000270827               0.000305764               0.000000000               0.000000000               0.000000000               0.000000000               0.000381361               0.000992775              -0.000067280               0.000018913               0.000324617               0.000343531               0.000000000               0.000000000               0.000000000               0.000000000               0.000384100               0.001128579              -0.000063063               0.000002965               0.000375201               0.000378166               0.000000000               0.000000000               0.000000000               0.000000000               0.000381971               0.001251880              -0.000056171              -0.000013246               0.000421704               0.000408459               0.000000000               0.000000000               0.000000000               0.000000000               0.000381667               0.001370669              -0.000048501              -0.000028208               0.000466288               0.000438079               0.000000000               0.000000000               0.000000000               0.000000000               0.000387136               0.001490243              -0.000041499              -0.000041104               0.000510444               0.000469340               0.000000000               0.000000000               0.000000000               0.000000000               0.000399346               0.001609547              -0.000035620              -0.000051439               0.000553656               0.000502218               0.000000000               0.000000000               0.000000000               0.000000000               0.000414206               0.001718770              -0.000028371              -0.000059519               0.000592757               0.000533238               0.000000000               0.000000000               0.000000000               0.000000000               0.000429143               0.001813243              -0.000020265              -0.000065727               0.000626317               0.000560591               0.000000000               0.000000000               0.000000000               0.000000000               0.000447863               0.001905444              -0.000014047              -0.000070232               0.000658552               0.000588321               0.000000000               0.000000000               0.000000000               0.000000000               0.000470629               0.001999307              -0.000007933              -0.000073427               0.000690905               0.000617477               0.000000000               0.000000000               0.000000000               0.000000000               0.000481602               0.002043977              -0.000004002              -0.000074896               0.000706284               0.000631388               0.000000000               0.000000000               0.000000000               0.000000000               0.000000000               0.000000000               0.000000000               0.000000000               0.000000000               0.000000000               0.000000000               0.000000000               0.000000000               0.000000000               0.000000000               0.000000000               0.000000000               0.000000000               0.000000000               0.000000000               0.000000000               0.000000000               0.000000000               0.000000000               0.000000000               0.000000000               0.000000000               0.000000000               0.000000000               0.000000000               0.000000000               0.000000000               0.000000000               0.000000000               0.000000000               0.000000000               0.000000000               0.000000000               0.000000000               0.000000000               0.000000000               0.000000000               0.000000000               0.000000000               0.000000000               0.000000000               0.000000000               0.000000000               0.000000000               0.000000000               0.000000000               0.000000000               0.000000000               0.000000000               0.000000000               0.000000000               0.000000000               0.000000000               0.000000000               0.000000000               0.000000000               0.000000000               0.000000000               0.000000000               0.000000000               0.000000000               0.000000000               0.000000000               0.000000000               0.000000000               0.000000000               0.000000000               0.000000000               0.000000000               0.000000000               0.000000000               0.000000000               0.000000000               0.000000000               0.000000000               0.000000000               0.000000000               0.000000000               0.000000000               0.000000000               0.000000000               0.000000000               0.000000000               0.000000000               0.000000000               0.000000000               0.000000000               0.000000000               0.000000000               0.000000000               0.000000000               0.000000000               0.000000000               0.000000000               0.000000000               0.000000000               0.000000000               0.000000000               0.000000000               0.000000000               0.000000000               0.000000000               0.000000000               0.000000000               0.000000000               0.000000000               0.000000000               0.000000000               0.000000000               0.000000000               0.000000000               0.000000000               0.000000000               0.000000000               0.000000000               0.000000000               0.000000000               0.000000000               0.000000000               0.000000000               0.000000000               0.000000000               0.000000000               0.000000000               0.000000000               0.000000000               0.000000000               0.000000000               0.000000000               0.000000000               0.000000000               0.000000000               0.000000000               0.000000000               0.000000000               0.000000000               0.000000000               0.000000000               0.000000000               0.000000000               0.000000000               0.000000000               0.000000000               0.000000000               0.000000000               0.000000000               0.000000000               0.000000000               0.000000000               0.000000000               0.000000000               0.000000000               0.000000000               0.000000000               0.000000000               0.000000000               0.000000000               0.000000000               0.000000000               0.000000000               0.000000000               0.000000000               0.000000000               0.000000000               0.000000000               0.000000000               0.000000000               0.000000000               0.000000000               0.000000000               0.000000000               0.000000000               0.000000000               0.000000000               0.000000000               0.000000000               0.000000000               0.000000000               0.000000000               0.000000000               0.000000000               0.000000000               0.000000000               0.000000000               0.000000000               0.000000000               0.000000000               0.000000000               0.000000000               0.000000000               0.000000000               0.000000000               0.000000000               0.000000000               0.000000000               0.000000000               0.000000000               0.000000000               0.000000000               0.000000000               0.000000000               0.000000000               0.000000000               0.000000000               0.000000000               0.000000000               0.000000000               0.000000000               0.000000000               0.000000000               0.000000000               0.000000000               0.000000000               0.000000000               0.000000000               0.000000000               0.000000000               0.000000000               0.000000000               0.000000000               0.000000000               0.000000000               0.000000000               0.000000000               0.000000000               0.000000000               0.000000000               0.000000000               0.000000000               0.000000000               0.000000000               0.000000000               0.000000000               0.000000000               0.000000000               0.000000000               0.000000000               0.000000000               0.000000000               0.000000000               0.000000000               0.000000000               0.000000000               0.000000000               0.000000000               0.000000000               0.000000000               0.000000000               0.000000000               0.000000000               0.000000000               0.000000000               0.000000000               0.000000000               0.000000000               0.000000000               0.000000000               0.000000000               0.000000000               0.000000000               0.000000000               0.000000000               0.000000000               0.000000000               0.000000000               0.000000000               0.000000000               0.000000000               0.000000000               0.000000000               0.000000000               0.000000000               0.000000000               0.000000000               0.000000000               0.000000000               0.000000000               0.000000000               0.000000000               0.000000000               0.000000000               0.000000000               0.000000000               0.000000000               0.000000000               0.000000000               0.000000000               0.000000000               0.000000000               0.000000000               0.000000000               0.000000000               0.000000000               0.000000000               0.000000000               0.000000000               0.000000000               0.000000000               0.000000000               0.000000000               0.000000000               0.000000000               0.000000000               0.000000000               0.000000000               0.000000000               0.000000000               0.000000000               0.000000000               0.000000000               0.000000000               0.000000000               0.000000000               0.000000000               0.000000000               0.000000000               0.000000000               0.000000000               0.000000000               0.000000000               0.000000000               0.000000000               0.000000000               0.000000000               0.000000000               0.000000000               0.000000000               0.000000000               0.000000000               0.000000000               0.000000000               0.000000000               0.000000000               0.000000000               0.000000000               0.000000000               0.000000000               0.000000000               0.000000000               0.000192951               0.002035028               0.000161064              -0.000182021               0.000739010               0.000556988               0.000000000               0.000000000               0.000000000               0.000000000               0.000216988               0.001714813               0.000110256              -0.000132981               0.000615926               0.000482945               0.000000000               0.000000000               0.000000000               0.000000000               0.000306037               0.001458085               0.000057414              -0.000067497               0.000508522               0.000441026               0.000000000               0.000000000               0.000000000               0.000000000               0.000338849               0.001313068               0.000033531              -0.000037065               0.000450040               0.000412975               0.000000000               0.000000000               0.000000000               0.000000000               0.000351552               0.001224587               0.000023424              -0.000021241               0.000415272               0.000394031               0.000000000               0.000000000               0.000000000               0.000000000               0.000354420               0.001168927               0.000018965              -0.000013208               0.000394041               0.000380833               0.000000000               0.000000000               0.000000000               0.000000000               0.000349797               0.001136496               0.000015723              -0.000010888               0.000382457               0.000371569               0.000000000               0.000000000               0.000000000               0.000000000               0.000335975               0.001125366               0.000012416              -0.000014680               0.000380012               0.000365331               0.000000000               0.000000000               0.000000000               0.000000000               0.000313729               0.001130142               0.000010934              -0.000023619               0.000384583               0.000360964               0.000000000               0.000000000               0.000000000               0.000000000               0.000287425               0.001143833               0.000013690              -0.000035194               0.000393005               0.000357811               0.000000000               0.000000000               0.000000000               0.000000000               0.000259696               0.001159778               0.000019215              -0.000047586               0.000402451               0.000354865               0.000000000               0.000000000               0.000000000               0.000000000               0.000227863               0.001176403               0.000020010              -0.000061601               0.000412664               0.000351063               0.000000000               0.000000000               0.000000000               0.000000000               0.000189985               0.001198558               0.000017652              -0.000078575               0.000425707               0.000347132               0.000000000               0.000000000               0.000000000               0.000000000               0.000148679               0.001223854               0.000017327              -0.000097227               0.000440356               0.000343129               0.000000000               0.000000000               0.000000000               0.000000000               0.000102764               0.001250684               0.000014421              -0.000117799               0.000456157               0.000338358               0.000000000               0.000000000               0.000000000               0.000000000               0.000050941               0.001279908               0.000008152              -0.000140885               0.000473593               0.000332708               0.000000000               0.000000000               0.000000000               0.000000000               0.000027899               0.001304861               0.000005383              -0.000152645               0.000485831               0.000333186               0.000000000               0.000000000               0.000000000               0.000000000               0.000227353               0.001943902               0.000306369              -0.000157730               0.000700538               0.000542807               0.000000000               0.000000000               0.000000000               0.000000000               0.000232215               0.001648348               0.000209757              -0.000118963               0.000589098               0.000470135               0.000000000               0.000000000               0.000000000               0.000000000               0.000300752               0.001422684               0.000110259              -0.000065054               0.000495908               0.000430854               0.000000000               0.000000000               0.000000000               0.000000000               0.000322568               0.001297032               0.000066165              -0.000041166               0.000446061               0.000404896               0.000000000               0.000000000               0.000000000               0.000000000               0.000328151               0.001221153               0.000047389              -0.000029587               0.000416909               0.000387322               0.000000000               0.000000000               0.000000000               0.000000000               0.000326239               0.001176824               0.000038870              -0.000024764               0.000400525               0.000375762               0.000000000               0.000000000               0.000000000               0.000000000               0.000317197               0.001153698               0.000032069              -0.000025263               0.000392983               0.000367720               0.000000000               0.000000000               0.000000000               0.000000000               0.000300455               0.001149235               0.000025374              -0.000030984               0.000393402               0.000362419               0.000000000               0.000000000               0.000000000               0.000000000               0.000279484               0.001156007               0.000022839              -0.000039694               0.000398563               0.000358869               0.000000000               0.000000000               0.000000000               0.000000000               0.000255823               0.001165458               0.000027290              -0.000049748               0.000405065               0.000355317               0.000000000               0.000000000               0.000000000               0.000000000               0.000231973               0.001175475               0.000035134              -0.000059944               0.000411803               0.000351858               0.000000000               0.000000000               0.000000000               0.000000000               0.000206484               0.001188669               0.000034205              -0.000071152               0.000419936               0.000348784               0.000000000               0.000000000               0.000000000               0.000000000               0.000172176               0.001204838               0.000028655              -0.000086038               0.000430288               0.000344250               0.000000000               0.000000000               0.000000000               0.000000000               0.000133097               0.001222016               0.000026164              -0.000102840               0.000441615               0.000338774               0.000000000               0.000000000               0.000000000               0.000000000               0.000092157               0.001240969               0.000019970              -0.000120562               0.000453840               0.000333278               0.000000000               0.000000000               0.000000000               0.000000000               0.000046273               0.001259070               0.000010469              -0.000140031               0.000466363               0.000326332               0.000000000               0.000000000               0.000000000               0.000000000               0.000024791               0.001273184               0.000006587              -0.000149851               0.000474341               0.000324490               0.000000000               0.000000000               0.000000000               0.000000000               0.000277093               0.001799564               0.000424804              -0.000121036               0.000640194               0.000519158               0.000000000               0.000000000               0.000000000               0.000000000               0.000253059               0.001548068               0.000290921              -0.000098611               0.000548888               0.000450277               0.000000000               0.000000000               0.000000000               0.000000000               0.000291282               0.001370095               0.000154756              -0.000062031               0.000477371               0.000415340               0.000000000               0.000000000               0.000000000               0.000000000               0.000298587               0.001272466               0.000097116              -0.000047088               0.000439847               0.000392759               0.000000000               0.000000000               0.000000000               0.000000000               0.000296365               0.001215194               0.000071568              -0.000040762               0.000418648               0.000377886               0.000000000               0.000000000               0.000000000               0.000000000               0.000288773               0.001186128               0.000058743              -0.000039976               0.000408697               0.000368721               0.000000000               0.000000000               0.000000000               0.000000000               0.000273128               0.001177109               0.000048693              -0.000044716               0.000407271               0.000362555               0.000000000               0.000000000               0.000000000               0.000000000               0.000254156               0.001182082               0.000038769              -0.000052452               0.000411507               0.000359056               0.000000000               0.000000000               0.000000000               0.000000000               0.000234179               0.001190223               0.000035260              -0.000060961               0.000417057               0.000356097               0.000000000               0.000000000               0.000000000               0.000000000               0.000215390               0.001197232               0.000040509              -0.000068883               0.000422034               0.000353152               0.000000000               0.000000000               0.000000000               0.000000000               0.000197175               0.001201824               0.000046114              -0.000076287               0.000426033               0.000349746               0.000000000               0.000000000               0.000000000               0.000000000               0.000174509               0.001212130               0.000040850              -0.000086075               0.000432731               0.000346656               0.000000000               0.000000000               0.000000000               0.000000000               0.000144831               0.001223815               0.000031833              -0.000098665               0.000440822               0.000342157               0.000000000               0.000000000               0.000000000               0.000000000               0.000114933               0.001236889               0.000025840              -0.000111511               0.000449462               0.000337952               0.000000000               0.000000000               0.000000000               0.000000000               0.000082081               0.001250611               0.000016625              -0.000125546               0.000458715               0.000333169               0.000000000               0.000000000               0.000000000               0.000000000               0.000041346               0.001262426               0.000007132              -0.000142298               0.000468237               0.000325939               0.000000000               0.000000000               0.000000000               0.000000000               0.000022415               0.001273280               0.000004875              -0.000150754               0.000474674               0.000323920               0.000000000               0.000000000               0.000000000               0.000000000               0.000335778               0.001623663               0.000506151              -0.000077042               0.000566896               0.000489855               0.000000000               0.000000000               0.000000000               0.000000000               0.000276870               0.001426445               0.000349802              -0.000074479               0.000500303               0.000425824               0.000000000               0.000000000               0.000000000               0.000000000               0.000278237               0.001307372               0.000191874              -0.000059083               0.000455481               0.000396398               0.000000000               0.000000000               0.000000000               0.000000000               0.000273428               0.001240648               0.000125473              -0.000052546               0.000431061               0.000378515               0.000000000               0.000000000               0.000000000               0.000000000               0.000265180               0.001206120               0.000095352              -0.000051323               0.000419144               0.000367821               0.000000000               0.000000000               0.000000000               0.000000000               0.000250771               0.001194015               0.000078535              -0.000055213               0.000416405               0.000361192               0.000000000               0.000000000               0.000000000               0.000000000               0.000230722               0.001199816               0.000063716              -0.000063456               0.000421087               0.000357631               0.000000000               0.000000000               0.000000000               0.000000000               0.000208443               0.001214527               0.000052066              -0.000073649               0.000429388               0.000355739               0.000000000               0.000000000               0.000000000               0.000000000               0.000190184               0.001226064               0.000048046              -0.000081939               0.000435997               0.000354058               0.000000000               0.000000000               0.000000000               0.000000000               0.000175318               0.001231881               0.000052861              -0.000088241               0.000440036               0.000351796               0.000000000               0.000000000               0.000000000               0.000000000               0.000160334               0.001238971               0.000054961              -0.000094746               0.000444568               0.000349822               0.000000000               0.000000000               0.000000000               0.000000000               0.000143110               0.001253420               0.000044303              -0.000103011               0.000452140               0.000349129               0.000000000               0.000000000               0.000000000               0.000000000               0.000119797               0.001267233               0.000033034              -0.000113480               0.000460234               0.000346753               0.000000000               0.000000000               0.000000000               0.000000000               0.000095575               0.001282581               0.000025577              -0.000124481               0.000469016               0.000344535               0.000000000               0.000000000               0.000000000               0.000000000               0.000068146               0.001300095               0.000017207              -0.000136957               0.000479013               0.000342056               0.000000000               0.000000000               0.000000000               0.000000000               0.000033930               0.001317180               0.000007964              -0.000151924               0.000489697               0.000337773               0.000000000               0.000000000               0.000000000               0.000000000               0.000020277               0.001333183               0.000005828              -0.000159043               0.000497404               0.000338361               0.000000000               0.000000000               0.000000000               0.000000000               0.000384954               0.001430471               0.000551663              -0.000034452               0.000488303               0.000453851               0.000000000               0.000000000               0.000000000               0.000000000               0.000296171               0.001294831               0.000387178              -0.000050790               0.000448536               0.000397746               0.000000000               0.000000000               0.000000000               0.000000000               0.000264854               0.001240234               0.000221136              -0.000055709               0.000431977               0.000376268               0.000000000               0.000000000               0.000000000               0.000000000               0.000250681               0.001206474               0.000151273              -0.000056804               0.000421089               0.000364285               0.000000000               0.000000000               0.000000000               0.000000000               0.000239560               0.001193630               0.000117789              -0.000059369               0.000417662               0.000358294               0.000000000               0.000000000               0.000000000               0.000000000               0.000221605               0.001198483               0.000096156              -0.000066708               0.000421726               0.000355018               0.000000000               0.000000000               0.000000000               0.000000000               0.000198663               0.001219394               0.000077622              -0.000077925               0.000432436               0.000354510               0.000000000               0.000000000               0.000000000               0.000000000               0.000176369               0.001241318               0.000064196              -0.000089026               0.000443444               0.000354418               0.000000000               0.000000000               0.000000000               0.000000000               0.000159805               0.001256782               0.000060619              -0.000097171               0.000451314               0.000354143               0.000000000               0.000000000               0.000000000               0.000000000               0.000146360               0.001269023               0.000063361              -0.000103743               0.000457584               0.000353842               0.000000000               0.000000000               0.000000000               0.000000000               0.000134578               0.001289397               0.000059440              -0.000110708               0.000466697               0.000355990               0.000000000               0.000000000               0.000000000               0.000000000               0.000120144               0.001317767               0.000046299              -0.000119667               0.000479140               0.000359474               0.000000000               0.000000000               0.000000000               0.000000000               0.000098745               0.001346684               0.000035730              -0.000131306               0.000492659               0.000361353               0.000000000               0.000000000               0.000000000               0.000000000               0.000073839               0.001375892               0.000027248              -0.000144297               0.000506725               0.000362429               0.000000000               0.000000000               0.000000000               0.000000000               0.000048593               0.001407709               0.000018585              -0.000157741               0.000521812               0.000364071               0.000000000               0.000000000               0.000000000               0.000000000               0.000024453               0.001440171               0.000009854              -0.000170851               0.000537002               0.000366151               0.000000000               0.000000000               0.000000000               0.000000000               0.000018051               0.001464266               0.000008019              -0.000176264               0.000546838               0.000370574               0.000000000               0.000000000               0.000000000               0.000000000               0.000420370               0.001229589               0.000563321               0.000003939               0.000408546               0.000412485               0.000000000               0.000000000               0.000000000               0.000000000               0.000307421               0.001162950               0.000404286              -0.000030086               0.000397675               0.000367588               0.000000000               0.000000000               0.000000000               0.000000000               0.000251077               0.001175150               0.000243280              -0.000052740               0.000409293               0.000356553               0.000000000               0.000000000               0.000000000               0.000000000               0.000232787               0.001173965               0.000173576              -0.000059451               0.000411135               0.000351684               0.000000000               0.000000000               0.000000000               0.000000000               0.000220280               0.001181616               0.000136451              -0.000065097               0.000415567               0.000350470               0.000000000               0.000000000               0.000000000               0.000000000               0.000201025               0.001204017               0.000110314              -0.000075118               0.000426374               0.000351256               0.000000000               0.000000000               0.000000000               0.000000000               0.000178339               0.001237117               0.000089403              -0.000087762               0.000441622               0.000353860               0.000000000               0.000000000               0.000000000               0.000000000               0.000159379               0.001264616               0.000075804              -0.000098310               0.000454304               0.000355995               0.000000000               0.000000000               0.000000000               0.000000000               0.000148152               0.001288448               0.000069937              -0.000105499               0.000464645               0.000359146               0.000000000               0.000000000               0.000000000               0.000000000               0.000139639               0.001318865               0.000067455              -0.000112493               0.000477115               0.000364622               0.000000000               0.000000000               0.000000000               0.000000000               0.000128040               0.001363105               0.000057910              -0.000122373               0.000495155               0.000372782               0.000000000               0.000000000               0.000000000               0.000000000               0.000111947               0.001416557               0.000041733              -0.000135089               0.000517211               0.000382122               0.000000000               0.000000000               0.000000000               0.000000000               0.000090373               0.001469794               0.000031817              -0.000149834               0.000539871               0.000390037               0.000000000               0.000000000               0.000000000               0.000000000               0.000064960               0.001520014               0.000024578              -0.000165642               0.000561880               0.000396239               0.000000000               0.000000000               0.000000000               0.000000000               0.000038657               0.001568256               0.000015803              -0.000181535               0.000583258               0.000401723               0.000000000               0.000000000               0.000000000               0.000000000               0.000016699               0.001616419               0.000008818              -0.000195790               0.000604064               0.000408275               0.000000000               0.000000000               0.000000000               0.000000000               0.000013457               0.001650421               0.000009306              -0.000201256               0.000617220               0.000415964               0.000000000               0.000000000               0.000000000               0.000000000               0.000442893               0.001034276               0.000542911               0.000036799               0.000332489               0.000369288               0.000000000               0.000000000               0.000000000               0.000000000               0.000312748               0.001038924               0.000404216              -0.000012585               0.000350500               0.000337914               0.000000000               0.000000000               0.000000000               0.000000000               0.000239278               0.001115185               0.000259514              -0.000049669               0.000388281               0.000338612               0.000000000               0.000000000               0.000000000               0.000000000               0.000220494               0.001144152               0.000190135              -0.000060334               0.000401492               0.000341158               0.000000000               0.000000000               0.000000000               0.000000000               0.000206537               0.001174298               0.000149938              -0.000069336               0.000414541               0.000345205               0.000000000               0.000000000               0.000000000               0.000000000               0.000185883               0.001215799               0.000121328              -0.000082268               0.000432685               0.000350416               0.000000000               0.000000000               0.000000000               0.000000000               0.000165501               0.001259070               0.000098634              -0.000095321               0.000451459               0.000356139               0.000000000               0.000000000               0.000000000               0.000000000               0.000153657               0.001297987               0.000082767              -0.000104627               0.000467534               0.000362907               0.000000000               0.000000000               0.000000000               0.000000000               0.000151591               0.001343041               0.000071702              -0.000111033               0.000484687               0.000373654               0.000000000               0.000000000               0.000000000               0.000000000               0.000148930               0.001403717               0.000060971              -0.000119616               0.000507773               0.000388157               0.000000000               0.000000000               0.000000000               0.000000000               0.000136950               0.001478170               0.000046045              -0.000133414               0.000537190               0.000403775               0.000000000               0.000000000               0.000000000               0.000000000               0.000118647               0.001553574               0.000030643              -0.000149704               0.000567754               0.000418050               0.000000000               0.000000000               0.000000000               0.000000000               0.000095389               0.001624220               0.000023510              -0.000167256               0.000597153               0.000429897               0.000000000               0.000000000               0.000000000               0.000000000               0.000067645               0.001690195               0.000019157              -0.000185907               0.000625362               0.000439455               0.000000000               0.000000000               0.000000000               0.000000000               0.000040699               0.001753142               0.000011980              -0.000203880               0.000652335               0.000448455               0.000000000               0.000000000               0.000000000               0.000000000               0.000019008               0.001813533               0.000005487              -0.000219563               0.000677692               0.000458130               0.000000000               0.000000000               0.000000000               0.000000000               0.000014908               0.001853212               0.000006441              -0.000226060               0.000693084               0.000467024               0.000000000               0.000000000               0.000000000               0.000000000               0.000453333               0.000861179               0.000501057               0.000062351               0.000266273               0.000328624               0.000000000               0.000000000               0.000000000               0.000000000               0.000319943               0.000929038               0.000395366               0.000003848               0.000308393               0.000312242               0.000000000               0.000000000               0.000000000               0.000000000               0.000235397               0.001059782               0.000274663              -0.000044199               0.000367990               0.000323791               0.000000000               0.000000000               0.000000000               0.000000000               0.000216091               0.001118244               0.000205670              -0.000058746               0.000392326               0.000333580               0.000000000               0.000000000               0.000000000               0.000000000               0.000200479               0.001170297               0.000162167              -0.000071107               0.000413798               0.000342690               0.000000000               0.000000000               0.000000000               0.000000000               0.000179120               0.001228309               0.000132393              -0.000086369               0.000438222               0.000351853               0.000000000               0.000000000               0.000000000               0.000000000               0.000163317               0.001284920               0.000108216              -0.000099371               0.000461426               0.000362055               0.000000000               0.000000000               0.000000000               0.000000000               0.000158754               0.001341825               0.000086957              -0.000108195               0.000483336               0.000375140               0.000000000               0.000000000               0.000000000               0.000000000               0.000164370               0.001411925               0.000067413              -0.000114851               0.000508921               0.000394069               0.000000000               0.000000000               0.000000000               0.000000000               0.000169041               0.001498520               0.000049571              -0.000123924               0.000540810               0.000416885               0.000000000               0.000000000               0.000000000               0.000000000               0.000156726               0.001588687               0.000035473              -0.000139813               0.000576161               0.000436348               0.000000000               0.000000000               0.000000000               0.000000000               0.000135647               0.001675724               0.000024828              -0.000158598               0.000611435               0.000452837               0.000000000               0.000000000               0.000000000               0.000000000               0.000115145               0.001755051               0.000018003              -0.000176201               0.000643745               0.000467543               0.000000000               0.000000000               0.000000000               0.000000000               0.000090643               0.001829082               0.000012619              -0.000194643               0.000674569               0.000479926               0.000000000               0.000000000               0.000000000               0.000000000               0.000066233               0.001901565               0.000005467              -0.000212858               0.000704801               0.000491944               0.000000000               0.000000000               0.000000000               0.000000000               0.000047850               0.001968066               0.000000346              -0.000228064               0.000732037               0.000503973               0.000000000               0.000000000               0.000000000               0.000000000               0.000038621               0.002002086              -0.000000505              -0.000235777               0.000745948               0.000510170               0.000000000               0.000000000               0.000000000               0.000000000               0.000447915               0.000688743               0.000447308               0.000081874               0.000202287               0.000284161               0.000000000               0.000000000               0.000000000               0.000000000               0.000328257               0.000797877               0.000382686               0.000023361               0.000258169               0.000281530               0.000000000               0.000000000               0.000000000               0.000000000               0.000240664               0.000970017               0.000294385              -0.000031003               0.000333670               0.000302667               0.000000000               0.000000000               0.000000000               0.000000000               0.000220025               0.001059394               0.000227680              -0.000049915               0.000369766               0.000319851               0.000000000               0.000000000               0.000000000               0.000000000               0.000206029               0.001129556               0.000182162              -0.000063934               0.000397826               0.000333892               0.000000000               0.000000000               0.000000000               0.000000000               0.000188240               0.001199993               0.000151969              -0.000079409               0.000426463               0.000347054               0.000000000               0.000000000               0.000000000               0.000000000               0.000173100               0.001273114               0.000126256              -0.000094226               0.000455776               0.000361550               0.000000000               0.000000000               0.000000000               0.000000000               0.000169133               0.001349054               0.000101140              -0.000105207               0.000484749               0.000379542               0.000000000               0.000000000               0.000000000               0.000000000               0.000177704               0.001432746               0.000079395              -0.000112454               0.000515062               0.000402608               0.000000000               0.000000000               0.000000000               0.000000000               0.000190601               0.001525150               0.000059720              -0.000119168               0.000548101               0.000428933               0.000000000               0.000000000               0.000000000               0.000000000               0.000193417               0.001623040               0.000044364              -0.000130348               0.000584458               0.000454109               0.000000000               0.000000000               0.000000000               0.000000000               0.000181268               0.001716956               0.000034316              -0.000146644               0.000621194               0.000474550               0.000000000               0.000000000               0.000000000               0.000000000               0.000163294               0.001801082               0.000024959              -0.000163900               0.000654988               0.000491088               0.000000000               0.000000000               0.000000000               0.000000000               0.000141249               0.001876951               0.000013944              -0.000181650               0.000686194               0.000504544               0.000000000               0.000000000               0.000000000               0.000000000               0.000116304               0.001949276               0.000006597              -0.000200045               0.000716434               0.000516389               0.000000000               0.000000000               0.000000000               0.000000000               0.000097539               0.002022716               0.000003252              -0.000216262               0.000746319               0.000530058               0.000000000               0.000000000               0.000000000               0.000000000               0.000083573               0.002054014              -0.000001189              -0.000225411               0.000759802               0.000534390               0.000000000               0.000000000               0.000000000               0.000000000               0.000422283               0.000525904               0.000381080               0.000092617               0.000144427               0.000237044               0.000000000               0.000000000               0.000000000               0.000000000               0.000334647               0.000664101               0.000358133               0.000042479               0.000207205               0.000249684               0.000000000               0.000000000               0.000000000               0.000000000               0.000257003               0.000866763               0.000307145              -0.000011970               0.000292908               0.000280938               0.000000000               0.000000000               0.000000000               0.000000000               0.000233893               0.000983083               0.000247836              -0.000035176               0.000339416               0.000304241               0.000000000               0.000000000               0.000000000               0.000000000               0.000221879               0.001071513               0.000202977              -0.000050735               0.000374079               0.000323344               0.000000000               0.000000000               0.000000000               0.000000000               0.000208184               0.001156373               0.000172130              -0.000066477               0.000407613               0.000341135               0.000000000               0.000000000               0.000000000               0.000000000               0.000194793               0.001241443               0.000145872              -0.000082133               0.000441188               0.000359055               0.000000000               0.000000000               0.000000000               0.000000000               0.000190969               0.001328918               0.000121618              -0.000094501               0.000474469               0.000379967               0.000000000               0.000000000               0.000000000               0.000000000               0.000203011               0.001425307               0.000100798              -0.000102034               0.000509109               0.000407075               0.000000000               0.000000000               0.000000000               0.000000000               0.000221636               0.001527658               0.000078505              -0.000107843               0.000545162               0.000437318               0.000000000               0.000000000               0.000000000               0.000000000               0.000234052               0.001627724               0.000058289              -0.000115696               0.000581134               0.000465439               0.000000000               0.000000000               0.000000000               0.000000000               0.000231984               0.001718723               0.000045316              -0.000127846               0.000615517               0.000487671               0.000000000               0.000000000               0.000000000               0.000000000               0.000219742               0.001804828               0.000034076              -0.000143200               0.000649337               0.000506137               0.000000000               0.000000000               0.000000000               0.000000000               0.000203004               0.001882759               0.000019574              -0.000159218               0.000680653               0.000521435               0.000000000               0.000000000               0.000000000               0.000000000               0.000183044               0.001955136               0.000009638              -0.000175750               0.000710289               0.000534539               0.000000000               0.000000000               0.000000000               0.000000000               0.000159171               0.002024756               0.000004877              -0.000193405               0.000739380               0.000545975               0.000000000               0.000000000               0.000000000               0.000000000               0.000138177               0.002051261              -0.000000714              -0.000204591               0.000751944               0.000547353               0.000000000               0.000000000               0.000000000               0.000000000               0.000373845               0.000383161               0.000307326               0.000092296               0.000096954               0.000189249               0.000000000               0.000000000               0.000000000               0.000000000               0.000329875               0.000535811               0.000318565               0.000056726               0.000159693               0.000216419               0.000000000               0.000000000               0.000000000               0.000000000               0.000276420               0.000751130               0.000300818               0.000009766               0.000247119               0.000256885               0.000000000               0.000000000               0.000000000               0.000000000               0.000255450               0.000889173               0.000254631              -0.000015353               0.000301506               0.000286153               0.000000000               0.000000000               0.000000000               0.000000000               0.000245153               0.000998265               0.000214279              -0.000032851               0.000343702               0.000310851               0.000000000               0.000000000               0.000000000               0.000000000               0.000236490               0.001098055               0.000185156              -0.000048573               0.000382206               0.000333633               0.000000000               0.000000000               0.000000000               0.000000000               0.000227215               0.001192353               0.000161003              -0.000063839               0.000418727               0.000354888               0.000000000               0.000000000               0.000000000               0.000000000               0.000226490               0.001296681               0.000140466              -0.000077151               0.000457940               0.000380789               0.000000000               0.000000000               0.000000000               0.000000000               0.000235025               0.001410971               0.000120518              -0.000088237               0.000499731               0.000411494               0.000000000               0.000000000               0.000000000               0.000000000               0.000251118               0.001521707               0.000097306              -0.000096044               0.000539245               0.000443201               0.000000000               0.000000000               0.000000000               0.000000000               0.000267355               0.001621693               0.000074733              -0.000102453               0.000574710               0.000472257               0.000000000               0.000000000               0.000000000               0.000000000               0.000275306               0.001713260               0.000056707              -0.000110917               0.000608053               0.000497136               0.000000000               0.000000000               0.000000000               0.000000000               0.000271380               0.001798766               0.000042098              -0.000123078               0.000640609               0.000517531               0.000000000               0.000000000               0.000000000               0.000000000               0.000262374               0.001878695               0.000028337              -0.000136446               0.000671708               0.000535261               0.000000000               0.000000000               0.000000000               0.000000000               0.000250013               0.001953933               0.000015236              -0.000150486               0.000701467               0.000550980               0.000000000               0.000000000               0.000000000               0.000000000               0.000228650               0.002024303               0.000005222              -0.000167294               0.000730525               0.000563232               0.000000000               0.000000000               0.000000000               0.000000000               0.000205909               0.002052316              -0.000001784              -0.000179323               0.000743873               0.000564550               0.000000000               0.000000000               0.000000000               0.000000000               0.000311045               0.000265280               0.000231280               0.000083481               0.000060599               0.000144080               0.000000000               0.000000000               0.000000000               0.000000000               0.000314152               0.000417249               0.000266474               0.000065650               0.000117198               0.000182848               0.000000000               0.000000000               0.000000000               0.000000000               0.000293336               0.000631072               0.000274243               0.000031116               0.000199983               0.000231099               0.000000000               0.000000000               0.000000000               0.000000000               0.000282978               0.000787148               0.000242730               0.000007723               0.000259806               0.000267529               0.000000000               0.000000000               0.000000000               0.000000000               0.000276314               0.000914683               0.000211233              -0.000010718               0.000308464               0.000297746               0.000000000               0.000000000               0.000000000               0.000000000               0.000271640               0.001026657               0.000186672              -0.000026467               0.000351038               0.000324571               0.000000000               0.000000000               0.000000000               0.000000000               0.000266514               0.001135656               0.000165948              -0.000042014               0.000392553               0.000350539               0.000000000               0.000000000               0.000000000               0.000000000               0.000267566               0.001259700               0.000148377              -0.000057125               0.000438937               0.000381812               0.000000000               0.000000000               0.000000000               0.000000000               0.000273164               0.001385966               0.000130925              -0.000070809               0.000485587               0.000414778               0.000000000               0.000000000               0.000000000               0.000000000               0.000285055               0.001501529               0.000110553              -0.000080795               0.000527437               0.000446641               0.000000000               0.000000000               0.000000000               0.000000000               0.000299099               0.001601500               0.000087906              -0.000088025               0.000563170               0.000475145               0.000000000               0.000000000               0.000000000               0.000000000               0.000309612               0.001689781               0.000066320              -0.000095118               0.000594961               0.000499843               0.000000000               0.000000000               0.000000000               0.000000000               0.000315053               0.001777002               0.000048757              -0.000103980               0.000626988               0.000523008               0.000000000               0.000000000               0.000000000               0.000000000               0.000316794               0.001866422               0.000035078              -0.000114505               0.000660303               0.000545798               0.000000000               0.000000000               0.000000000               0.000000000               0.000313205               0.001948317               0.000019918              -0.000126088               0.000691462               0.000565374               0.000000000               0.000000000               0.000000000               0.000000000               0.000304036               0.002022434               0.000007014              -0.000138790               0.000720401               0.000581611               0.000000000               0.000000000               0.000000000               0.000000000               0.000289216               0.002053615              -0.000000474              -0.000148246               0.000733947               0.000585701               0.000000000               0.000000000               0.000000000               0.000000000               0.000243028               0.000177713               0.000157929               0.000068920               0.000036264               0.000105184               0.000000000               0.000000000               0.000000000               0.000000000               0.000290527               0.000316559               0.000203241               0.000069377               0.000082393               0.000151770               0.000000000               0.000000000               0.000000000               0.000000000               0.000307102               0.000518954               0.000227362               0.000050293               0.000156219               0.000206512               0.000000000               0.000000000               0.000000000               0.000000000               0.000311604               0.000686296               0.000209847               0.000031064               0.000218408               0.000249473               0.000000000               0.000000000               0.000000000               0.000000000               0.000312277               0.000828730               0.000188222               0.000013512               0.000271736               0.000285249               0.000000000               0.000000000               0.000000000               0.000000000               0.000309728               0.000953197               0.000169947              -0.000003002               0.000318730               0.000315728               0.000000000               0.000000000               0.000000000               0.000000000               0.000308845               0.001080509               0.000153648              -0.000019247               0.000366582               0.000347335               0.000000000               0.000000000               0.000000000               0.000000000               0.000311816               0.001216990               0.000139878              -0.000035193               0.000417390               0.000382197               0.000000000               0.000000000               0.000000000               0.000000000               0.000317291               0.001344380               0.000126713              -0.000049063               0.000464476               0.000415413               0.000000000               0.000000000               0.000000000               0.000000000               0.000323085               0.001459669               0.000109585              -0.000061302               0.000506985               0.000445684               0.000000000               0.000000000               0.000000000               0.000000000               0.000331147               0.001562613               0.000088387              -0.000071146               0.000544581               0.000473435               0.000000000               0.000000000               0.000000000               0.000000000               0.000340569               0.001655351               0.000067440              -0.000079205               0.000578180               0.000498975               0.000000000               0.000000000               0.000000000               0.000000000               0.000353262               0.001751719               0.000050955              -0.000086492               0.000612731               0.000526239               0.000000000               0.000000000               0.000000000               0.000000000               0.000364976               0.001849864               0.000037705              -0.000094367               0.000648071               0.000553704               0.000000000               0.000000000               0.000000000               0.000000000               0.000371963               0.001939022               0.000024118              -0.000102891               0.000680631               0.000577740               0.000000000               0.000000000               0.000000000               0.000000000               0.000376680               0.002020190               0.000011591              -0.000111269               0.000710480               0.000599211               0.000000000               0.000000000               0.000000000               0.000000000               0.000372152               0.002055223               0.000003941              -0.000117346               0.000724183               0.000606837               0.000000000               0.000000000               0.000000000               0.000000000               0.000176423               0.000117972               0.000095376               0.000051412               0.000022186               0.000073598               0.000000000               0.000000000               0.000000000               0.000000000               0.000263518               0.000240325               0.000135584               0.000068778               0.000057181               0.000125959               0.000000000               0.000000000               0.000000000               0.000000000               0.000316683               0.000428016               0.000162449               0.000065253               0.000120919               0.000186173               0.000000000               0.000000000               0.000000000               0.000000000               0.000336176               0.000599929               0.000155363               0.000051074               0.000182950               0.000234024               0.000000000               0.000000000               0.000000000               0.000000000               0.000344821               0.000751967               0.000142747               0.000035312               0.000238883               0.000274194               0.000000000               0.000000000               0.000000000               0.000000000               0.000346867               0.000890865               0.000130719               0.000018717               0.000290713               0.000309430               0.000000000               0.000000000               0.000000000               0.000000000               0.000349924               0.001030562               0.000120437               0.000002401               0.000342717               0.000345118               0.000000000               0.000000000               0.000000000               0.000000000               0.000355813               0.001167434               0.000111997              -0.000012499               0.000393307               0.000380808               0.000000000               0.000000000               0.000000000               0.000000000               0.000356798               0.001293584               0.000101498              -0.000027899               0.000440490               0.000412591               0.000000000               0.000000000               0.000000000               0.000000000               0.000356851               0.001410402               0.000087865              -0.000042481               0.000484290               0.000441809               0.000000000               0.000000000               0.000000000               0.000000000               0.000360501               0.001518653               0.000072240              -0.000054643               0.000524427               0.000469784               0.000000000               0.000000000               0.000000000               0.000000000               0.000371897               0.001625915               0.000057591              -0.000063778               0.000563226               0.000499448               0.000000000               0.000000000               0.000000000               0.000000000               0.000389398               0.001734418               0.000045872              -0.000070778               0.000601726               0.000530948               0.000000000               0.000000000               0.000000000               0.000000000               0.000405128               0.001832763               0.000034452              -0.000077172               0.000636639               0.000559467               0.000000000               0.000000000               0.000000000               0.000000000               0.000418727               0.001921413               0.000023153              -0.000083154               0.000668182               0.000585029               0.000000000               0.000000000               0.000000000               0.000000000               0.000432829               0.002007934               0.000012169              -0.000088681               0.000698865               0.000610184               0.000000000               0.000000000               0.000000000               0.000000000               0.000436553               0.002048096               0.000005497              -0.000092304               0.000713460               0.000621156               0.000000000               0.000000000               0.000000000               0.000000000               0.000127580               0.000081223               0.000044095               0.000037689               0.000014511               0.000052200               0.000000000               0.000000000               0.000000000               0.000000000               0.000243081               0.000192976               0.000067770               0.000067033               0.000041980               0.000109013               0.000000000               0.000000000               0.000000000               0.000000000               0.000321362               0.000369088               0.000084797               0.000074374               0.000098237               0.000172611               0.000000000               0.000000000               0.000000000               0.000000000               0.000353182               0.000540967               0.000082700               0.000064822               0.000158713               0.000223535               0.000000000               0.000000000               0.000000000               0.000000000               0.000368459               0.000699090               0.000077131               0.000050785               0.000216099               0.000266884               0.000000000               0.000000000               0.000000000               0.000000000               0.000375643               0.000847427               0.000071245               0.000034937               0.000270827               0.000305764               0.000000000               0.000000000               0.000000000               0.000000000               0.000381361               0.000992775               0.000067280               0.000018913               0.000324617               0.000343531               0.000000000               0.000000000               0.000000000               0.000000000               0.000384100               0.001128579               0.000063063               0.000002965               0.000375201               0.000378166               0.000000000               0.000000000               0.000000000               0.000000000               0.000381971               0.001251880               0.000056171              -0.000013246               0.000421704               0.000408459               0.000000000               0.000000000               0.000000000               0.000000000               0.000381667               0.001370669               0.000048501              -0.000028208               0.000466288               0.000438079               0.000000000               0.000000000               0.000000000               0.000000000               0.000387136               0.001490243               0.000041499              -0.000041104               0.000510444               0.000469340               0.000000000               0.000000000               0.000000000               0.000000000               0.000399346               0.001609547               0.000035620              -0.000051439               0.000553656               0.000502218               0.000000000               0.000000000               0.000000000               0.000000000               0.000414206               0.001718770               0.000028371              -0.000059519               0.000592757               0.000533238               0.000000000               0.000000000               0.000000000               0.000000000               0.000429143               0.001813243               0.000020265              -0.000065727               0.000626317               0.000560591               0.000000000               0.000000000               0.000000000               0.000000000               0.000447863               0.001905444               0.000014047              -0.000070232               0.000658552               0.000588321               0.000000000               0.000000000               0.000000000               0.000000000               0.000470629               0.001999307               0.000007933              -0.000073427               0.000690905               0.000617477               0.000000000               0.000000000               0.000000000               0.000000000               0.000481602               0.002043977               0.000004002              -0.000074896               0.000706284               0.000631388               0.000000000               0.000000000               0.000000000               0.000000000               0.000000000               0.000000000               0.000000000               0.000000000               0.000000000               0.000000000               0.000000000               0.000000000               0.000000000               0.000000000               0.000000000               0.000000000               0.000000000               0.000000000               0.000000000               0.000000000               0.000000000               0.000000000               0.000000000               0.000000000               0.000000000               0.000000000               0.000000000               0.000000000               0.000000000               0.000000000               0.000000000               0.000000000               0.000000000               0.000000000               0.000000000               0.000000000               0.000000000               0.000000000               0.000000000               0.000000000               0.000000000               0.000000000               0.000000000               0.000000000               0.000000000               0.000000000               0.000000000               0.000000000               0.000000000               0.000000000               0.000000000               0.000000000               0.000000000               0.000000000               0.000000000               0.000000000               0.000000000               0.000000000               0.000000000               0.000000000               0.000000000               0.000000000               0.000000000               0.000000000               0.000000000               0.000000000               0.000000000               0.000000000               0.000000000               0.000000000               0.000000000               0.000000000               0.000000000               0.000000000               0.000000000               0.000000000               0.000000000               0.000000000               0.000000000               0.000000000               0.000000000               0.000000000               0.000000000               0.000000000               0.000000000               0.000000000               0.000000000               0.000000000               0.000000000               0.000000000               0.000000000               0.000000000               0.000000000               0.000000000               0.000000000               0.000000000               0.000000000               0.000000000               0.000000000               0.000000000               0.000000000               0.000000000               0.000000000               0.000000000               0.000000000               0.000000000               0.000000000               0.000000000               0.000000000               0.000000000               0.000000000               0.000000000               0.000000000               0.000000000               0.000000000               0.000000000               0.000000000               0.000000000               0.000000000               0.000000000               0.000000000               0.000000000               0.000000000               0.000000000               0.000000000               0.000000000               0.000000000               0.000000000               0.000000000               0.000000000               0.000000000               0.000000000               0.000000000               0.000000000               0.000000000               0.000000000               0.000000000               0.000000000               0.000000000               0.000000000               0.000000000               0.000000000               0.000000000               0.000000000               0.000000000               0.000000000               0.000000000               0.000000000               0.000000000               0.000000000               0.000000000               0.000000000               0.000000000               0.000000000               0.000000000               0.000000000               0.000000000               0.000000000               0.000000000               0.000000000               0.000000000               0.000000000               0.000000000               0.000000000               0.000000000               0.000000000               0.000000000               0.000000000               0.000000000               0.000000000               0.000000000               0.000000000               0.000000000               0.000000000 </DataArray>
</PointData>
</Piece>
</UnstructuredGrid> </VTKFile>
