<?xml version="1.0"?>
<VTKFile type="UnstructuredGrid" version="0.1">
<UnstructuredGrid>
<Piece NumberOfPoints="      1156" NumberOfCells="      1024">
<Points>
<DataArray type="Float64"                                    Name="coordinates"                                                      NumberOfComponents=" 3" format="ascii">
              0.133000000               0.000000000               0.000000000               0.155937500               0.000000000               0.000000000               0.178875000               0.000000000               0.000000000               0.201812500               0.000000000               0.000000000               0.224750000               0.000000000               0.000000000               0.247687500               0.000000000               0.000000000               0.270625000               0.000000000               0.000000000               0.293562500               0.000000000               0.000000000               0.316500000               0.000000000               0.000000000               0.339437500               0.000000000               0.000000000               0.362375000               0.000000000               0.000000000               0.385312500               0.000000000               0.000000000               0.408250000               0.000000000               0.000000000               0.431187500               0.000000000               0.000000000               0.454125000               0.000000000               0.000000000               0.477062500               0.000000000               0.000000000               0.500000000               0.000000000               0.000000000               0.132359569               0.013036280               0.000000000               0.155337096               0.016127762               0.000000000               0.178314623               0.019219245               0.000000000               0.201292150               0.022310727               0.000000000               0.224269676               0.025402210               0.000000000               0.247247203               0.028493692               0.000000000               0.270224730               0.031585175               0.000000000               0.293202257               0.034676657               0.000000000               0.316179784               0.037768140               0.000000000               0.339157311               0.040859622               0.000000000               0.362134838               0.043951105               0.000000000               0.385112365               0.047042587               0.000000000               0.408089892               0.050134070               0.000000000               0.431067419               0.053225552               0.000000000               0.454044946               0.056317035               0.000000000               0.477022473               0.059408517               0.000000000               0.500000000               0.062500000               0.000000000               0.130444442               0.025947013               0.000000000               0.153541665               0.032137825               0.000000000               0.176638887               0.038328636               0.000000000               0.199736109               0.044519448               0.000000000               0.222833332               0.050710260               0.000000000               0.245930554               0.056901071               0.000000000               0.269027776               0.063091883               0.000000000               0.292124999               0.069282695               0.000000000               0.315222221               0.075473506               0.000000000               0.338319444               0.081664318               0.000000000               0.361416666               0.087855130               0.000000000               0.384513888               0.094045942               0.000000000               0.407611111               0.100236753               0.000000000               0.430708333               0.106427565               0.000000000               0.453805555               0.112618377               0.000000000               0.476902778               0.118809188               0.000000000               0.500000000               0.125000000               0.000000000               0.127273065               0.038607862               0.000000000               0.150568498               0.047913621               0.000000000               0.173863932               0.057219379               0.000000000               0.197159365               0.066525138               0.000000000               0.220454798               0.075830897               0.000000000               0.243750232               0.085136655               0.000000000               0.267045665               0.094442414               0.000000000               0.290341099               0.103748172               0.000000000               0.313636532               0.113053931               0.000000000               0.336931966               0.122359690               0.000000000               0.360227399               0.131665448               0.000000000               0.383522833               0.140971207               0.000000000               0.406818266               0.150276966               0.000000000               0.430113700               0.159582724               0.000000000               0.453409133               0.168888483               0.000000000               0.476704567               0.178194241               0.000000000               0.500000000               0.187500000               0.000000000               0.122875978               0.050896897               0.000000000               0.146446229               0.063340840               0.000000000               0.170016481               0.075784784               0.000000000               0.193586732               0.088228728               0.000000000               0.217156983               0.100672672               0.000000000               0.240727235               0.113116616               0.000000000               0.264297486               0.125560560               0.000000000               0.287867738               0.138004504               0.000000000               0.311437989               0.150448448               0.000000000               0.335008240               0.162892392               0.000000000               0.358578492               0.175336336               0.000000000               0.382148743               0.187780280               0.000000000               0.405718994               0.200224224               0.000000000               0.429289246               0.212668168               0.000000000               0.452859497               0.225112112               0.000000000               0.476429749               0.237556056               0.000000000               0.500000000               0.250000000               0.000000000               0.117295528               0.062695766               0.000000000               0.141214558               0.078308531               0.000000000               0.165133587               0.093921295               0.000000000               0.189052617               0.109534060               0.000000000               0.212971646               0.125146824               0.000000000               0.236890676               0.140759589               0.000000000               0.260809705               0.156372354               0.000000000               0.284728735               0.171985118               0.000000000               0.308647764               0.187597883               0.000000000               0.332566794               0.203210648               0.000000000               0.356485823               0.218823412               0.000000000               0.380404853               0.234436177               0.000000000               0.404323882               0.250048941               0.000000000               0.428242912               0.265661706               0.000000000               0.452161941               0.281274471               0.000000000               0.476080971               0.296887235               0.000000000               0.500000000               0.312500000               0.000000000               0.110585458               0.073890841               0.000000000               0.134923867               0.092710163               0.000000000               0.159262276               0.111529486               0.000000000               0.183600685               0.130348808               0.000000000               0.207939094               0.149168131               0.000000000               0.232277503               0.167987453               0.000000000               0.256615912               0.186806776               0.000000000               0.280954320               0.205626098               0.000000000               0.305292729               0.224445420               0.000000000               0.329631138               0.243264743               0.000000000               0.353969547               0.262084065               0.000000000               0.378307956               0.280903388               0.000000000               0.402646365               0.299722710               0.000000000               0.426984773               0.318542033               0.000000000               0.451323182               0.337361355               0.000000000               0.475661591               0.356180678               0.000000000               0.500000000               0.375000000               0.000000000               0.102810390               0.084374307               0.000000000               0.127634741               0.106444663               0.000000000               0.152459092               0.128515018               0.000000000               0.177283442               0.150585374               0.000000000               0.202107793               0.172655730               0.000000000               0.226932143               0.194726086               0.000000000               0.251756494               0.216796442               0.000000000               0.276580845               0.238866798               0.000000000               0.301405195               0.260937153               0.000000000               0.326229546               0.283007509               0.000000000               0.351053896               0.305077865               0.000000000               0.375878247               0.327148221               0.000000000               0.400702598               0.349218577               0.000000000               0.425526948               0.371288933               0.000000000               0.450351299               0.393359288               0.000000000               0.475175649               0.415429644               0.000000000               0.500000000               0.437500000               0.000000000               0.094045202               0.094045202               0.000000000               0.119417377               0.119417377               0.000000000               0.144789552               0.144789552               0.000000000               0.170161727               0.170161727               0.000000000               0.195533901               0.195533901               0.000000000               0.220906076               0.220906076               0.000000000               0.246278251               0.246278251               0.000000000               0.271650426               0.271650426               0.000000000               0.297022601               0.297022601               0.000000000               0.322394776               0.322394776               0.000000000               0.347766951               0.347766951               0.000000000               0.373139126               0.373139126               0.000000000               0.398511300               0.398511300               0.000000000               0.423883475               0.423883475               0.000000000               0.449255650               0.449255650               0.000000000               0.474627825               0.474627825               0.000000000               0.500000000               0.500000000               0.000000000               0.084374307               0.102810390               0.000000000               0.106444663               0.127634741               0.000000000               0.128515018               0.152459092               0.000000000               0.150585374               0.177283442               0.000000000               0.172655730               0.202107793               0.000000000               0.194726086               0.226932143               0.000000000               0.216796442               0.251756494               0.000000000               0.238866798               0.276580845               0.000000000               0.260937153               0.301405195               0.000000000               0.283007509               0.326229546               0.000000000               0.305077865               0.351053896               0.000000000               0.327148221               0.375878247               0.000000000               0.349218577               0.400702598               0.000000000               0.371288933               0.425526948               0.000000000               0.393359288               0.450351299               0.000000000               0.415429644               0.475175649               0.000000000               0.437500000               0.500000000               0.000000000               0.073890841               0.110585458               0.000000000               0.092710163               0.134923867               0.000000000               0.111529486               0.159262276               0.000000000               0.130348808               0.183600685               0.000000000               0.149168131               0.207939094               0.000000000               0.167987453               0.232277503               0.000000000               0.186806776               0.256615912               0.000000000               0.205626098               0.280954320               0.000000000               0.224445420               0.305292729               0.000000000               0.243264743               0.329631138               0.000000000               0.262084065               0.353969547               0.000000000               0.280903388               0.378307956               0.000000000               0.299722710               0.402646365               0.000000000               0.318542033               0.426984773               0.000000000               0.337361355               0.451323182               0.000000000               0.356180678               0.475661591               0.000000000               0.375000000               0.500000000               0.000000000               0.062695766               0.117295528               0.000000000               0.078308531               0.141214558               0.000000000               0.093921295               0.165133587               0.000000000               0.109534060               0.189052617               0.000000000               0.125146824               0.212971646               0.000000000               0.140759589               0.236890676               0.000000000               0.156372354               0.260809705               0.000000000               0.171985118               0.284728735               0.000000000               0.187597883               0.308647764               0.000000000               0.203210648               0.332566794               0.000000000               0.218823412               0.356485823               0.000000000               0.234436177               0.380404853               0.000000000               0.250048941               0.404323882               0.000000000               0.265661706               0.428242912               0.000000000               0.281274471               0.452161941               0.000000000               0.296887235               0.476080971               0.000000000               0.312500000               0.500000000               0.000000000               0.050896897               0.122875978               0.000000000               0.063340840               0.146446229               0.000000000               0.075784784               0.170016481               0.000000000               0.088228728               0.193586732               0.000000000               0.100672672               0.217156983               0.000000000               0.113116616               0.240727235               0.000000000               0.125560560               0.264297486               0.000000000               0.138004504               0.287867738               0.000000000               0.150448448               0.311437989               0.000000000               0.162892392               0.335008240               0.000000000               0.175336336               0.358578492               0.000000000               0.187780280               0.382148743               0.000000000               0.200224224               0.405718994               0.000000000               0.212668168               0.429289246               0.000000000               0.225112112               0.452859497               0.000000000               0.237556056               0.476429749               0.000000000               0.250000000               0.500000000               0.000000000               0.038607862               0.127273065               0.000000000               0.047913621               0.150568498               0.000000000               0.057219379               0.173863932               0.000000000               0.066525138               0.197159365               0.000000000               0.075830897               0.220454798               0.000000000               0.085136655               0.243750232               0.000000000               0.094442414               0.267045665               0.000000000               0.103748172               0.290341099               0.000000000               0.113053931               0.313636532               0.000000000               0.122359690               0.336931966               0.000000000               0.131665448               0.360227399               0.000000000               0.140971207               0.383522833               0.000000000               0.150276966               0.406818266               0.000000000               0.159582724               0.430113700               0.000000000               0.168888483               0.453409133               0.000000000               0.178194241               0.476704567               0.000000000               0.187500000               0.500000000               0.000000000               0.025947013               0.130444442               0.000000000               0.032137825               0.153541665               0.000000000               0.038328636               0.176638887               0.000000000               0.044519448               0.199736109               0.000000000               0.050710260               0.222833332               0.000000000               0.056901071               0.245930554               0.000000000               0.063091883               0.269027776               0.000000000               0.069282695               0.292124999               0.000000000               0.075473506               0.315222221               0.000000000               0.081664318               0.338319444               0.000000000               0.087855130               0.361416666               0.000000000               0.094045942               0.384513888               0.000000000               0.100236753               0.407611111               0.000000000               0.106427565               0.430708333               0.000000000               0.112618377               0.453805555               0.000000000               0.118809188               0.476902778               0.000000000               0.125000000               0.500000000               0.000000000               0.013036280               0.132359569               0.000000000               0.016127762               0.155337096               0.000000000               0.019219245               0.178314623               0.000000000               0.022310727               0.201292150               0.000000000               0.025402210               0.224269676               0.000000000               0.028493692               0.247247203               0.000000000               0.031585175               0.270224730               0.000000000               0.034676657               0.293202257               0.000000000               0.037768140               0.316179784               0.000000000               0.040859622               0.339157311               0.000000000               0.043951105               0.362134838               0.000000000               0.047042587               0.385112365               0.000000000               0.050134070               0.408089892               0.000000000               0.053225552               0.431067419               0.000000000               0.056317035               0.454044946               0.000000000               0.059408517               0.477022473               0.000000000               0.062500000               0.500000000               0.000000000               0.000000000               0.133000000               0.000000000               0.000000000               0.155937500               0.000000000               0.000000000               0.178875000               0.000000000               0.000000000               0.201812500               0.000000000               0.000000000               0.224750000               0.000000000               0.000000000               0.247687500               0.000000000               0.000000000               0.270625000               0.000000000               0.000000000               0.293562500               0.000000000               0.000000000               0.316500000               0.000000000               0.000000000               0.339437500               0.000000000               0.000000000               0.362375000               0.000000000               0.000000000               0.385312500               0.000000000               0.000000000               0.408250000               0.000000000               0.000000000               0.431187500               0.000000000               0.000000000               0.454125000               0.000000000               0.000000000               0.477062500               0.000000000               0.000000000               0.500000000               0.000000000               0.133000000               0.000000000               0.000000000               0.155937500               0.000000000               0.000000000               0.178875000               0.000000000               0.000000000               0.201812500               0.000000000               0.000000000               0.224750000               0.000000000               0.000000000               0.247687500               0.000000000               0.000000000               0.270625000               0.000000000               0.000000000               0.293562500               0.000000000               0.000000000               0.316500000               0.000000000               0.000000000               0.339437500               0.000000000               0.000000000               0.362375000               0.000000000               0.000000000               0.385312500               0.000000000               0.000000000               0.408250000               0.000000000               0.000000000               0.431187500               0.000000000               0.000000000               0.454125000               0.000000000               0.000000000               0.477062500               0.000000000               0.000000000               0.500000000               0.000000000               0.000000000               0.132359569              -0.013036280               0.000000000               0.155337096              -0.016127762               0.000000000               0.178314623              -0.019219245               0.000000000               0.201292150              -0.022310727               0.000000000               0.224269676              -0.025402210               0.000000000               0.247247203              -0.028493692               0.000000000               0.270224730              -0.031585175               0.000000000               0.293202257              -0.034676657               0.000000000               0.316179784              -0.037768140               0.000000000               0.339157311              -0.040859622               0.000000000               0.362134838              -0.043951105               0.000000000               0.385112365              -0.047042587               0.000000000               0.408089892              -0.050134070               0.000000000               0.431067419              -0.053225552               0.000000000               0.454044946              -0.056317035               0.000000000               0.477022473              -0.059408517               0.000000000               0.500000000              -0.062500000               0.000000000               0.130444442              -0.025947013               0.000000000               0.153541665              -0.032137825               0.000000000               0.176638887              -0.038328636               0.000000000               0.199736109              -0.044519448               0.000000000               0.222833332              -0.050710260               0.000000000               0.245930554              -0.056901071               0.000000000               0.269027776              -0.063091883               0.000000000               0.292124999              -0.069282695               0.000000000               0.315222221              -0.075473506               0.000000000               0.338319444              -0.081664318               0.000000000               0.361416666              -0.087855130               0.000000000               0.384513888              -0.094045942               0.000000000               0.407611111              -0.100236753               0.000000000               0.430708333              -0.106427565               0.000000000               0.453805555              -0.112618377               0.000000000               0.476902778              -0.118809188               0.000000000               0.500000000              -0.125000000               0.000000000               0.127273065              -0.038607862               0.000000000               0.150568498              -0.047913621               0.000000000               0.173863932              -0.057219379               0.000000000               0.197159365              -0.066525138               0.000000000               0.220454798              -0.075830897               0.000000000               0.243750232              -0.085136655               0.000000000               0.267045665              -0.094442414               0.000000000               0.290341099              -0.103748172               0.000000000               0.313636532              -0.113053931               0.000000000               0.336931966              -0.122359690               0.000000000               0.360227399              -0.131665448               0.000000000               0.383522833              -0.140971207               0.000000000               0.406818266              -0.150276966               0.000000000               0.430113700              -0.159582724               0.000000000               0.453409133              -0.168888483               0.000000000               0.476704567              -0.178194241               0.000000000               0.500000000              -0.187500000               0.000000000               0.122875978              -0.050896897               0.000000000               0.146446229              -0.063340840               0.000000000               0.170016481              -0.075784784               0.000000000               0.193586732              -0.088228728               0.000000000               0.217156983              -0.100672672               0.000000000               0.240727235              -0.113116616               0.000000000               0.264297486              -0.125560560               0.000000000               0.287867738              -0.138004504               0.000000000               0.311437989              -0.150448448               0.000000000               0.335008240              -0.162892392               0.000000000               0.358578492              -0.175336336               0.000000000               0.382148743              -0.187780280               0.000000000               0.405718994              -0.200224224               0.000000000               0.429289246              -0.212668168               0.000000000               0.452859497              -0.225112112               0.000000000               0.476429749              -0.237556056               0.000000000               0.500000000              -0.250000000               0.000000000               0.117295528              -0.062695766               0.000000000               0.141214558              -0.078308531               0.000000000               0.165133587              -0.093921295               0.000000000               0.189052617              -0.109534060               0.000000000               0.212971646              -0.125146824               0.000000000               0.236890676              -0.140759589               0.000000000               0.260809705              -0.156372354               0.000000000               0.284728735              -0.171985118               0.000000000               0.308647764              -0.187597883               0.000000000               0.332566794              -0.203210648               0.000000000               0.356485823              -0.218823412               0.000000000               0.380404853              -0.234436177               0.000000000               0.404323882              -0.250048941               0.000000000               0.428242912              -0.265661706               0.000000000               0.452161941              -0.281274471               0.000000000               0.476080971              -0.296887235               0.000000000               0.500000000              -0.312500000               0.000000000               0.110585458              -0.073890841               0.000000000               0.134923867              -0.092710163               0.000000000               0.159262276              -0.111529486               0.000000000               0.183600685              -0.130348808               0.000000000               0.207939094              -0.149168131               0.000000000               0.232277503              -0.167987453               0.000000000               0.256615912              -0.186806776               0.000000000               0.280954320              -0.205626098               0.000000000               0.305292729              -0.224445420               0.000000000               0.329631138              -0.243264743               0.000000000               0.353969547              -0.262084065               0.000000000               0.378307956              -0.280903388               0.000000000               0.402646365              -0.299722710               0.000000000               0.426984773              -0.318542033               0.000000000               0.451323182              -0.337361355               0.000000000               0.475661591              -0.356180678               0.000000000               0.500000000              -0.375000000               0.000000000               0.102810390              -0.084374307               0.000000000               0.127634741              -0.106444663               0.000000000               0.152459092              -0.128515018               0.000000000               0.177283442              -0.150585374               0.000000000               0.202107793              -0.172655730               0.000000000               0.226932143              -0.194726086               0.000000000               0.251756494              -0.216796442               0.000000000               0.276580845              -0.238866798               0.000000000               0.301405195              -0.260937153               0.000000000               0.326229546              -0.283007509               0.000000000               0.351053896              -0.305077865               0.000000000               0.375878247              -0.327148221               0.000000000               0.400702598              -0.349218577               0.000000000               0.425526948              -0.371288933               0.000000000               0.450351299              -0.393359288               0.000000000               0.475175649              -0.415429644               0.000000000               0.500000000              -0.437500000               0.000000000               0.094045202              -0.094045202               0.000000000               0.119417377              -0.119417377               0.000000000               0.144789552              -0.144789552               0.000000000               0.170161727              -0.170161727               0.000000000               0.195533901              -0.195533901               0.000000000               0.220906076              -0.220906076               0.000000000               0.246278251              -0.246278251               0.000000000               0.271650426              -0.271650426               0.000000000               0.297022601              -0.297022601               0.000000000               0.322394776              -0.322394776               0.000000000               0.347766951              -0.347766951               0.000000000               0.373139126              -0.373139126               0.000000000               0.398511300              -0.398511300               0.000000000               0.423883475              -0.423883475               0.000000000               0.449255650              -0.449255650               0.000000000               0.474627825              -0.474627825               0.000000000               0.500000000              -0.500000000               0.000000000               0.084374307              -0.102810390               0.000000000               0.106444663              -0.127634741               0.000000000               0.128515018              -0.152459092               0.000000000               0.150585374              -0.177283442               0.000000000               0.172655730              -0.202107793               0.000000000               0.194726086              -0.226932143               0.000000000               0.216796442              -0.251756494               0.000000000               0.238866798              -0.276580845               0.000000000               0.260937153              -0.301405195               0.000000000               0.283007509              -0.326229546               0.000000000               0.305077865              -0.351053896               0.000000000               0.327148221              -0.375878247               0.000000000               0.349218577              -0.400702598               0.000000000               0.371288933              -0.425526948               0.000000000               0.393359288              -0.450351299               0.000000000               0.415429644              -0.475175649               0.000000000               0.437500000              -0.500000000               0.000000000               0.073890841              -0.110585458               0.000000000               0.092710163              -0.134923867               0.000000000               0.111529486              -0.159262276               0.000000000               0.130348808              -0.183600685               0.000000000               0.149168131              -0.207939094               0.000000000               0.167987453              -0.232277503               0.000000000               0.186806776              -0.256615912               0.000000000               0.205626098              -0.280954320               0.000000000               0.224445420              -0.305292729               0.000000000               0.243264743              -0.329631138               0.000000000               0.262084065              -0.353969547               0.000000000               0.280903388              -0.378307956               0.000000000               0.299722710              -0.402646365               0.000000000               0.318542033              -0.426984773               0.000000000               0.337361355              -0.451323182               0.000000000               0.356180678              -0.475661591               0.000000000               0.375000000              -0.500000000               0.000000000               0.062695766              -0.117295528               0.000000000               0.078308531              -0.141214558               0.000000000               0.093921295              -0.165133587               0.000000000               0.109534060              -0.189052617               0.000000000               0.125146824              -0.212971646               0.000000000               0.140759589              -0.236890676               0.000000000               0.156372354              -0.260809705               0.000000000               0.171985118              -0.284728735               0.000000000               0.187597883              -0.308647764               0.000000000               0.203210648              -0.332566794               0.000000000               0.218823412              -0.356485823               0.000000000               0.234436177              -0.380404853               0.000000000               0.250048941              -0.404323882               0.000000000               0.265661706              -0.428242912               0.000000000               0.281274471              -0.452161941               0.000000000               0.296887235              -0.476080971               0.000000000               0.312500000              -0.500000000               0.000000000               0.050896897              -0.122875978               0.000000000               0.063340840              -0.146446229               0.000000000               0.075784784              -0.170016481               0.000000000               0.088228728              -0.193586732               0.000000000               0.100672672              -0.217156983               0.000000000               0.113116616              -0.240727235               0.000000000               0.125560560              -0.264297486               0.000000000               0.138004504              -0.287867738               0.000000000               0.150448448              -0.311437989               0.000000000               0.162892392              -0.335008240               0.000000000               0.175336336              -0.358578492               0.000000000               0.187780280              -0.382148743               0.000000000               0.200224224              -0.405718994               0.000000000               0.212668168              -0.429289246               0.000000000               0.225112112              -0.452859497               0.000000000               0.237556056              -0.476429749               0.000000000               0.250000000              -0.500000000               0.000000000               0.038607862              -0.127273065               0.000000000               0.047913621              -0.150568498               0.000000000               0.057219379              -0.173863932               0.000000000               0.066525138              -0.197159365               0.000000000               0.075830897              -0.220454798               0.000000000               0.085136655              -0.243750232               0.000000000               0.094442414              -0.267045665               0.000000000               0.103748172              -0.290341099               0.000000000               0.113053931              -0.313636532               0.000000000               0.122359690              -0.336931966               0.000000000               0.131665448              -0.360227399               0.000000000               0.140971207              -0.383522833               0.000000000               0.150276966              -0.406818266               0.000000000               0.159582724              -0.430113700               0.000000000               0.168888483              -0.453409133               0.000000000               0.178194241              -0.476704567               0.000000000               0.187500000              -0.500000000               0.000000000               0.025947013              -0.130444442               0.000000000               0.032137825              -0.153541665               0.000000000               0.038328636              -0.176638887               0.000000000               0.044519448              -0.199736109               0.000000000               0.050710260              -0.222833332               0.000000000               0.056901071              -0.245930554               0.000000000               0.063091883              -0.269027776               0.000000000               0.069282695              -0.292124999               0.000000000               0.075473506              -0.315222221               0.000000000               0.081664318              -0.338319444               0.000000000               0.087855130              -0.361416666               0.000000000               0.094045942              -0.384513888               0.000000000               0.100236753              -0.407611111               0.000000000               0.106427565              -0.430708333               0.000000000               0.112618377              -0.453805555               0.000000000               0.118809188              -0.476902778               0.000000000               0.125000000              -0.500000000               0.000000000               0.013036280              -0.132359569               0.000000000               0.016127762              -0.155337096               0.000000000               0.019219245              -0.178314623               0.000000000               0.022310727              -0.201292150               0.000000000               0.025402210              -0.224269676               0.000000000               0.028493692              -0.247247203               0.000000000               0.031585175              -0.270224730               0.000000000               0.034676657              -0.293202257               0.000000000               0.037768140              -0.316179784               0.000000000               0.040859622              -0.339157311               0.000000000               0.043951105              -0.362134838               0.000000000               0.047042587              -0.385112365               0.000000000               0.050134070              -0.408089892               0.000000000               0.053225552              -0.431067419               0.000000000               0.056317035              -0.454044946               0.000000000               0.059408517              -0.477022473               0.000000000               0.062500000              -0.500000000               0.000000000               0.000000000              -0.133000000               0.000000000               0.000000000              -0.155937500               0.000000000               0.000000000              -0.178875000               0.000000000               0.000000000              -0.201812500               0.000000000               0.000000000              -0.224750000               0.000000000               0.000000000              -0.247687500               0.000000000               0.000000000              -0.270625000               0.000000000               0.000000000              -0.293562500               0.000000000               0.000000000              -0.316500000               0.000000000               0.000000000              -0.339437500               0.000000000               0.000000000              -0.362375000               0.000000000               0.000000000              -0.385312500               0.000000000               0.000000000              -0.408250000               0.000000000               0.000000000              -0.431187500               0.000000000               0.000000000              -0.454125000               0.000000000               0.000000000              -0.477062500               0.000000000               0.000000000              -0.500000000               0.000000000              -0.133000000               0.000000000               0.000000000              -0.155937500               0.000000000               0.000000000              -0.178875000               0.000000000               0.000000000              -0.201812500               0.000000000               0.000000000              -0.224750000               0.000000000               0.000000000              -0.247687500               0.000000000               0.000000000              -0.270625000               0.000000000               0.000000000              -0.293562500               0.000000000               0.000000000              -0.316500000               0.000000000               0.000000000              -0.339437500               0.000000000               0.000000000              -0.362375000               0.000000000               0.000000000              -0.385312500               0.000000000               0.000000000              -0.408250000               0.000000000               0.000000000              -0.431187500               0.000000000               0.000000000              -0.454125000               0.000000000               0.000000000              -0.477062500               0.000000000               0.000000000              -0.500000000               0.000000000               0.000000000              -0.132359569              -0.013036280               0.000000000              -0.155337096              -0.016127762               0.000000000              -0.178314623              -0.019219245               0.000000000              -0.201292150              -0.022310727               0.000000000              -0.224269676              -0.025402210               0.000000000              -0.247247203              -0.028493692               0.000000000              -0.270224730              -0.031585175               0.000000000              -0.293202257              -0.034676657               0.000000000              -0.316179784              -0.037768140               0.000000000              -0.339157311              -0.040859622               0.000000000              -0.362134838              -0.043951105               0.000000000              -0.385112365              -0.047042587               0.000000000              -0.408089892              -0.050134070               0.000000000              -0.431067419              -0.053225552               0.000000000              -0.454044946              -0.056317035               0.000000000              -0.477022473              -0.059408517               0.000000000              -0.500000000              -0.062500000               0.000000000              -0.130444442              -0.025947013               0.000000000              -0.153541665              -0.032137825               0.000000000              -0.176638887              -0.038328636               0.000000000              -0.199736109              -0.044519448               0.000000000              -0.222833332              -0.050710260               0.000000000              -0.245930554              -0.056901071               0.000000000              -0.269027776              -0.063091883               0.000000000              -0.292124999              -0.069282695               0.000000000              -0.315222221              -0.075473506               0.000000000              -0.338319444              -0.081664318               0.000000000              -0.361416666              -0.087855130               0.000000000              -0.384513888              -0.094045942               0.000000000              -0.407611111              -0.100236753               0.000000000              -0.430708333              -0.106427565               0.000000000              -0.453805555              -0.112618377               0.000000000              -0.476902778              -0.118809188               0.000000000              -0.500000000              -0.125000000               0.000000000              -0.127273065              -0.038607862               0.000000000              -0.150568498              -0.047913621               0.000000000              -0.173863932              -0.057219379               0.000000000              -0.197159365              -0.066525138               0.000000000              -0.220454798              -0.075830897               0.000000000              -0.243750232              -0.085136655               0.000000000              -0.267045665              -0.094442414               0.000000000              -0.290341099              -0.103748172               0.000000000              -0.313636532              -0.113053931               0.000000000              -0.336931966              -0.122359690               0.000000000              -0.360227399              -0.131665448               0.000000000              -0.383522833              -0.140971207               0.000000000              -0.406818266              -0.150276966               0.000000000              -0.430113700              -0.159582724               0.000000000              -0.453409133              -0.168888483               0.000000000              -0.476704567              -0.178194241               0.000000000              -0.500000000              -0.187500000               0.000000000              -0.122875978              -0.050896897               0.000000000              -0.146446229              -0.063340840               0.000000000              -0.170016481              -0.075784784               0.000000000              -0.193586732              -0.088228728               0.000000000              -0.217156983              -0.100672672               0.000000000              -0.240727235              -0.113116616               0.000000000              -0.264297486              -0.125560560               0.000000000              -0.287867738              -0.138004504               0.000000000              -0.311437989              -0.150448448               0.000000000              -0.335008240              -0.162892392               0.000000000              -0.358578492              -0.175336336               0.000000000              -0.382148743              -0.187780280               0.000000000              -0.405718994              -0.200224224               0.000000000              -0.429289246              -0.212668168               0.000000000              -0.452859497              -0.225112112               0.000000000              -0.476429749              -0.237556056               0.000000000              -0.500000000              -0.250000000               0.000000000              -0.117295528              -0.062695766               0.000000000              -0.141214558              -0.078308531               0.000000000              -0.165133587              -0.093921295               0.000000000              -0.189052617              -0.109534060               0.000000000              -0.212971646              -0.125146824               0.000000000              -0.236890676              -0.140759589               0.000000000              -0.260809705              -0.156372354               0.000000000              -0.284728735              -0.171985118               0.000000000              -0.308647764              -0.187597883               0.000000000              -0.332566794              -0.203210648               0.000000000              -0.356485823              -0.218823412               0.000000000              -0.380404853              -0.234436177               0.000000000              -0.404323882              -0.250048941               0.000000000              -0.428242912              -0.265661706               0.000000000              -0.452161941              -0.281274471               0.000000000              -0.476080971              -0.296887235               0.000000000              -0.500000000              -0.312500000               0.000000000              -0.110585458              -0.073890841               0.000000000              -0.134923867              -0.092710163               0.000000000              -0.159262276              -0.111529486               0.000000000              -0.183600685              -0.130348808               0.000000000              -0.207939094              -0.149168131               0.000000000              -0.232277503              -0.167987453               0.000000000              -0.256615912              -0.186806776               0.000000000              -0.280954320              -0.205626098               0.000000000              -0.305292729              -0.224445420               0.000000000              -0.329631138              -0.243264743               0.000000000              -0.353969547              -0.262084065               0.000000000              -0.378307956              -0.280903388               0.000000000              -0.402646365              -0.299722710               0.000000000              -0.426984773              -0.318542033               0.000000000              -0.451323182              -0.337361355               0.000000000              -0.475661591              -0.356180678               0.000000000              -0.500000000              -0.375000000               0.000000000              -0.102810390              -0.084374307               0.000000000              -0.127634741              -0.106444663               0.000000000              -0.152459092              -0.128515018               0.000000000              -0.177283442              -0.150585374               0.000000000              -0.202107793              -0.172655730               0.000000000              -0.226932143              -0.194726086               0.000000000              -0.251756494              -0.216796442               0.000000000              -0.276580845              -0.238866798               0.000000000              -0.301405195              -0.260937153               0.000000000              -0.326229546              -0.283007509               0.000000000              -0.351053896              -0.305077865               0.000000000              -0.375878247              -0.327148221               0.000000000              -0.400702598              -0.349218577               0.000000000              -0.425526948              -0.371288933               0.000000000              -0.450351299              -0.393359288               0.000000000              -0.475175649              -0.415429644               0.000000000              -0.500000000              -0.437500000               0.000000000              -0.094045202              -0.094045202               0.000000000              -0.119417377              -0.119417377               0.000000000              -0.144789552              -0.144789552               0.000000000              -0.170161727              -0.170161727               0.000000000              -0.195533901              -0.195533901               0.000000000              -0.220906076              -0.220906076               0.000000000              -0.246278251              -0.246278251               0.000000000              -0.271650426              -0.271650426               0.000000000              -0.297022601              -0.297022601               0.000000000              -0.322394776              -0.322394776               0.000000000              -0.347766951              -0.347766951               0.000000000              -0.373139126              -0.373139126               0.000000000              -0.398511300              -0.398511300               0.000000000              -0.423883475              -0.423883475               0.000000000              -0.449255650              -0.449255650               0.000000000              -0.474627825              -0.474627825               0.000000000              -0.500000000              -0.500000000               0.000000000              -0.084374307              -0.102810390               0.000000000              -0.106444663              -0.127634741               0.000000000              -0.128515018              -0.152459092               0.000000000              -0.150585374              -0.177283442               0.000000000              -0.172655730              -0.202107793               0.000000000              -0.194726086              -0.226932143               0.000000000              -0.216796442              -0.251756494               0.000000000              -0.238866798              -0.276580845               0.000000000              -0.260937153              -0.301405195               0.000000000              -0.283007509              -0.326229546               0.000000000              -0.305077865              -0.351053896               0.000000000              -0.327148221              -0.375878247               0.000000000              -0.349218577              -0.400702598               0.000000000              -0.371288933              -0.425526948               0.000000000              -0.393359288              -0.450351299               0.000000000              -0.415429644              -0.475175649               0.000000000              -0.437500000              -0.500000000               0.000000000              -0.073890841              -0.110585458               0.000000000              -0.092710163              -0.134923867               0.000000000              -0.111529486              -0.159262276               0.000000000              -0.130348808              -0.183600685               0.000000000              -0.149168131              -0.207939094               0.000000000              -0.167987453              -0.232277503               0.000000000              -0.186806776              -0.256615912               0.000000000              -0.205626098              -0.280954320               0.000000000              -0.224445420              -0.305292729               0.000000000              -0.243264743              -0.329631138               0.000000000              -0.262084065              -0.353969547               0.000000000              -0.280903388              -0.378307956               0.000000000              -0.299722710              -0.402646365               0.000000000              -0.318542033              -0.426984773               0.000000000              -0.337361355              -0.451323182               0.000000000              -0.356180678              -0.475661591               0.000000000              -0.375000000              -0.500000000               0.000000000              -0.062695766              -0.117295528               0.000000000              -0.078308531              -0.141214558               0.000000000              -0.093921295              -0.165133587               0.000000000              -0.109534060              -0.189052617               0.000000000              -0.125146824              -0.212971646               0.000000000              -0.140759589              -0.236890676               0.000000000              -0.156372354              -0.260809705               0.000000000              -0.171985118              -0.284728735               0.000000000              -0.187597883              -0.308647764               0.000000000              -0.203210648              -0.332566794               0.000000000              -0.218823412              -0.356485823               0.000000000              -0.234436177              -0.380404853               0.000000000              -0.250048941              -0.404323882               0.000000000              -0.265661706              -0.428242912               0.000000000              -0.281274471              -0.452161941               0.000000000              -0.296887235              -0.476080971               0.000000000              -0.312500000              -0.500000000               0.000000000              -0.050896897              -0.122875978               0.000000000              -0.063340840              -0.146446229               0.000000000              -0.075784784              -0.170016481               0.000000000              -0.088228728              -0.193586732               0.000000000              -0.100672672              -0.217156983               0.000000000              -0.113116616              -0.240727235               0.000000000              -0.125560560              -0.264297486               0.000000000              -0.138004504              -0.287867738               0.000000000              -0.150448448              -0.311437989               0.000000000              -0.162892392              -0.335008240               0.000000000              -0.175336336              -0.358578492               0.000000000              -0.187780280              -0.382148743               0.000000000              -0.200224224              -0.405718994               0.000000000              -0.212668168              -0.429289246               0.000000000              -0.225112112              -0.452859497               0.000000000              -0.237556056              -0.476429749               0.000000000              -0.250000000              -0.500000000               0.000000000              -0.038607862              -0.127273065               0.000000000              -0.047913621              -0.150568498               0.000000000              -0.057219379              -0.173863932               0.000000000              -0.066525138              -0.197159365               0.000000000              -0.075830897              -0.220454798               0.000000000              -0.085136655              -0.243750232               0.000000000              -0.094442414              -0.267045665               0.000000000              -0.103748172              -0.290341099               0.000000000              -0.113053931              -0.313636532               0.000000000              -0.122359690              -0.336931966               0.000000000              -0.131665448              -0.360227399               0.000000000              -0.140971207              -0.383522833               0.000000000              -0.150276966              -0.406818266               0.000000000              -0.159582724              -0.430113700               0.000000000              -0.168888483              -0.453409133               0.000000000              -0.178194241              -0.476704567               0.000000000              -0.187500000              -0.500000000               0.000000000              -0.025947013              -0.130444442               0.000000000              -0.032137825              -0.153541665               0.000000000              -0.038328636              -0.176638887               0.000000000              -0.044519448              -0.199736109               0.000000000              -0.050710260              -0.222833332               0.000000000              -0.056901071              -0.245930554               0.000000000              -0.063091883              -0.269027776               0.000000000              -0.069282695              -0.292124999               0.000000000              -0.075473506              -0.315222221               0.000000000              -0.081664318              -0.338319444               0.000000000              -0.087855130              -0.361416666               0.000000000              -0.094045942              -0.384513888               0.000000000              -0.100236753              -0.407611111               0.000000000              -0.106427565              -0.430708333               0.000000000              -0.112618377              -0.453805555               0.000000000              -0.118809188              -0.476902778               0.000000000              -0.125000000              -0.500000000               0.000000000              -0.013036280              -0.132359569               0.000000000              -0.016127762              -0.155337096               0.000000000              -0.019219245              -0.178314623               0.000000000              -0.022310727              -0.201292150               0.000000000              -0.025402210              -0.224269676               0.000000000              -0.028493692              -0.247247203               0.000000000              -0.031585175              -0.270224730               0.000000000              -0.034676657              -0.293202257               0.000000000              -0.037768140              -0.316179784               0.000000000              -0.040859622              -0.339157311               0.000000000              -0.043951105              -0.362134838               0.000000000              -0.047042587              -0.385112365               0.000000000              -0.050134070              -0.408089892               0.000000000              -0.053225552              -0.431067419               0.000000000              -0.056317035              -0.454044946               0.000000000              -0.059408517              -0.477022473               0.000000000              -0.062500000              -0.500000000               0.000000000               0.000000000              -0.133000000               0.000000000               0.000000000              -0.155937500               0.000000000               0.000000000              -0.178875000               0.000000000               0.000000000              -0.201812500               0.000000000               0.000000000              -0.224750000               0.000000000               0.000000000              -0.247687500               0.000000000               0.000000000              -0.270625000               0.000000000               0.000000000              -0.293562500               0.000000000               0.000000000              -0.316500000               0.000000000               0.000000000              -0.339437500               0.000000000               0.000000000              -0.362375000               0.000000000               0.000000000              -0.385312500               0.000000000               0.000000000              -0.408250000               0.000000000               0.000000000              -0.431187500               0.000000000               0.000000000              -0.454125000               0.000000000               0.000000000              -0.477062500               0.000000000               0.000000000              -0.500000000               0.000000000              -0.133000000               0.000000000               0.000000000              -0.155937500               0.000000000               0.000000000              -0.178875000               0.000000000               0.000000000              -0.201812500               0.000000000               0.000000000              -0.224750000               0.000000000               0.000000000              -0.247687500               0.000000000               0.000000000              -0.270625000               0.000000000               0.000000000              -0.293562500               0.000000000               0.000000000              -0.316500000               0.000000000               0.000000000              -0.339437500               0.000000000               0.000000000              -0.362375000               0.000000000               0.000000000              -0.385312500               0.000000000               0.000000000              -0.408250000               0.000000000               0.000000000              -0.431187500               0.000000000               0.000000000              -0.454125000               0.000000000               0.000000000              -0.477062500               0.000000000               0.000000000              -0.500000000               0.000000000               0.000000000              -0.132359569               0.013036280               0.000000000              -0.155337096               0.016127762               0.000000000              -0.178314623               0.019219245               0.000000000              -0.201292150               0.022310727               0.000000000              -0.224269676               0.025402210               0.000000000              -0.247247203               0.028493692               0.000000000              -0.270224730               0.031585175               0.000000000              -0.293202257               0.034676657               0.000000000              -0.316179784               0.037768140               0.000000000              -0.339157311               0.040859622               0.000000000              -0.362134838               0.043951105               0.000000000              -0.385112365               0.047042587               0.000000000              -0.408089892               0.050134070               0.000000000              -0.431067419               0.053225552               0.000000000              -0.454044946               0.056317035               0.000000000              -0.477022473               0.059408517               0.000000000              -0.500000000               0.062500000               0.000000000              -0.130444442               0.025947013               0.000000000              -0.153541665               0.032137825               0.000000000              -0.176638887               0.038328636               0.000000000              -0.199736109               0.044519448               0.000000000              -0.222833332               0.050710260               0.000000000              -0.245930554               0.056901071               0.000000000              -0.269027776               0.063091883               0.000000000              -0.292124999               0.069282695               0.000000000              -0.315222221               0.075473506               0.000000000              -0.338319444               0.081664318               0.000000000              -0.361416666               0.087855130               0.000000000              -0.384513888               0.094045942               0.000000000              -0.407611111               0.100236753               0.000000000              -0.430708333               0.106427565               0.000000000              -0.453805555               0.112618377               0.000000000              -0.476902778               0.118809188               0.000000000              -0.500000000               0.125000000               0.000000000              -0.127273065               0.038607862               0.000000000              -0.150568498               0.047913621               0.000000000              -0.173863932               0.057219379               0.000000000              -0.197159365               0.066525138               0.000000000              -0.220454798               0.075830897               0.000000000              -0.243750232               0.085136655               0.000000000              -0.267045665               0.094442414               0.000000000              -0.290341099               0.103748172               0.000000000              -0.313636532               0.113053931               0.000000000              -0.336931966               0.122359690               0.000000000              -0.360227399               0.131665448               0.000000000              -0.383522833               0.140971207               0.000000000              -0.406818266               0.150276966               0.000000000              -0.430113700               0.159582724               0.000000000              -0.453409133               0.168888483               0.000000000              -0.476704567               0.178194241               0.000000000              -0.500000000               0.187500000               0.000000000              -0.122875978               0.050896897               0.000000000              -0.146446229               0.063340840               0.000000000              -0.170016481               0.075784784               0.000000000              -0.193586732               0.088228728               0.000000000              -0.217156983               0.100672672               0.000000000              -0.240727235               0.113116616               0.000000000              -0.264297486               0.125560560               0.000000000              -0.287867738               0.138004504               0.000000000              -0.311437989               0.150448448               0.000000000              -0.335008240               0.162892392               0.000000000              -0.358578492               0.175336336               0.000000000              -0.382148743               0.187780280               0.000000000              -0.405718994               0.200224224               0.000000000              -0.429289246               0.212668168               0.000000000              -0.452859497               0.225112112               0.000000000              -0.476429749               0.237556056               0.000000000              -0.500000000               0.250000000               0.000000000              -0.117295528               0.062695766               0.000000000              -0.141214558               0.078308531               0.000000000              -0.165133587               0.093921295               0.000000000              -0.189052617               0.109534060               0.000000000              -0.212971646               0.125146824               0.000000000              -0.236890676               0.140759589               0.000000000              -0.260809705               0.156372354               0.000000000              -0.284728735               0.171985118               0.000000000              -0.308647764               0.187597883               0.000000000              -0.332566794               0.203210648               0.000000000              -0.356485823               0.218823412               0.000000000              -0.380404853               0.234436177               0.000000000              -0.404323882               0.250048941               0.000000000              -0.428242912               0.265661706               0.000000000              -0.452161941               0.281274471               0.000000000              -0.476080971               0.296887235               0.000000000              -0.500000000               0.312500000               0.000000000              -0.110585458               0.073890841               0.000000000              -0.134923867               0.092710163               0.000000000              -0.159262276               0.111529486               0.000000000              -0.183600685               0.130348808               0.000000000              -0.207939094               0.149168131               0.000000000              -0.232277503               0.167987453               0.000000000              -0.256615912               0.186806776               0.000000000              -0.280954320               0.205626098               0.000000000              -0.305292729               0.224445420               0.000000000              -0.329631138               0.243264743               0.000000000              -0.353969547               0.262084065               0.000000000              -0.378307956               0.280903388               0.000000000              -0.402646365               0.299722710               0.000000000              -0.426984773               0.318542033               0.000000000              -0.451323182               0.337361355               0.000000000              -0.475661591               0.356180678               0.000000000              -0.500000000               0.375000000               0.000000000              -0.102810390               0.084374307               0.000000000              -0.127634741               0.106444663               0.000000000              -0.152459092               0.128515018               0.000000000              -0.177283442               0.150585374               0.000000000              -0.202107793               0.172655730               0.000000000              -0.226932143               0.194726086               0.000000000              -0.251756494               0.216796442               0.000000000              -0.276580845               0.238866798               0.000000000              -0.301405195               0.260937153               0.000000000              -0.326229546               0.283007509               0.000000000              -0.351053896               0.305077865               0.000000000              -0.375878247               0.327148221               0.000000000              -0.400702598               0.349218577               0.000000000              -0.425526948               0.371288933               0.000000000              -0.450351299               0.393359288               0.000000000              -0.475175649               0.415429644               0.000000000              -0.500000000               0.437500000               0.000000000              -0.094045202               0.094045202               0.000000000              -0.119417377               0.119417377               0.000000000              -0.144789552               0.144789552               0.000000000              -0.170161727               0.170161727               0.000000000              -0.195533901               0.195533901               0.000000000              -0.220906076               0.220906076               0.000000000              -0.246278251               0.246278251               0.000000000              -0.271650426               0.271650426               0.000000000              -0.297022601               0.297022601               0.000000000              -0.322394776               0.322394776               0.000000000              -0.347766951               0.347766951               0.000000000              -0.373139126               0.373139126               0.000000000              -0.398511300               0.398511300               0.000000000              -0.423883475               0.423883475               0.000000000              -0.449255650               0.449255650               0.000000000              -0.474627825               0.474627825               0.000000000              -0.500000000               0.500000000               0.000000000              -0.084374307               0.102810390               0.000000000              -0.106444663               0.127634741               0.000000000              -0.128515018               0.152459092               0.000000000              -0.150585374               0.177283442               0.000000000              -0.172655730               0.202107793               0.000000000              -0.194726086               0.226932143               0.000000000              -0.216796442               0.251756494               0.000000000              -0.238866798               0.276580845               0.000000000              -0.260937153               0.301405195               0.000000000              -0.283007509               0.326229546               0.000000000              -0.305077865               0.351053896               0.000000000              -0.327148221               0.375878247               0.000000000              -0.349218577               0.400702598               0.000000000              -0.371288933               0.425526948               0.000000000              -0.393359288               0.450351299               0.000000000              -0.415429644               0.475175649               0.000000000              -0.437500000               0.500000000               0.000000000              -0.073890841               0.110585458               0.000000000              -0.092710163               0.134923867               0.000000000              -0.111529486               0.159262276               0.000000000              -0.130348808               0.183600685               0.000000000              -0.149168131               0.207939094               0.000000000              -0.167987453               0.232277503               0.000000000              -0.186806776               0.256615912               0.000000000              -0.205626098               0.280954320               0.000000000              -0.224445420               0.305292729               0.000000000              -0.243264743               0.329631138               0.000000000              -0.262084065               0.353969547               0.000000000              -0.280903388               0.378307956               0.000000000              -0.299722710               0.402646365               0.000000000              -0.318542033               0.426984773               0.000000000              -0.337361355               0.451323182               0.000000000              -0.356180678               0.475661591               0.000000000              -0.375000000               0.500000000               0.000000000              -0.062695766               0.117295528               0.000000000              -0.078308531               0.141214558               0.000000000              -0.093921295               0.165133587               0.000000000              -0.109534060               0.189052617               0.000000000              -0.125146824               0.212971646               0.000000000              -0.140759589               0.236890676               0.000000000              -0.156372354               0.260809705               0.000000000              -0.171985118               0.284728735               0.000000000              -0.187597883               0.308647764               0.000000000              -0.203210648               0.332566794               0.000000000              -0.218823412               0.356485823               0.000000000              -0.234436177               0.380404853               0.000000000              -0.250048941               0.404323882               0.000000000              -0.265661706               0.428242912               0.000000000              -0.281274471               0.452161941               0.000000000              -0.296887235               0.476080971               0.000000000              -0.312500000               0.500000000               0.000000000              -0.050896897               0.122875978               0.000000000              -0.063340840               0.146446229               0.000000000              -0.075784784               0.170016481               0.000000000              -0.088228728               0.193586732               0.000000000              -0.100672672               0.217156983               0.000000000              -0.113116616               0.240727235               0.000000000              -0.125560560               0.264297486               0.000000000              -0.138004504               0.287867738               0.000000000              -0.150448448               0.311437989               0.000000000              -0.162892392               0.335008240               0.000000000              -0.175336336               0.358578492               0.000000000              -0.187780280               0.382148743               0.000000000              -0.200224224               0.405718994               0.000000000              -0.212668168               0.429289246               0.000000000              -0.225112112               0.452859497               0.000000000              -0.237556056               0.476429749               0.000000000              -0.250000000               0.500000000               0.000000000              -0.038607862               0.127273065               0.000000000              -0.047913621               0.150568498               0.000000000              -0.057219379               0.173863932               0.000000000              -0.066525138               0.197159365               0.000000000              -0.075830897               0.220454798               0.000000000              -0.085136655               0.243750232               0.000000000              -0.094442414               0.267045665               0.000000000              -0.103748172               0.290341099               0.000000000              -0.113053931               0.313636532               0.000000000              -0.122359690               0.336931966               0.000000000              -0.131665448               0.360227399               0.000000000              -0.140971207               0.383522833               0.000000000              -0.150276966               0.406818266               0.000000000              -0.159582724               0.430113700               0.000000000              -0.168888483               0.453409133               0.000000000              -0.178194241               0.476704567               0.000000000              -0.187500000               0.500000000               0.000000000              -0.025947013               0.130444442               0.000000000              -0.032137825               0.153541665               0.000000000              -0.038328636               0.176638887               0.000000000              -0.044519448               0.199736109               0.000000000              -0.050710260               0.222833332               0.000000000              -0.056901071               0.245930554               0.000000000              -0.063091883               0.269027776               0.000000000              -0.069282695               0.292124999               0.000000000              -0.075473506               0.315222221               0.000000000              -0.081664318               0.338319444               0.000000000              -0.087855130               0.361416666               0.000000000              -0.094045942               0.384513888               0.000000000              -0.100236753               0.407611111               0.000000000              -0.106427565               0.430708333               0.000000000              -0.112618377               0.453805555               0.000000000              -0.118809188               0.476902778               0.000000000              -0.125000000               0.500000000               0.000000000              -0.013036280               0.132359569               0.000000000              -0.016127762               0.155337096               0.000000000              -0.019219245               0.178314623               0.000000000              -0.022310727               0.201292150               0.000000000              -0.025402210               0.224269676               0.000000000              -0.028493692               0.247247203               0.000000000              -0.031585175               0.270224730               0.000000000              -0.034676657               0.293202257               0.000000000              -0.037768140               0.316179784               0.000000000              -0.040859622               0.339157311               0.000000000              -0.043951105               0.362134838               0.000000000              -0.047042587               0.385112365               0.000000000              -0.050134070               0.408089892               0.000000000              -0.053225552               0.431067419               0.000000000              -0.056317035               0.454044946               0.000000000              -0.059408517               0.477022473               0.000000000              -0.062500000               0.500000000               0.000000000               0.000000000               0.133000000               0.000000000               0.000000000               0.155937500               0.000000000               0.000000000               0.178875000               0.000000000               0.000000000               0.201812500               0.000000000               0.000000000               0.224750000               0.000000000               0.000000000               0.247687500               0.000000000               0.000000000               0.270625000               0.000000000               0.000000000               0.293562500               0.000000000               0.000000000               0.316500000               0.000000000               0.000000000               0.339437500               0.000000000               0.000000000               0.362375000               0.000000000               0.000000000               0.385312500               0.000000000               0.000000000               0.408250000               0.000000000               0.000000000               0.431187500               0.000000000               0.000000000               0.454125000               0.000000000               0.000000000               0.477062500               0.000000000               0.000000000               0.500000000               0.000000000 </DataArray>
</Points>
<Cells>
<DataArray type="Int32"                                    Name="connectivity"                                                      NumberOfComponents=" 1" format="ascii">
         0          1         18         17          1          2         19         18          2          3         20         19          3          4         21         20          4          5         22         21          5          6         23         22          6          7         24         23          7          8         25         24          8          9         26         25          9         10         27         26         10         11         28         27         11         12         29         28         12         13         30         29         13         14         31         30         14         15         32         31         15         16         33         32         17         18         35         34         18         19         36         35         19         20         37         36         20         21         38         37         21         22         39         38         22         23         40         39         23         24         41         40         24         25         42         41         25         26         43         42         26         27         44         43         27         28         45         44         28         29         46         45         29         30         47         46         30         31         48         47         31         32         49         48         32         33         50         49         34         35         52         51         35         36         53         52         36         37         54         53         37         38         55         54         38         39         56         55         39         40         57         56         40         41         58         57         41         42         59         58         42         43         60         59         43         44         61         60         44         45         62         61         45         46         63         62         46         47         64         63         47         48         65         64         48         49         66         65         49         50         67         66         51         52         69         68         52         53         70         69         53         54         71         70         54         55         72         71         55         56         73         72         56         57         74         73         57         58         75         74         58         59         76         75         59         60         77         76         60         61         78         77         61         62         79         78         62         63         80         79         63         64         81         80         64         65         82         81         65         66         83         82         66         67         84         83         68         69         86         85         69         70         87         86         70         71         88         87         71         72         89         88         72         73         90         89         73         74         91         90         74         75         92         91         75         76         93         92         76         77         94         93         77         78         95         94         78         79         96         95         79         80         97         96         80         81         98         97         81         82         99         98         82         83        100         99         83         84        101        100         85         86        103        102         86         87        104        103         87         88        105        104         88         89        106        105         89         90        107        106         90         91        108        107         91         92        109        108         92         93        110        109         93         94        111        110         94         95        112        111         95         96        113        112         96         97        114        113         97         98        115        114         98         99        116        115         99        100        117        116        100        101        118        117        102        103        120        119        103        104        121        120        104        105        122        121        105        106        123        122        106        107        124        123        107        108        125        124        108        109        126        125        109        110        127        126        110        111        128        127        111        112        129        128        112        113        130        129        113        114        131        130        114        115        132        131        115        116        133        132        116        117        134        133        117        118        135        134        119        120        137        136        120        121        138        137        121        122        139        138        122        123        140        139        123        124        141        140        124        125        142        141        125        126        143        142        126        127        144        143        127        128        145        144        128        129        146        145        129        130        147        146        130        131        148        147        131        132        149        148        132        133        150        149        133        134        151        150        134        135        152        151        136        137        154        153        137        138        155        154        138        139        156        155        139        140        157        156        140        141        158        157        141        142        159        158        142        143        160        159        143        144        161        160        144        145        162        161        145        146        163        162        146        147        164        163        147        148        165        164        148        149        166        165        149        150        167        166        150        151        168        167        151        152        169        168        153        154        171        170        154        155        172        171        155        156        173        172        156        157        174        173        157        158        175        174        158        159        176        175        159        160        177        176        160        161        178        177        161        162        179        178        162        163        180        179        163        164        181        180        164        165        182        181        165        166        183        182        166        167        184        183        167        168        185        184        168        169        186        185        170        171        188        187        171        172        189        188        172        173        190        189        173        174        191        190        174        175        192        191        175        176        193        192        176        177        194        193        177        178        195        194        178        179        196        195        179        180        197        196        180        181        198        197        181        182        199        198        182        183        200        199        183        184        201        200        184        185        202        201        185        186        203        202        187        188        205        204        188        189        206        205        189        190        207        206        190        191        208        207        191        192        209        208        192        193        210        209        193        194        211        210        194        195        212        211        195        196        213        212        196        197        214        213        197        198        215        214        198        199        216        215        199        200        217        216        200        201        218        217        201        202        219        218        202        203        220        219        204        205        222        221        205        206        223        222        206        207        224        223        207        208        225        224        208        209        226        225        209        210        227        226        210        211        228        227        211        212        229        228        212        213        230        229        213        214        231        230        214        215        232        231        215        216        233        232        216        217        234        233        217        218        235        234        218        219        236        235        219        220        237        236        221        222        239        238        222        223        240        239        223        224        241        240        224        225        242        241        225        226        243        242        226        227        244        243        227        228        245        244        228        229        246        245        229        230        247        246        230        231        248        247        231        232        249        248        232        233        250        249        233        234        251        250        234        235        252        251        235        236        253        252        236        237        254        253        238        239        256        255        239        240        257        256        240        241        258        257        241        242        259        258        242        243        260        259        243        244        261        260        244        245        262        261        245        246        263        262        246        247        264        263        247        248        265        264        248        249        266        265        249        250        267        266        250        251        268        267        251        252        269        268        252        253        270        269        253        254        271        270        255        256        273        272        256        257        274        273        257        258        275        274        258        259        276        275        259        260        277        276        260        261        278        277        261        262        279        278        262        263        280        279        263        264        281        280        264        265        282        281        265        266        283        282        266        267        284        283        267        268        285        284        268        269        286        285        269        270        287        286        270        271        288        287        306        307          1          0        307        308          2          1        308        309          3          2        309        310          4          3        310        311          5          4        311        312          6          5        312        313          7          6        313        314          8          7        314        315          9          8        315        316         10          9        316        317         11         10        317        318         12         11        318        319         13         12        319        320         14         13        320        321         15         14        321        322         16         15        323        324        307        306        324        325        308        307        325        326        309        308        326        327        310        309        327        328        311        310        328        329        312        311        329        330        313        312        330        331        314        313        331        332        315        314        332        333        316        315        333        334        317        316        334        335        318        317        335        336        319        318        336        337        320        319        337        338        321        320        338        339        322        321        340        341        324        323        341        342        325        324        342        343        326        325        343        344        327        326        344        345        328        327        345        346        329        328        346        347        330        329        347        348        331        330        348        349        332        331        349        350        333        332        350        351        334        333        351        352        335        334        352        353        336        335        353        354        337        336        354        355        338        337        355        356        339        338        357        358        341        340        358        359        342        341        359        360        343        342        360        361        344        343        361        362        345        344        362        363        346        345        363        364        347        346        364        365        348        347        365        366        349        348        366        367        350        349        367        368        351        350        368        369        352        351        369        370        353        352        370        371        354        353        371        372        355        354        372        373        356        355        374        375        358        357        375        376        359        358        376        377        360        359        377        378        361        360        378        379        362        361        379        380        363        362        380        381        364        363        381        382        365        364        382        383        366        365        383        384        367        366        384        385        368        367        385        386        369        368        386        387        370        369        387        388        371        370        388        389        372        371        389        390        373        372        391        392        375        374        392        393        376        375        393        394        377        376        394        395        378        377        395        396        379        378        396        397        380        379        397        398        381        380        398        399        382        381        399        400        383        382        400        401        384        383        401        402        385        384        402        403        386        385        403        404        387        386        404        405        388        387        405        406        389        388        406        407        390        389        408        409        392        391        409        410        393        392        410        411        394        393        411        412        395        394        412        413        396        395        413        414        397        396        414        415        398        397        415        416        399        398        416        417        400        399        417        418        401        400        418        419        402        401        419        420        403        402        420        421        404        403        421        422        405        404        422        423        406        405        423        424        407        406        425        426        409        408        426        427        410        409        427        428        411        410        428        429        412        411        429        430        413        412        430        431        414        413        431        432        415        414        432        433        416        415        433        434        417        416        434        435        418        417        435        436        419        418        436        437        420        419        437        438        421        420        438        439        422        421        439        440        423        422        440        441        424        423        442        443        426        425        443        444        427        426        444        445        428        427        445        446        429        428        446        447        430        429        447        448        431        430        448        449        432        431        449        450        433        432        450        451        434        433        451        452        435        434        452        453        436        435        453        454        437        436        454        455        438        437        455        456        439        438        456        457        440        439        457        458        441        440        459        460        443        442        460        461        444        443        461        462        445        444        462        463        446        445        463        464        447        446        464        465        448        447        465        466        449        448        466        467        450        449        467        468        451        450        468        469        452        451        469        470        453        452        470        471        454        453        471        472        455        454        472        473        456        455        473        474        457        456        474        475        458        457        476        477        460        459        477        478        461        460        478        479        462        461        479        480        463        462        480        481        464        463        481        482        465        464        482        483        466        465        483        484        467        466        484        485        468        467        485        486        469        468        486        487        470        469        487        488        471        470        488        489        472        471        489        490        473        472        490        491        474        473        491        492        475        474        493        494        477        476        494        495        478        477        495        496        479        478        496        497        480        479        497        498        481        480        498        499        482        481        499        500        483        482        500        501        484        483        501        502        485        484        502        503        486        485        503        504        487        486        504        505        488        487        505        506        489        488        506        507        490        489        507        508        491        490        508        509        492        491        510        511        494        493        511        512        495        494        512        513        496        495        513        514        497        496        514        515        498        497        515        516        499        498        516        517        500        499        517        518        501        500        518        519        502        501        519        520        503        502        520        521        504        503        521        522        505        504        522        523        506        505        523        524        507        506        524        525        508        507        525        526        509        508        527        528        511        510        528        529        512        511        529        530        513        512        530        531        514        513        531        532        515        514        532        533        516        515        533        534        517        516        534        535        518        517        535        536        519        518        536        537        520        519        537        538        521        520        538        539        522        521        539        540        523        522        540        541        524        523        541        542        525        524        542        543        526        525        544        545        528        527        545        546        529        528        546        547        530        529        547        548        531        530        548        549        532        531        549        550        533        532        550        551        534        533        551        552        535        534        552        553        536        535        553        554        537        536        554        555        538        537        555        556        539        538        556        557        540        539        557        558        541        540        558        559        542        541        559        560        543        542        561        562        545        544        562        563        546        545        563        564        547        546        564        565        548        547        565        566        549        548        566        567        550        549        567        568        551        550        568        569        552        551        569        570        553        552        570        571        554        553        571        572        555        554        572        573        556        555        573        574        557        556        574        575        558        557        575        576        559        558        576        577        560        559        578        579        596        595        579        580        597        596        580        581        598        597        581        582        599        598        582        583        600        599        583        584        601        600        584        585        602        601        585        586        603        602        586        587        604        603        587        588        605        604        588        589        606        605        589        590        607        606        590        591        608        607        591        592        609        608        592        593        610        609        593        594        611        610        595        596        613        612        596        597        614        613        597        598        615        614        598        599        616        615        599        600        617        616        600        601        618        617        601        602        619        618        602        603        620        619        603        604        621        620        604        605        622        621        605        606        623        622        606        607        624        623        607        608        625        624        608        609        626        625        609        610        627        626        610        611        628        627        612        613        630        629        613        614        631        630        614        615        632        631        615        616        633        632        616        617        634        633        617        618        635        634        618        619        636        635        619        620        637        636        620        621        638        637        621        622        639        638        622        623        640        639        623        624        641        640        624        625        642        641        625        626        643        642        626        627        644        643        627        628        645        644        629        630        647        646        630        631        648        647        631        632        649        648        632        633        650        649        633        634        651        650        634        635        652        651        635        636        653        652        636        637        654        653        637        638        655        654        638        639        656        655        639        640        657        656        640        641        658        657        641        642        659        658        642        643        660        659        643        644        661        660        644        645        662        661        646        647        664        663        647        648        665        664        648        649        666        665        649        650        667        666        650        651        668        667        651        652        669        668        652        653        670        669        653        654        671        670        654        655        672        671        655        656        673        672        656        657        674        673        657        658        675        674        658        659        676        675        659        660        677        676        660        661        678        677        661        662        679        678        663        664        681        680        664        665        682        681        665        666        683        682        666        667        684        683        667        668        685        684        668        669        686        685        669        670        687        686        670        671        688        687        671        672        689        688        672        673        690        689        673        674        691        690        674        675        692        691        675        676        693        692        676        677        694        693        677        678        695        694        678        679        696        695        680        681        698        697        681        682        699        698        682        683        700        699        683        684        701        700        684        685        702        701        685        686        703        702        686        687        704        703        687        688        705        704        688        689        706        705        689        690        707        706        690        691        708        707        691        692        709        708        692        693        710        709        693        694        711        710        694        695        712        711        695        696        713        712        697        698        715        714        698        699        716        715        699        700        717        716        700        701        718        717        701        702        719        718        702        703        720        719        703        704        721        720        704        705        722        721        705        706        723        722        706        707        724        723        707        708        725        724        708        709        726        725        709        710        727        726        710        711        728        727        711        712        729        728        712        713        730        729        714        715        732        731        715        716        733        732        716        717        734        733        717        718        735        734        718        719        736        735        719        720        737        736        720        721        738        737        721        722        739        738        722        723        740        739        723        724        741        740        724        725        742        741        725        726        743        742        726        727        744        743        727        728        745        744        728        729        746        745        729        730        747        746        731        732        749        748        732        733        750        749        733        734        751        750        734        735        752        751        735        736        753        752        736        737        754        753        737        738        755        754        738        739        756        755        739        740        757        756        740        741        758        757        741        742        759        758        742        743        760        759        743        744        761        760        744        745        762        761        745        746        763        762        746        747        764        763        748        749        766        765        749        750        767        766        750        751        768        767        751        752        769        768        752        753        770        769        753        754        771        770        754        755        772        771        755        756        773        772        756        757        774        773        757        758        775        774        758        759        776        775        759        760        777        776        760        761        778        777        761        762        779        778        762        763        780        779        763        764        781        780        765        766        783        782        766        767        784        783        767        768        785        784        768        769        786        785        769        770        787        786        770        771        788        787        771        772        789        788        772        773        790        789        773        774        791        790        774        775        792        791        775        776        793        792        776        777        794        793        777        778        795        794        778        779        796        795        779        780        797        796        780        781        798        797        782        783        800        799        783        784        801        800        784        785        802        801        785        786        803        802        786        787        804        803        787        788        805        804        788        789        806        805        789        790        807        806        790        791        808        807        791        792        809        808        792        793        810        809        793        794        811        810        794        795        812        811        795        796        813        812        796        797        814        813        797        798        815        814        799        800        817        816        800        801        818        817        801        802        819        818        802        803        820        819        803        804        821        820        804        805        822        821        805        806        823        822        806        807        824        823        807        808        825        824        808        809        826        825        809        810        827        826        810        811        828        827        811        812        829        828        812        813        830        829        813        814        831        830        814        815        832        831        816        817        834        833        817        818        835        834        818        819        836        835        819        820        837        836        820        821        838        837        821        822        839        838        822        823        840        839        823        824        841        840        824        825        842        841        825        826        843        842        826        827        844        843        827        828        845        844        828        829        846        845        829        830        847        846        830        831        848        847        831        832        849        848        833        834        562        561        834        835        563        562        835        836        564        563        836        837        565        564        837        838        566        565        838        839        567        566        839        840        568        567        840        841        569        568        841        842        570        569        842        843        571        570        843        844        572        571        844        845        573        572        845        846        574        573        846        847        575        574        847        848        576        575        848        849        577        576        884        885        579        578        885        886        580        579        886        887        581        580        887        888        582        581        888        889        583        582        889        890        584        583        890        891        585        584        891        892        586        585        892        893        587        586        893        894        588        587        894        895        589        588        895        896        590        589        896        897        591        590        897        898        592        591        898        899        593        592        899        900        594        593        901        902        885        884        902        903        886        885        903        904        887        886        904        905        888        887        905        906        889        888        906        907        890        889        907        908        891        890        908        909        892        891        909        910        893        892        910        911        894        893        911        912        895        894        912        913        896        895        913        914        897        896        914        915        898        897        915        916        899        898        916        917        900        899        918        919        902        901        919        920        903        902        920        921        904        903        921        922        905        904        922        923        906        905        923        924        907        906        924        925        908        907        925        926        909        908        926        927        910        909        927        928        911        910        928        929        912        911        929        930        913        912        930        931        914        913        931        932        915        914        932        933        916        915        933        934        917        916        935        936        919        918        936        937        920        919        937        938        921        920        938        939        922        921        939        940        923        922        940        941        924        923        941        942        925        924        942        943        926        925        943        944        927        926        944        945        928        927        945        946        929        928        946        947        930        929        947        948        931        930        948        949        932        931        949        950        933        932        950        951        934        933        952        953        936        935        953        954        937        936        954        955        938        937        955        956        939        938        956        957        940        939        957        958        941        940        958        959        942        941        959        960        943        942        960        961        944        943        961        962        945        944        962        963        946        945        963        964        947        946        964        965        948        947        965        966        949        948        966        967        950        949        967        968        951        950        969        970        953        952        970        971        954        953        971        972        955        954        972        973        956        955        973        974        957        956        974        975        958        957        975        976        959        958        976        977        960        959        977        978        961        960        978        979        962        961        979        980        963        962        980        981        964        963        981        982        965        964        982        983        966        965        983        984        967        966        984        985        968        967        986        987        970        969        987        988        971        970        988        989        972        971        989        990        973        972        990        991        974        973        991        992        975        974        992        993        976        975        993        994        977        976        994        995        978        977        995        996        979        978        996        997        980        979        997        998        981        980        998        999        982        981        999       1000        983        982       1000       1001        984        983       1001       1002        985        984       1003       1004        987        986       1004       1005        988        987       1005       1006        989        988       1006       1007        990        989       1007       1008        991        990       1008       1009        992        991       1009       1010        993        992       1010       1011        994        993       1011       1012        995        994       1012       1013        996        995       1013       1014        997        996       1014       1015        998        997       1015       1016        999        998       1016       1017       1000        999       1017       1018       1001       1000       1018       1019       1002       1001       1020       1021       1004       1003       1021       1022       1005       1004       1022       1023       1006       1005       1023       1024       1007       1006       1024       1025       1008       1007       1025       1026       1009       1008       1026       1027       1010       1009       1027       1028       1011       1010       1028       1029       1012       1011       1029       1030       1013       1012       1030       1031       1014       1013       1031       1032       1015       1014       1032       1033       1016       1015       1033       1034       1017       1016       1034       1035       1018       1017       1035       1036       1019       1018       1037       1038       1021       1020       1038       1039       1022       1021       1039       1040       1023       1022       1040       1041       1024       1023       1041       1042       1025       1024       1042       1043       1026       1025       1043       1044       1027       1026       1044       1045       1028       1027       1045       1046       1029       1028       1046       1047       1030       1029       1047       1048       1031       1030       1048       1049       1032       1031       1049       1050       1033       1032       1050       1051       1034       1033       1051       1052       1035       1034       1052       1053       1036       1035       1054       1055       1038       1037       1055       1056       1039       1038       1056       1057       1040       1039       1057       1058       1041       1040       1058       1059       1042       1041       1059       1060       1043       1042       1060       1061       1044       1043       1061       1062       1045       1044       1062       1063       1046       1045       1063       1064       1047       1046       1064       1065       1048       1047       1065       1066       1049       1048       1066       1067       1050       1049       1067       1068       1051       1050       1068       1069       1052       1051       1069       1070       1053       1052       1071       1072       1055       1054       1072       1073       1056       1055       1073       1074       1057       1056       1074       1075       1058       1057       1075       1076       1059       1058       1076       1077       1060       1059       1077       1078       1061       1060       1078       1079       1062       1061       1079       1080       1063       1062       1080       1081       1064       1063       1081       1082       1065       1064       1082       1083       1066       1065       1083       1084       1067       1066       1084       1085       1068       1067       1085       1086       1069       1068       1086       1087       1070       1069       1088       1089       1072       1071       1089       1090       1073       1072       1090       1091       1074       1073       1091       1092       1075       1074       1092       1093       1076       1075       1093       1094       1077       1076       1094       1095       1078       1077       1095       1096       1079       1078       1096       1097       1080       1079       1097       1098       1081       1080       1098       1099       1082       1081       1099       1100       1083       1082       1100       1101       1084       1083       1101       1102       1085       1084       1102       1103       1086       1085       1103       1104       1087       1086       1105       1106       1089       1088       1106       1107       1090       1089       1107       1108       1091       1090       1108       1109       1092       1091       1109       1110       1093       1092       1110       1111       1094       1093       1111       1112       1095       1094       1112       1113       1096       1095       1113       1114       1097       1096       1114       1115       1098       1097       1115       1116       1099       1098       1116       1117       1100       1099       1117       1118       1101       1100       1118       1119       1102       1101       1119       1120       1103       1102       1120       1121       1104       1103       1122       1123       1106       1105       1123       1124       1107       1106       1124       1125       1108       1107       1125       1126       1109       1108       1126       1127       1110       1109       1127       1128       1111       1110       1128       1129       1112       1111       1129       1130       1113       1112       1130       1131       1114       1113       1131       1132       1115       1114       1132       1133       1116       1115       1133       1134       1117       1116       1134       1135       1118       1117       1135       1136       1119       1118       1136       1137       1120       1119       1137       1138       1121       1120        272        273       1123       1122        273        274       1124       1123        274        275       1125       1124        275        276       1126       1125        276        277       1127       1126        277        278       1128       1127        278        279       1129       1128        279        280       1130       1129        280        281       1131       1130        281        282       1132       1131        282        283       1133       1132        283        284       1134       1133        284        285       1135       1134        285        286       1136       1135        286        287       1137       1136        287        288       1138       1137 </DataArray>
<DataArray type="Int32"                                    Name="offsets"                                                      NumberOfComponents=" 1" format="ascii">
         4          8         12         16         20         24         28         32         36         40         44         48         52         56         60         64         68         72         76         80         84         88         92         96        100        104        108        112        116        120        124        128        132        136        140        144        148        152        156        160        164        168        172        176        180        184        188        192        196        200        204        208        212        216        220        224        228        232        236        240        244        248        252        256        260        264        268        272        276        280        284        288        292        296        300        304        308        312        316        320        324        328        332        336        340        344        348        352        356        360        364        368        372        376        380        384        388        392        396        400        404        408        412        416        420        424        428        432        436        440        444        448        452        456        460        464        468        472        476        480        484        488        492        496        500        504        508        512        516        520        524        528        532        536        540        544        548        552        556        560        564        568        572        576        580        584        588        592        596        600        604        608        612        616        620        624        628        632        636        640        644        648        652        656        660        664        668        672        676        680        684        688        692        696        700        704        708        712        716        720        724        728        732        736        740        744        748        752        756        760        764        768        772        776        780        784        788        792        796        800        804        808        812        816        820        824        828        832        836        840        844        848        852        856        860        864        868        872        876        880        884        888        892        896        900        904        908        912        916        920        924        928        932        936        940        944        948        952        956        960        964        968        972        976        980        984        988        992        996       1000       1004       1008       1012       1016       1020       1024       1028       1032       1036       1040       1044       1048       1052       1056       1060       1064       1068       1072       1076       1080       1084       1088       1092       1096       1100       1104       1108       1112       1116       1120       1124       1128       1132       1136       1140       1144       1148       1152       1156       1160       1164       1168       1172       1176       1180       1184       1188       1192       1196       1200       1204       1208       1212       1216       1220       1224       1228       1232       1236       1240       1244       1248       1252       1256       1260       1264       1268       1272       1276       1280       1284       1288       1292       1296       1300       1304       1308       1312       1316       1320       1324       1328       1332       1336       1340       1344       1348       1352       1356       1360       1364       1368       1372       1376       1380       1384       1388       1392       1396       1400       1404       1408       1412       1416       1420       1424       1428       1432       1436       1440       1444       1448       1452       1456       1460       1464       1468       1472       1476       1480       1484       1488       1492       1496       1500       1504       1508       1512       1516       1520       1524       1528       1532       1536       1540       1544       1548       1552       1556       1560       1564       1568       1572       1576       1580       1584       1588       1592       1596       1600       1604       1608       1612       1616       1620       1624       1628       1632       1636       1640       1644       1648       1652       1656       1660       1664       1668       1672       1676       1680       1684       1688       1692       1696       1700       1704       1708       1712       1716       1720       1724       1728       1732       1736       1740       1744       1748       1752       1756       1760       1764       1768       1772       1776       1780       1784       1788       1792       1796       1800       1804       1808       1812       1816       1820       1824       1828       1832       1836       1840       1844       1848       1852       1856       1860       1864       1868       1872       1876       1880       1884       1888       1892       1896       1900       1904       1908       1912       1916       1920       1924       1928       1932       1936       1940       1944       1948       1952       1956       1960       1964       1968       1972       1976       1980       1984       1988       1992       1996       2000       2004       2008       2012       2016       2020       2024       2028       2032       2036       2040       2044       2048       2052       2056       2060       2064       2068       2072       2076       2080       2084       2088       2092       2096       2100       2104       2108       2112       2116       2120       2124       2128       2132       2136       2140       2144       2148       2152       2156       2160       2164       2168       2172       2176       2180       2184       2188       2192       2196       2200       2204       2208       2212       2216       2220       2224       2228       2232       2236       2240       2244       2248       2252       2256       2260       2264       2268       2272       2276       2280       2284       2288       2292       2296       2300       2304       2308       2312       2316       2320       2324       2328       2332       2336       2340       2344       2348       2352       2356       2360       2364       2368       2372       2376       2380       2384       2388       2392       2396       2400       2404       2408       2412       2416       2420       2424       2428       2432       2436       2440       2444       2448       2452       2456       2460       2464       2468       2472       2476       2480       2484       2488       2492       2496       2500       2504       2508       2512       2516       2520       2524       2528       2532       2536       2540       2544       2548       2552       2556       2560       2564       2568       2572       2576       2580       2584       2588       2592       2596       2600       2604       2608       2612       2616       2620       2624       2628       2632       2636       2640       2644       2648       2652       2656       2660       2664       2668       2672       2676       2680       2684       2688       2692       2696       2700       2704       2708       2712       2716       2720       2724       2728       2732       2736       2740       2744       2748       2752       2756       2760       2764       2768       2772       2776       2780       2784       2788       2792       2796       2800       2804       2808       2812       2816       2820       2824       2828       2832       2836       2840       2844       2848       2852       2856       2860       2864       2868       2872       2876       2880       2884       2888       2892       2896       2900       2904       2908       2912       2916       2920       2924       2928       2932       2936       2940       2944       2948       2952       2956       2960       2964       2968       2972       2976       2980       2984       2988       2992       2996       3000       3004       3008       3012       3016       3020       3024       3028       3032       3036       3040       3044       3048       3052       3056       3060       3064       3068       3072       3076       3080       3084       3088       3092       3096       3100       3104       3108       3112       3116       3120       3124       3128       3132       3136       3140       3144       3148       3152       3156       3160       3164       3168       3172       3176       3180       3184       3188       3192       3196       3200       3204       3208       3212       3216       3220       3224       3228       3232       3236       3240       3244       3248       3252       3256       3260       3264       3268       3272       3276       3280       3284       3288       3292       3296       3300       3304       3308       3312       3316       3320       3324       3328       3332       3336       3340       3344       3348       3352       3356       3360       3364       3368       3372       3376       3380       3384       3388       3392       3396       3400       3404       3408       3412       3416       3420       3424       3428       3432       3436       3440       3444       3448       3452       3456       3460       3464       3468       3472       3476       3480       3484       3488       3492       3496       3500       3504       3508       3512       3516       3520       3524       3528       3532       3536       3540       3544       3548       3552       3556       3560       3564       3568       3572       3576       3580       3584       3588       3592       3596       3600       3604       3608       3612       3616       3620       3624       3628       3632       3636       3640       3644       3648       3652       3656       3660       3664       3668       3672       3676       3680       3684       3688       3692       3696       3700       3704       3708       3712       3716       3720       3724       3728       3732       3736       3740       3744       3748       3752       3756       3760       3764       3768       3772       3776       3780       3784       3788       3792       3796       3800       3804       3808       3812       3816       3820       3824       3828       3832       3836       3840       3844       3848       3852       3856       3860       3864       3868       3872       3876       3880       3884       3888       3892       3896       3900       3904       3908       3912       3916       3920       3924       3928       3932       3936       3940       3944       3948       3952       3956       3960       3964       3968       3972       3976       3980       3984       3988       3992       3996       4000       4004       4008       4012       4016       4020       4024       4028       4032       4036       4040       4044       4048       4052       4056       4060       4064       4068       4072       4076       4080       4084       4088       4092       4096 </DataArray>
<DataArray type="UInt8"                                    Name="types"                                                      NumberOfComponents=" 1" format="ascii">
         9          9          9          9          9          9          9          9          9          9          9          9          9          9          9          9          9          9          9          9          9          9          9          9          9          9          9          9          9          9          9          9          9          9          9          9          9          9          9          9          9          9          9          9          9          9          9          9          9          9          9          9          9          9          9          9          9          9          9          9          9          9          9          9          9          9          9          9          9          9          9          9          9          9          9          9          9          9          9          9          9          9          9          9          9          9          9          9          9          9          9          9          9          9          9          9          9          9          9          9          9          9          9          9          9          9          9          9          9          9          9          9          9          9          9          9          9          9          9          9          9          9          9          9          9          9          9          9          9          9          9          9          9          9          9          9          9          9          9          9          9          9          9          9          9          9          9          9          9          9          9          9          9          9          9          9          9          9          9          9          9          9          9          9          9          9          9          9          9          9          9          9          9          9          9          9          9          9          9          9          9          9          9          9          9          9          9          9          9          9          9          9          9          9          9          9          9          9          9          9          9          9          9          9          9          9          9          9          9          9          9          9          9          9          9          9          9          9          9          9          9          9          9          9          9          9          9          9          9          9          9          9          9          9          9          9          9          9          9          9          9          9          9          9          9          9          9          9          9          9          9          9          9          9          9          9          9          9          9          9          9          9          9          9          9          9          9          9          9          9          9          9          9          9          9          9          9          9          9          9          9          9          9          9          9          9          9          9          9          9          9          9          9          9          9          9          9          9          9          9          9          9          9          9          9          9          9          9          9          9          9          9          9          9          9          9          9          9          9          9          9          9          9          9          9          9          9          9          9          9          9          9          9          9          9          9          9          9          9          9          9          9          9          9          9          9          9          9          9          9          9          9          9          9          9          9          9          9          9          9          9          9          9          9          9          9          9          9          9          9          9          9          9          9          9          9          9          9          9          9          9          9          9          9          9          9          9          9          9          9          9          9          9          9          9          9          9          9          9          9          9          9          9          9          9          9          9          9          9          9          9          9          9          9          9          9          9          9          9          9          9          9          9          9          9          9          9          9          9          9          9          9          9          9          9          9          9          9          9          9          9          9          9          9          9          9          9          9          9          9          9          9          9          9          9          9          9          9          9          9          9          9          9          9          9          9          9          9          9          9          9          9          9          9          9          9          9          9          9          9          9          9          9          9          9          9          9          9          9          9          9          9          9          9          9          9          9          9          9          9          9          9          9          9          9          9          9          9          9          9          9          9          9          9          9          9          9          9          9          9          9          9          9          9          9          9          9          9          9          9          9          9          9          9          9          9          9          9          9          9          9          9          9          9          9          9          9          9          9          9          9          9          9          9          9          9          9          9          9          9          9          9          9          9          9          9          9          9          9          9          9          9          9          9          9          9          9          9          9          9          9          9          9          9          9          9          9          9          9          9          9          9          9          9          9          9          9          9          9          9          9          9          9          9          9          9          9          9          9          9          9          9          9          9          9          9          9          9          9          9          9          9          9          9          9          9          9          9          9          9          9          9          9          9          9          9          9          9          9          9          9          9          9          9          9          9          9          9          9          9          9          9          9          9          9          9          9          9          9          9          9          9          9          9          9          9          9          9          9          9          9          9          9          9          9          9          9          9          9          9          9          9          9          9          9          9          9          9          9          9          9          9          9          9          9          9          9          9          9          9          9          9          9          9          9          9          9          9          9          9          9          9          9          9          9          9          9          9          9          9          9          9          9          9          9          9          9          9          9          9          9          9          9          9          9          9          9          9          9          9          9          9          9          9          9          9          9          9          9          9          9          9          9          9          9          9          9          9          9          9          9          9          9          9          9          9          9          9          9          9          9          9          9          9          9          9          9          9          9          9          9          9          9          9          9          9          9          9          9          9          9          9          9          9          9          9          9          9          9          9          9          9          9          9          9          9          9          9          9          9          9          9          9          9          9          9          9          9          9          9          9          9          9          9          9          9          9          9          9          9          9          9          9          9          9          9          9          9          9          9          9          9          9          9          9          9          9          9          9          9          9          9          9          9          9          9          9          9          9          9          9          9          9          9          9          9          9          9          9          9          9          9          9          9          9          9          9          9          9          9          9          9          9          9          9          9          9          9          9          9          9          9          9          9          9          9          9          9          9          9          9          9          9          9          9          9          9          9          9          9          9          9          9          9          9          9          9          9          9          9          9          9          9          9          9          9          9          9          9          9          9          9          9          9          9          9          9          9          9          9          9          9          9          9          9          9          9          9          9          9          9          9          9          9          9          9          9          9          9          9          9          9          9          9          9          9          9          9          9          9          9          9          9          9          9          9          9          9          9          9          9          9          9          9          9          9          9          9          9          9          9          9          9          9          9          9          9          9          9          9          9          9          9          9          9          9          9          9          9          9          9          9          9          9          9          9          9          9          9          9          9          9          9          9 </DataArray>
</Cells>
<CellData>
<DataArray type="Int32"                                    Name="material"                                                      NumberOfComponents=" 1" format="ascii">
         1          1          1          1          1          1          1          1          1          1          1          1          1          1          1          1          1          1          1          1          1          1          1          1          1          1          1          1          1          1          1          1          1          1          1          1          1          1          1          1          1          1          1          1          1          1          1          1          1          1          1          1          1          1          1          1          1          1          1          1          1          1          1          1          1          1          1          1          1          1          1          1          1          1          1          1          1          1          1          1          1          1          1          1          1          1          1          1          1          1          1          1          1          1          1          1          1          1          1          1          1          1          1          1          1          1          1          1          1          1          1          1          1          1          1          1          1          1          1          1          1          1          1          1          1          1          1          1          1          1          1          1          1          1          1          1          1          1          1          1          1          1          1          1          1          1          1          1          1          1          1          1          1          1          1          1          1          1          1          1          1          1          1          1          1          1          1          1          1          1          1          1          1          1          1          1          1          1          1          1          1          1          1          1          1          1          1          1          1          1          1          1          1          1          1          1          1          1          1          1          1          1          1          1          1          1          1          1          1          1          1          1          1          1          1          1          1          1          1          1          1          1          1          1          1          1          1          1          1          1          1          1          1          1          1          1          1          1          1          1          1          1          1          1          1          1          1          1          1          1          1          1          1          1          1          1          1          1          1          1          1          1          1          1          1          1          1          1          1          1          1          1          1          1          1          1          1          1          1          1          1          1          1          1          1          1          1          1          1          1          1          1          1          1          1          1          1          1          1          1          1          1          1          1          1          1          1          1          1          1          1          1          1          1          1          1          1          1          1          1          1          1          1          1          1          1          1          1          1          1          1          1          1          1          1          1          1          1          1          1          1          1          1          1          1          1          1          1          1          1          1          1          1          1          1          1          1          1          1          1          1          1          1          1          1          1          1          1          1          1          1          1          1          1          1          1          1          1          1          1          1          1          1          1          1          1          1          1          1          1          1          1          1          1          1          1          1          1          1          1          1          1          1          1          1          1          1          1          1          1          1          1          1          1          1          1          1          1          1          1          1          1          1          1          1          1          1          1          1          1          1          1          1          1          1          1          1          1          1          1          1          1          1          1          1          1          1          1          1          1          1          1          1          1          1          1          1          1          1          1          1          1          1          1          1          1          1          1          1          1          1          1          1          1          1          1          1          1          1          1          1          1          1          1          1          1          1          1          1          1          1          1          1          1          1          1          1          1          1          1          1          1          1          1          1          1          1          1          1          1          1          1          1          1          1          1          1          1          1          1          1          1          1          1          1          1          1          1          1          1          1          1          1          1          1          1          1          1          1          1          1          1          1          1          1          1          1          1          1          1          1          1          1          1          1          1          1          1          1          1          1          1          1          1          1          1          1          1          1          1          1          1          1          1          1          1          1          1          1          1          1          1          1          1          1          1          1          1          1          1          1          1          1          1          1          1          1          1          1          1          1          1          1          1          1          1          1          1          1          1          1          1          1          1          1          1          1          1          1          1          1          1          1          1          1          1          1          1          1          1          1          1          1          1          1          1          1          1          1          1          1          1          1          1          1          1          1          1          1          1          1          1          1          1          1          1          1          1          1          1          1          1          1          1          1          1          1          1          1          1          1          1          1          1          1          1          1          1          1          1          1          1          1          1          1          1          1          1          1          1          1          1          1          1          1          1          1          1          1          1          1          1          1          1          1          1          1          1          1          1          1          1          1          1          1          1          1          1          1          1          1          1          1          1          1          1          1          1          1          1          1          1          1          1          1          1          1          1          1          1          1          1          1          1          1          1          1          1          1          1          1          1          1          1          1          1          1          1          1          1          1          1          1          1          1          1          1          1          1          1          1          1          1          1          1          1          1          1          1          1          1          1          1          1          1          1          1          1          1          1          1          1          1          1          1          1          1          1          1          1          1          1          1          1          1          1          1          1          1          1          1          1          1          1          1          1          1          1          1          1          1          1          1          1          1          1          1          1          1          1          1          1          1          1          1          1          1          1          1          1          1          1          1          1          1          1          1          1          1          1          1          1          1          1          1          1          1          1          1          1          1          1          1          1          1          1          1          1          1          1          1          1          1          1          1          1          1          1          1          1          1          1          1          1          1          1          1          1          1          1          1          1          1          1          1          1          1          1          1          1          1          1          1          1          1          1          1          1          1          1          1          1          1          1          1          1          1          1          1          1          1          1          1          1          1          1          1          1          1          1          1          1          1          1          1          1          1          1          1          1          1          1          1          1          1          1          1          1          1          1          1          1          1          1          1          1          1          1          1          1          1          1          1          1          1          1          1          1          1          1          1          1          1          1          1          1          1          1          1          1          1          1          1          1          1          1          1          1          1          1          1          1          1          1          1          1          1          1          1          1          1          1          1          1          1          1          1          1          1          1          1          1          1          1          1          1          1          1          1          1          1          1          1          1 </DataArray>
</CellData>
<PointData>
<DataArray type="Float64"                                    Name="u"                                                      NumberOfComponents=" 3" format="ascii">
             -0.000808296               0.000000000               0.999999989              -0.000852426              -0.000000000               0.999999989              -0.000870989               0.000000000               0.999999989              -0.000881274               0.000000000               0.999999989              -0.000889581               0.000000000               0.999999989              -0.000897966               0.000000000               0.999999989              -0.000907107               0.000000000               0.999999989              -0.000916966               0.000000000               0.999999989              -0.000927234              -0.000000000               0.999999989              -0.000937706               0.000000000               0.999999989              -0.000948273               0.000000000               0.999999989              -0.000958517               0.000000000               0.999999989              -0.000968071               0.000000000               0.999999989              -0.000976611               0.000000000               0.999999989              -0.000983673               0.000000000               0.999999989              -0.000988842               0.000000000               0.999999989              -0.000991348               0.000000000               0.999999989              -0.000803750               0.000115546               0.999999989              -0.000844117               0.000091466               0.999999989              -0.000860330               0.000080216               0.999999989              -0.000869075               0.000075215               0.999999989              -0.000876212               0.000073371               0.999999989              -0.000883694               0.000073121               0.999999989              -0.000892066               0.000073224               0.999999989              -0.000901139               0.000073119               0.999999989              -0.000910617               0.000072374               0.999999989              -0.000920152               0.000070802               0.999999989              -0.000929428               0.000068157               0.999999989              -0.000938193               0.000064088               0.999999989              -0.000946064               0.000058240               0.999999989              -0.000952701               0.000050271               0.999999989              -0.000957752               0.000039618               0.999999989              -0.000960718               0.000025562               0.999999989              -0.000961000               0.000006808               0.999999989              -0.000790397               0.000230065               0.999999989              -0.000819753               0.000182667               0.999999989              -0.000829118               0.000161306               0.999999989              -0.000833514               0.000152268               0.999999989              -0.000837681               0.000149328               0.999999989              -0.000842879               0.000149206               0.999999989              -0.000849139               0.000149810               0.999999989              -0.000855998               0.000149808               0.999999989              -0.000862962               0.000148475               0.999999989              -0.000869609               0.000145379               0.999999989              -0.000875452               0.000139980               0.999999989              -0.000880222               0.000131912               0.999999989              -0.000883550               0.000120627               0.999999989              -0.000885078               0.000105367               0.999999989              -0.000884499               0.000085238               0.999999989              -0.000881426               0.000059044               0.999999989              -0.000875670               0.000025670               0.999999989              -0.000768490               0.000342599               0.999999989              -0.000780500               0.000273357               0.999999989              -0.000779921               0.000244024               0.999999989              -0.000778487               0.000232643               0.999999989              -0.000778847               0.000229618               0.999999989              -0.000780963               0.000230300               0.999999989              -0.000784278               0.000231766               0.999999989              -0.000787925               0.000232049               0.999999989              -0.000791193               0.000230140               0.999999989              -0.000793502               0.000225518               0.999999989              -0.000794313               0.000217591               0.999999989              -0.000793253               0.000205705               0.999999989              -0.000789896               0.000189385               0.999999989              -0.000783924               0.000167642               0.999999989              -0.000775075               0.000139638               0.999999989              -0.000763379               0.000104723               0.999999989              -0.000749214               0.000062333               0.999999989              -0.000738388               0.000452172               0.999999989              -0.000728431               0.000363544               0.999999989              -0.000716834               0.000328886               0.999999989              -0.000709484               0.000316987               0.999999989              -0.000706152               0.000315014               0.999999989              -0.000705299               0.000316960               0.999999989              -0.000705442               0.000319375               0.999999989              -0.000705346               0.000319881               0.999999989              -0.000704060               0.000317465               0.999999989              -0.000700845               0.000311416               0.999999989              -0.000695187               0.000300968               0.999999989              -0.000686533               0.000285572               0.999999989              -0.000674561               0.000264598               0.999999989              -0.000659098               0.000237617               0.999999989              -0.000640372               0.000204135               0.999999989              -0.000618940               0.000164272               0.999999989              -0.000595658               0.000118681               0.999999989              -0.000700908               0.000557711               0.999999989              -0.000666246               0.000453369               0.999999989              -0.000644275               0.000415993               0.999999989              -0.000632328               0.000405021               0.999999989              -0.000626423               0.000404689               0.999999989              -0.000623058               0.000407978               0.999999989              -0.000620041               0.000411244               0.999999989              -0.000615839               0.000412024               0.999999989              -0.000609309               0.000409009               0.999999989              -0.000599646               0.000401345               0.999999989              -0.000586166               0.000388427               0.999999989              -0.000568481               0.000369660               0.999999989              -0.000546644               0.000344959               0.999999989              -0.000520998               0.000314110               0.999999989              -0.000492124               0.000277633               0.999999989              -0.000461031               0.000236234               0.999999989              -0.000428900               0.000191766               0.999999989              -0.000656682               0.000658274               0.999999989              -0.000596768               0.000542973               0.999999989              -0.000566866               0.000504965               0.999999989              -0.000552475               0.000495706               0.999999989              -0.000545172               0.000497154               0.999999989              -0.000539922               0.000501506               0.999999989              -0.000533869               0.000505501               0.999999989              -0.000525167               0.000506378               0.999999989              -0.000512615               0.000502525               0.999999989              -0.000495385               0.000493228               0.999999989              -0.000472924               0.000477745               0.999999989              -0.000445372               0.000456195               0.999999989              -0.000413070               0.000428760               0.999999989              -0.000376831               0.000395971               0.999999989              -0.000337718               0.000358548               0.999999989              -0.000296997               0.000318144               0.999999989              -0.000255782               0.000276745               0.999999989              -0.000606410               0.000752962               0.999999989              -0.000523316               0.000632119               0.999999989              -0.000488876               0.000595058               0.999999989              -0.000474450               0.000587483               0.999999989              -0.000466875               0.000590360               0.999999989              -0.000460066               0.000595555               0.999999989              -0.000450823               0.000599950               0.999999989              -0.000437107               0.000600655               0.999999989              -0.000417448               0.000595729               0.999999989              -0.000391388               0.000584651               0.999999989              -0.000358800               0.000567163               0.999999989              -0.000320195               0.000543868               0.999999989              -0.000276384               0.000515365               0.999999989              -0.000228806               0.000482489               0.999999989              -0.000178785               0.000446627               0.999999989              -0.000127842               0.000409614               0.999999989              -0.000077131               0.000372989               0.999999989              -0.000551761               0.000840049               0.999999989              -0.000448377               0.000720756               0.999999989              -0.000414171               0.000684985               0.999999989              -0.000401479               0.000678449               0.999999989              -0.000394317               0.000682305               0.999999989              -0.000385943               0.000688394               0.999999989              -0.000373074               0.000692859               0.999999989              -0.000353226               0.000692988               0.999999989              -0.000325193               0.000686975               0.999999989              -0.000288946               0.000674558               0.999999989              -0.000244824               0.000655809               0.999999989              -0.000193856               0.000631886               0.999999989              -0.000137504               0.000603970               0.999999989              -0.000077663               0.000573497               0.999999989              -0.000016141               0.000542050               0.999999989               0.000045475               0.000511046               0.999999989               0.000106415               0.000481304               0.999999989              -0.000494966               0.000922861               0.999999989              -0.000385243               0.000821049               0.999999989              -0.000348895               0.000782251               0.999999989              -0.000335683               0.000771705               0.999999989              -0.000329147               0.000773181               0.999999989              -0.000322522               0.000779007               0.999999989              -0.000312233               0.000785382               0.999999989              -0.000296203               0.000789749               0.999999989              -0.000272970               0.000790452               0.999999989              -0.000242211               0.000786450               0.999999989              -0.000203668               0.000777641               0.999999989              -0.000157641               0.000764305               0.999999989              -0.000105376               0.000747436               0.999999989              -0.000048047               0.000728057               0.999999989               0.000012796               0.000707290               0.999999989               0.000075428               0.000686351               0.999999989               0.000138516               0.000666274               0.999999989              -0.000432896               0.000998696               0.999999989              -0.000324328               0.000918549               0.999999989              -0.000285913               0.000882730               0.999999989              -0.000271604               0.000870290               0.999999989              -0.000265007               0.000870281               0.999999989              -0.000259298               0.000876125               0.999999989              -0.000251132               0.000884192               0.999999989              -0.000238320               0.000892061               0.999999989              -0.000219596               0.000898088               0.999999989              -0.000194045               0.000901296               0.999999989              -0.000161367               0.000900999               0.999999989              -0.000121292               0.000897189               0.999999989              -0.000074245               0.000890122               0.999999989              -0.000020958               0.000880721               0.999999989               0.000037282               0.000869712               0.999999989               0.000098868               0.000858263               0.999999989               0.000162223               0.000847162               0.999999989              -0.000366869               0.001065574               0.999999989              -0.000265697               0.001010290               0.999999989              -0.000227040               0.000981441               0.999999989              -0.000211560               0.000970347               0.999999989              -0.000204292               0.000970352               0.999999989              -0.000198840               0.000976929               0.999999989              -0.000192204               0.000986900               0.999999989              -0.000182155               0.000998003               0.999999989              -0.000167276               0.001008833               0.999999989              -0.000146479               0.001018311               0.999999989              -0.000119495               0.001025656               0.999999989              -0.000085690               0.001030380               0.999999989              -0.000045148               0.001032331               0.999999989               0.000002269               0.001031887               0.999999989               0.000056103               0.001029702               0.999999989               0.000115225               0.001026804               0.999999989               0.000178194               0.001023991               0.999999989              -0.000297610               0.001122064               0.999999989              -0.000209511               0.001092302               0.999999989              -0.000173080               0.001073387               0.999999989              -0.000157174               0.001066350               0.999999989              -0.000149231               0.001068338               0.999999989              -0.000143840               0.001076542               0.999999989              -0.000138270               0.001088791               0.999999989              -0.000130388               0.001103174               0.999999989              -0.000118768               0.001118550               0.999999989              -0.000102556               0.001133719               0.999999989              -0.000081017               0.001147874               0.999999989              -0.000053913               0.001160507               0.999999989              -0.000020500               0.001171202               0.999999989               0.000019817               0.001179773               0.999999989               0.000067524               0.001186536               0.999999989               0.000122449               0.001192094               0.999999989               0.000183857               0.001197353               0.999999989              -0.000225631               0.001167241               0.999999989              -0.000155442               0.001160705               0.999999989              -0.000124186               0.001153015               0.999999989              -0.000109411               0.001151694               0.999999989              -0.000101619               0.001156998               0.999999989              -0.000096558               0.001167771               0.999999989              -0.000091862               0.001182607               0.999999989              -0.000085696               0.001200412               0.999999989              -0.000077013               0.001220087               0.999999989              -0.000065038               0.001240540               0.999999989              -0.000049010               0.001260952               0.999999989              -0.000028570               0.001280789               0.999999989              -0.000002920               0.001299605               0.999999989               0.000029113               0.001317028               0.999999989               0.000068621               0.001332955               0.999999989               0.000116257               0.001347455               0.999999989               0.000172712               0.001360977               0.999999989              -0.000151574               0.001200175               0.999999989              -0.000102881               0.001212170               0.999999989              -0.000079861               0.001214724               0.999999989              -0.000068305               0.001219298               0.999999989              -0.000061983               0.001228296               0.999999989              -0.000057906               0.001241856               0.999999989              -0.000054281               0.001259394               0.999999989              -0.000049954               0.001280183               0.999999989              -0.000044058               0.001303421               0.999999989              -0.000036081               0.001328306               0.999999989              -0.000025435               0.001354108               0.999999989              -0.000011863               0.001380253               0.999999989               0.000005496               0.001406271               0.999999989               0.000027910               0.001431687               0.999999989               0.000056406               0.001456069               0.999999989               0.000092400               0.001479144               0.999999989               0.000137205               0.001500725               0.999999989              -0.000076126               0.001220173               0.999999989              -0.000051219               0.001244118               0.999999989              -0.000039001               0.001253861               0.999999989              -0.000032620               0.001262757               0.999999989              -0.000029097               0.001274706               0.999999989              -0.000026763               0.001290570               0.999999989              -0.000024759               0.001310101               0.999999989              -0.000022521               0.001332934               0.999999989              -0.000019518               0.001358574               0.999999989              -0.000015432               0.001386378               0.999999989              -0.000010158               0.001415737               0.999999989              -0.000003389               0.001446203               0.999999989               0.000005304               0.001477385               0.999999989               0.000016750               0.001508708               0.999999989               0.000031807               0.001539465               0.999999989               0.000051366               0.001569091               0.999999989               0.000076747               0.001596906               0.999999989              -0.000000000               0.001226873               0.999999989              -0.000000000               0.001254894               0.999999989              -0.000000000               0.001267267               0.999999989               0.000000000               0.001277886               0.999999989              -0.000000000               0.001290897               0.999999989              -0.000000000               0.001307516               0.999999989               0.000000000               0.001327804               0.999999989              -0.000000000               0.001351407               0.999999989               0.000000000               0.001377864               0.999999989              -0.000000000               0.001406605               0.999999989               0.000000000               0.001437174               0.999999989               0.000000000               0.001469284               0.999999989               0.000000000               0.001502509               0.999999989               0.000000000               0.001536243               0.999999989               0.000000000               0.001569706               0.999999989              -0.000000000               0.001602071               0.999999989              -0.000000000               0.001632344               0.999999989              -0.000808296               0.000000000               0.999999989              -0.000852426              -0.000000000               0.999999989              -0.000870989               0.000000000               0.999999989              -0.000881274               0.000000000               0.999999989              -0.000889581               0.000000000               0.999999989              -0.000897966               0.000000000               0.999999989              -0.000907107               0.000000000               0.999999989              -0.000916966               0.000000000               0.999999989              -0.000927234              -0.000000000               0.999999989              -0.000937706               0.000000000               0.999999989              -0.000948273               0.000000000               0.999999989              -0.000958517               0.000000000               0.999999989              -0.000968071               0.000000000               0.999999989              -0.000976611               0.000000000               0.999999989              -0.000983673               0.000000000               0.999999989              -0.000988842               0.000000000               0.999999989              -0.000991348               0.000000000               0.999999989              -0.000803750              -0.000115546               0.999999989              -0.000844117              -0.000091466               0.999999989              -0.000860330              -0.000080216               0.999999989              -0.000869075              -0.000075215               0.999999989              -0.000876212              -0.000073371               0.999999989              -0.000883694              -0.000073121               0.999999989              -0.000892066              -0.000073224               0.999999989              -0.000901139              -0.000073119               0.999999989              -0.000910617              -0.000072374               0.999999989              -0.000920152              -0.000070802               0.999999989              -0.000929428              -0.000068157               0.999999989              -0.000938193              -0.000064088               0.999999989              -0.000946064              -0.000058240               0.999999989              -0.000952701              -0.000050271               0.999999989              -0.000957752              -0.000039618               0.999999989              -0.000960718              -0.000025562               0.999999989              -0.000961000              -0.000006808               0.999999989              -0.000790397              -0.000230065               0.999999989              -0.000819753              -0.000182667               0.999999989              -0.000829118              -0.000161306               0.999999989              -0.000833514              -0.000152268               0.999999989              -0.000837681              -0.000149328               0.999999989              -0.000842879              -0.000149206               0.999999989              -0.000849139              -0.000149810               0.999999989              -0.000855998              -0.000149808               0.999999989              -0.000862962              -0.000148475               0.999999989              -0.000869609              -0.000145379               0.999999989              -0.000875452              -0.000139980               0.999999989              -0.000880222              -0.000131912               0.999999989              -0.000883550              -0.000120627               0.999999989              -0.000885078              -0.000105367               0.999999989              -0.000884499              -0.000085238               0.999999989              -0.000881426              -0.000059044               0.999999989              -0.000875670              -0.000025670               0.999999989              -0.000768490              -0.000342599               0.999999989              -0.000780500              -0.000273357               0.999999989              -0.000779921              -0.000244024               0.999999989              -0.000778487              -0.000232643               0.999999989              -0.000778847              -0.000229618               0.999999989              -0.000780963              -0.000230300               0.999999989              -0.000784278              -0.000231766               0.999999989              -0.000787925              -0.000232049               0.999999989              -0.000791193              -0.000230140               0.999999989              -0.000793502              -0.000225518               0.999999989              -0.000794313              -0.000217591               0.999999989              -0.000793253              -0.000205705               0.999999989              -0.000789896              -0.000189385               0.999999989              -0.000783924              -0.000167642               0.999999989              -0.000775075              -0.000139638               0.999999989              -0.000763379              -0.000104723               0.999999989              -0.000749214              -0.000062333               0.999999989              -0.000738388              -0.000452172               0.999999989              -0.000728431              -0.000363544               0.999999989              -0.000716834              -0.000328886               0.999999989              -0.000709484              -0.000316987               0.999999989              -0.000706152              -0.000315014               0.999999989              -0.000705299              -0.000316960               0.999999989              -0.000705442              -0.000319375               0.999999989              -0.000705346              -0.000319881               0.999999989              -0.000704060              -0.000317465               0.999999989              -0.000700845              -0.000311416               0.999999989              -0.000695187              -0.000300968               0.999999989              -0.000686533              -0.000285572               0.999999989              -0.000674561              -0.000264598               0.999999989              -0.000659098              -0.000237617               0.999999989              -0.000640372              -0.000204135               0.999999989              -0.000618940              -0.000164272               0.999999989              -0.000595658              -0.000118681               0.999999989              -0.000700908              -0.000557711               0.999999989              -0.000666246              -0.000453369               0.999999989              -0.000644275              -0.000415993               0.999999989              -0.000632328              -0.000405021               0.999999989              -0.000626423              -0.000404689               0.999999989              -0.000623058              -0.000407978               0.999999989              -0.000620041              -0.000411244               0.999999989              -0.000615839              -0.000412024               0.999999989              -0.000609309              -0.000409009               0.999999989              -0.000599646              -0.000401345               0.999999989              -0.000586166              -0.000388427               0.999999989              -0.000568481              -0.000369660               0.999999989              -0.000546644              -0.000344959               0.999999989              -0.000520998              -0.000314110               0.999999989              -0.000492124              -0.000277633               0.999999989              -0.000461031              -0.000236234               0.999999989              -0.000428900              -0.000191766               0.999999989              -0.000656682              -0.000658274               0.999999989              -0.000596768              -0.000542973               0.999999989              -0.000566866              -0.000504965               0.999999989              -0.000552475              -0.000495706               0.999999989              -0.000545172              -0.000497154               0.999999989              -0.000539922              -0.000501506               0.999999989              -0.000533869              -0.000505501               0.999999989              -0.000525167              -0.000506378               0.999999989              -0.000512615              -0.000502525               0.999999989              -0.000495385              -0.000493228               0.999999989              -0.000472924              -0.000477745               0.999999989              -0.000445372              -0.000456195               0.999999989              -0.000413070              -0.000428760               0.999999989              -0.000376831              -0.000395971               0.999999989              -0.000337718              -0.000358548               0.999999989              -0.000296997              -0.000318144               0.999999989              -0.000255782              -0.000276745               0.999999989              -0.000606410              -0.000752962               0.999999989              -0.000523316              -0.000632119               0.999999989              -0.000488876              -0.000595058               0.999999989              -0.000474450              -0.000587483               0.999999989              -0.000466875              -0.000590360               0.999999989              -0.000460066              -0.000595555               0.999999989              -0.000450823              -0.000599950               0.999999989              -0.000437107              -0.000600655               0.999999989              -0.000417448              -0.000595729               0.999999989              -0.000391388              -0.000584651               0.999999989              -0.000358800              -0.000567163               0.999999989              -0.000320195              -0.000543868               0.999999989              -0.000276384              -0.000515365               0.999999989              -0.000228806              -0.000482489               0.999999989              -0.000178785              -0.000446627               0.999999989              -0.000127842              -0.000409614               0.999999989              -0.000077131              -0.000372989               0.999999989              -0.000551761              -0.000840049               0.999999989              -0.000448377              -0.000720756               0.999999989              -0.000414171              -0.000684985               0.999999989              -0.000401479              -0.000678449               0.999999989              -0.000394317              -0.000682305               0.999999989              -0.000385943              -0.000688394               0.999999989              -0.000373074              -0.000692859               0.999999989              -0.000353226              -0.000692988               0.999999989              -0.000325193              -0.000686975               0.999999989              -0.000288946              -0.000674558               0.999999989              -0.000244824              -0.000655809               0.999999989              -0.000193856              -0.000631886               0.999999989              -0.000137504              -0.000603970               0.999999989              -0.000077663              -0.000573497               0.999999989              -0.000016141              -0.000542050               0.999999989               0.000045475              -0.000511046               0.999999989               0.000106415              -0.000481304               0.999999989              -0.000494966              -0.000922861               0.999999989              -0.000385243              -0.000821049               0.999999989              -0.000348895              -0.000782251               0.999999989              -0.000335683              -0.000771705               0.999999989              -0.000329147              -0.000773181               0.999999989              -0.000322522              -0.000779007               0.999999989              -0.000312233              -0.000785382               0.999999989              -0.000296203              -0.000789749               0.999999989              -0.000272970              -0.000790452               0.999999989              -0.000242211              -0.000786450               0.999999989              -0.000203668              -0.000777641               0.999999989              -0.000157641              -0.000764305               0.999999989              -0.000105376              -0.000747436               0.999999989              -0.000048047              -0.000728057               0.999999989               0.000012796              -0.000707290               0.999999989               0.000075428              -0.000686351               0.999999989               0.000138516              -0.000666274               0.999999989              -0.000432896              -0.000998696               0.999999989              -0.000324328              -0.000918549               0.999999989              -0.000285913              -0.000882730               0.999999989              -0.000271604              -0.000870290               0.999999989              -0.000265007              -0.000870281               0.999999989              -0.000259298              -0.000876125               0.999999989              -0.000251132              -0.000884192               0.999999989              -0.000238320              -0.000892061               0.999999989              -0.000219596              -0.000898088               0.999999989              -0.000194045              -0.000901296               0.999999989              -0.000161367              -0.000900999               0.999999989              -0.000121292              -0.000897189               0.999999989              -0.000074245              -0.000890122               0.999999989              -0.000020958              -0.000880721               0.999999989               0.000037282              -0.000869712               0.999999989               0.000098868              -0.000858263               0.999999989               0.000162223              -0.000847162               0.999999989              -0.000366869              -0.001065574               0.999999989              -0.000265697              -0.001010290               0.999999989              -0.000227040              -0.000981441               0.999999989              -0.000211560              -0.000970347               0.999999989              -0.000204292              -0.000970352               0.999999989              -0.000198840              -0.000976929               0.999999989              -0.000192204              -0.000986900               0.999999989              -0.000182155              -0.000998003               0.999999989              -0.000167276              -0.001008833               0.999999989              -0.000146479              -0.001018311               0.999999989              -0.000119495              -0.001025656               0.999999989              -0.000085690              -0.001030380               0.999999989              -0.000045148              -0.001032331               0.999999989               0.000002269              -0.001031887               0.999999989               0.000056103              -0.001029702               0.999999989               0.000115225              -0.001026804               0.999999989               0.000178194              -0.001023991               0.999999989              -0.000297610              -0.001122064               0.999999989              -0.000209511              -0.001092302               0.999999989              -0.000173080              -0.001073387               0.999999989              -0.000157174              -0.001066350               0.999999989              -0.000149231              -0.001068338               0.999999989              -0.000143840              -0.001076542               0.999999989              -0.000138270              -0.001088791               0.999999989              -0.000130388              -0.001103174               0.999999989              -0.000118768              -0.001118550               0.999999989              -0.000102556              -0.001133719               0.999999989              -0.000081017              -0.001147874               0.999999989              -0.000053913              -0.001160507               0.999999989              -0.000020500              -0.001171202               0.999999989               0.000019817              -0.001179773               0.999999989               0.000067524              -0.001186536               0.999999989               0.000122449              -0.001192094               0.999999989               0.000183857              -0.001197353               0.999999989              -0.000225631              -0.001167241               0.999999989              -0.000155442              -0.001160705               0.999999989              -0.000124186              -0.001153015               0.999999989              -0.000109411              -0.001151694               0.999999989              -0.000101619              -0.001156998               0.999999989              -0.000096558              -0.001167771               0.999999989              -0.000091862              -0.001182607               0.999999989              -0.000085696              -0.001200412               0.999999989              -0.000077013              -0.001220087               0.999999989              -0.000065038              -0.001240540               0.999999989              -0.000049010              -0.001260952               0.999999989              -0.000028570              -0.001280789               0.999999989              -0.000002920              -0.001299605               0.999999989               0.000029113              -0.001317028               0.999999989               0.000068621              -0.001332955               0.999999989               0.000116257              -0.001347455               0.999999989               0.000172712              -0.001360977               0.999999989              -0.000151574              -0.001200175               0.999999989              -0.000102881              -0.001212170               0.999999989              -0.000079861              -0.001214724               0.999999989              -0.000068305              -0.001219298               0.999999989              -0.000061983              -0.001228296               0.999999989              -0.000057906              -0.001241856               0.999999989              -0.000054281              -0.001259394               0.999999989              -0.000049954              -0.001280183               0.999999989              -0.000044058              -0.001303421               0.999999989              -0.000036081              -0.001328306               0.999999989              -0.000025435              -0.001354108               0.999999989              -0.000011863              -0.001380253               0.999999989               0.000005496              -0.001406271               0.999999989               0.000027910              -0.001431687               0.999999989               0.000056406              -0.001456069               0.999999989               0.000092400              -0.001479144               0.999999989               0.000137205              -0.001500725               0.999999989              -0.000076126              -0.001220173               0.999999989              -0.000051219              -0.001244118               0.999999989              -0.000039001              -0.001253861               0.999999989              -0.000032620              -0.001262757               0.999999989              -0.000029097              -0.001274706               0.999999989              -0.000026763              -0.001290570               0.999999989              -0.000024759              -0.001310101               0.999999989              -0.000022521              -0.001332934               0.999999989              -0.000019518              -0.001358574               0.999999989              -0.000015432              -0.001386378               0.999999989              -0.000010158              -0.001415737               0.999999989              -0.000003389              -0.001446203               0.999999989               0.000005304              -0.001477385               0.999999989               0.000016750              -0.001508708               0.999999989               0.000031807              -0.001539465               0.999999989               0.000051366              -0.001569091               0.999999989               0.000076747              -0.001596906               0.999999989              -0.000000000              -0.001226873               0.999999989              -0.000000000              -0.001254894               0.999999989               0.000000000              -0.001267267               0.999999989               0.000000000              -0.001277886               0.999999989               0.000000000              -0.001290897               0.999999989              -0.000000000              -0.001307516               0.999999989               0.000000000              -0.001327804               0.999999989               0.000000000              -0.001351407               0.999999989              -0.000000000              -0.001377864               0.999999989              -0.000000000              -0.001406605               0.999999989              -0.000000000              -0.001437174               0.999999989              -0.000000000              -0.001469284               0.999999989               0.000000000              -0.001502509               0.999999989              -0.000000000              -0.001536243               0.999999989              -0.000000000              -0.001569706               0.999999989               0.000000000              -0.001602071               0.999999989               0.000000000              -0.001632344               0.999999989               0.000808296              -0.000000000               0.999999989               0.000852426               0.000000000               0.999999989               0.000870989              -0.000000000               0.999999989               0.000881274               0.000000000               0.999999989               0.000889581               0.000000000               0.999999989               0.000897966               0.000000000               0.999999989               0.000907107               0.000000000               0.999999989               0.000916966               0.000000000               0.999999989               0.000927234              -0.000000000               0.999999989               0.000937706               0.000000000               0.999999989               0.000948273               0.000000000               0.999999989               0.000958517               0.000000000               0.999999989               0.000968071               0.000000000               0.999999989               0.000976611              -0.000000000               0.999999989               0.000983673              -0.000000000               0.999999989               0.000988842              -0.000000000               0.999999989               0.000991348               0.000000000               0.999999989               0.000803750              -0.000115546               0.999999989               0.000844117              -0.000091466               0.999999989               0.000860330              -0.000080216               0.999999989               0.000869075              -0.000075215               0.999999989               0.000876212              -0.000073371               0.999999989               0.000883694              -0.000073121               0.999999989               0.000892066              -0.000073224               0.999999989               0.000901139              -0.000073119               0.999999989               0.000910617              -0.000072374               0.999999989               0.000920152              -0.000070802               0.999999989               0.000929428              -0.000068157               0.999999989               0.000938193              -0.000064088               0.999999989               0.000946064              -0.000058240               0.999999989               0.000952701              -0.000050271               0.999999989               0.000957752              -0.000039618               0.999999989               0.000960718              -0.000025562               0.999999989               0.000961000              -0.000006808               0.999999989               0.000790397              -0.000230065               0.999999989               0.000819753              -0.000182667               0.999999989               0.000829118              -0.000161306               0.999999989               0.000833514              -0.000152268               0.999999989               0.000837681              -0.000149328               0.999999989               0.000842879              -0.000149206               0.999999989               0.000849139              -0.000149810               0.999999989               0.000855998              -0.000149808               0.999999989               0.000862962              -0.000148475               0.999999989               0.000869609              -0.000145379               0.999999989               0.000875452              -0.000139980               0.999999989               0.000880222              -0.000131912               0.999999989               0.000883550              -0.000120627               0.999999989               0.000885078              -0.000105367               0.999999989               0.000884499              -0.000085238               0.999999989               0.000881426              -0.000059044               0.999999989               0.000875670              -0.000025670               0.999999989               0.000768490              -0.000342599               0.999999989               0.000780500              -0.000273357               0.999999989               0.000779921              -0.000244024               0.999999989               0.000778487              -0.000232643               0.999999989               0.000778847              -0.000229618               0.999999989               0.000780963              -0.000230300               0.999999989               0.000784278              -0.000231766               0.999999989               0.000787925              -0.000232049               0.999999989               0.000791193              -0.000230140               0.999999989               0.000793502              -0.000225518               0.999999989               0.000794313              -0.000217591               0.999999989               0.000793253              -0.000205705               0.999999989               0.000789896              -0.000189385               0.999999989               0.000783924              -0.000167642               0.999999989               0.000775075              -0.000139638               0.999999989               0.000763379              -0.000104723               0.999999989               0.000749214              -0.000062333               0.999999989               0.000738388              -0.000452172               0.999999989               0.000728431              -0.000363544               0.999999989               0.000716834              -0.000328886               0.999999989               0.000709484              -0.000316987               0.999999989               0.000706152              -0.000315014               0.999999989               0.000705299              -0.000316960               0.999999989               0.000705442              -0.000319375               0.999999989               0.000705346              -0.000319881               0.999999989               0.000704060              -0.000317465               0.999999989               0.000700845              -0.000311416               0.999999989               0.000695187              -0.000300968               0.999999989               0.000686533              -0.000285572               0.999999989               0.000674561              -0.000264598               0.999999989               0.000659098              -0.000237617               0.999999989               0.000640372              -0.000204135               0.999999989               0.000618940              -0.000164272               0.999999989               0.000595658              -0.000118681               0.999999989               0.000700908              -0.000557711               0.999999989               0.000666246              -0.000453369               0.999999989               0.000644275              -0.000415993               0.999999989               0.000632328              -0.000405021               0.999999989               0.000626423              -0.000404689               0.999999989               0.000623058              -0.000407978               0.999999989               0.000620041              -0.000411244               0.999999989               0.000615839              -0.000412024               0.999999989               0.000609309              -0.000409009               0.999999989               0.000599646              -0.000401345               0.999999989               0.000586166              -0.000388427               0.999999989               0.000568481              -0.000369660               0.999999989               0.000546644              -0.000344959               0.999999989               0.000520998              -0.000314110               0.999999989               0.000492124              -0.000277633               0.999999989               0.000461031              -0.000236234               0.999999989               0.000428900              -0.000191766               0.999999989               0.000656682              -0.000658274               0.999999989               0.000596768              -0.000542973               0.999999989               0.000566866              -0.000504965               0.999999989               0.000552475              -0.000495706               0.999999989               0.000545172              -0.000497154               0.999999989               0.000539922              -0.000501506               0.999999989               0.000533869              -0.000505501               0.999999989               0.000525167              -0.000506378               0.999999989               0.000512615              -0.000502525               0.999999989               0.000495385              -0.000493228               0.999999989               0.000472924              -0.000477745               0.999999989               0.000445372              -0.000456195               0.999999989               0.000413070              -0.000428760               0.999999989               0.000376831              -0.000395971               0.999999989               0.000337718              -0.000358548               0.999999989               0.000296997              -0.000318144               0.999999989               0.000255782              -0.000276745               0.999999989               0.000606410              -0.000752962               0.999999989               0.000523316              -0.000632119               0.999999989               0.000488876              -0.000595058               0.999999989               0.000474450              -0.000587483               0.999999989               0.000466875              -0.000590360               0.999999989               0.000460066              -0.000595555               0.999999989               0.000450823              -0.000599950               0.999999989               0.000437107              -0.000600655               0.999999989               0.000417448              -0.000595729               0.999999989               0.000391388              -0.000584651               0.999999989               0.000358800              -0.000567163               0.999999989               0.000320195              -0.000543868               0.999999989               0.000276384              -0.000515365               0.999999989               0.000228806              -0.000482489               0.999999989               0.000178785              -0.000446627               0.999999989               0.000127842              -0.000409614               0.999999989               0.000077131              -0.000372989               0.999999989               0.000551761              -0.000840049               0.999999989               0.000448377              -0.000720756               0.999999989               0.000414171              -0.000684985               0.999999989               0.000401479              -0.000678449               0.999999989               0.000394317              -0.000682305               0.999999989               0.000385943              -0.000688394               0.999999989               0.000373074              -0.000692859               0.999999989               0.000353226              -0.000692988               0.999999989               0.000325193              -0.000686975               0.999999989               0.000288946              -0.000674558               0.999999989               0.000244824              -0.000655809               0.999999989               0.000193856              -0.000631886               0.999999989               0.000137504              -0.000603970               0.999999989               0.000077663              -0.000573497               0.999999989               0.000016141              -0.000542050               0.999999989              -0.000045475              -0.000511046               0.999999989              -0.000106415              -0.000481304               0.999999989               0.000494966              -0.000922861               0.999999989               0.000385243              -0.000821049               0.999999989               0.000348895              -0.000782251               0.999999989               0.000335683              -0.000771705               0.999999989               0.000329147              -0.000773181               0.999999989               0.000322522              -0.000779007               0.999999989               0.000312233              -0.000785382               0.999999989               0.000296203              -0.000789749               0.999999989               0.000272970              -0.000790452               0.999999989               0.000242211              -0.000786450               0.999999989               0.000203668              -0.000777641               0.999999989               0.000157641              -0.000764305               0.999999989               0.000105376              -0.000747436               0.999999989               0.000048047              -0.000728057               0.999999989              -0.000012796              -0.000707290               0.999999989              -0.000075428              -0.000686351               0.999999989              -0.000138516              -0.000666274               0.999999989               0.000432896              -0.000998696               0.999999989               0.000324328              -0.000918549               0.999999989               0.000285913              -0.000882730               0.999999989               0.000271604              -0.000870290               0.999999989               0.000265007              -0.000870281               0.999999989               0.000259298              -0.000876125               0.999999989               0.000251132              -0.000884192               0.999999989               0.000238320              -0.000892061               0.999999989               0.000219596              -0.000898088               0.999999989               0.000194045              -0.000901296               0.999999989               0.000161367              -0.000900999               0.999999989               0.000121292              -0.000897189               0.999999989               0.000074245              -0.000890122               0.999999989               0.000020958              -0.000880721               0.999999989              -0.000037282              -0.000869712               0.999999989              -0.000098868              -0.000858263               0.999999989              -0.000162223              -0.000847162               0.999999989               0.000366869              -0.001065574               0.999999989               0.000265697              -0.001010290               0.999999989               0.000227040              -0.000981441               0.999999989               0.000211560              -0.000970347               0.999999989               0.000204292              -0.000970352               0.999999989               0.000198840              -0.000976929               0.999999989               0.000192204              -0.000986900               0.999999989               0.000182155              -0.000998003               0.999999989               0.000167276              -0.001008833               0.999999989               0.000146479              -0.001018311               0.999999989               0.000119495              -0.001025656               0.999999989               0.000085690              -0.001030380               0.999999989               0.000045148              -0.001032331               0.999999989              -0.000002269              -0.001031887               0.999999989              -0.000056103              -0.001029702               0.999999989              -0.000115225              -0.001026804               0.999999989              -0.000178194              -0.001023991               0.999999989               0.000297610              -0.001122064               0.999999989               0.000209511              -0.001092302               0.999999989               0.000173080              -0.001073387               0.999999989               0.000157174              -0.001066350               0.999999989               0.000149231              -0.001068338               0.999999989               0.000143840              -0.001076542               0.999999989               0.000138270              -0.001088791               0.999999989               0.000130388              -0.001103174               0.999999989               0.000118768              -0.001118550               0.999999989               0.000102556              -0.001133719               0.999999989               0.000081017              -0.001147874               0.999999989               0.000053913              -0.001160507               0.999999989               0.000020500              -0.001171202               0.999999989              -0.000019817              -0.001179773               0.999999989              -0.000067524              -0.001186536               0.999999989              -0.000122449              -0.001192094               0.999999989              -0.000183857              -0.001197353               0.999999989               0.000225631              -0.001167241               0.999999989               0.000155442              -0.001160705               0.999999989               0.000124186              -0.001153015               0.999999989               0.000109411              -0.001151694               0.999999989               0.000101619              -0.001156998               0.999999989               0.000096558              -0.001167771               0.999999989               0.000091862              -0.001182607               0.999999989               0.000085696              -0.001200412               0.999999989               0.000077013              -0.001220087               0.999999989               0.000065038              -0.001240540               0.999999989               0.000049010              -0.001260952               0.999999989               0.000028570              -0.001280789               0.999999989               0.000002920              -0.001299605               0.999999989              -0.000029113              -0.001317028               0.999999989              -0.000068621              -0.001332955               0.999999989              -0.000116257              -0.001347455               0.999999989              -0.000172712              -0.001360977               0.999999989               0.000151574              -0.001200175               0.999999989               0.000102881              -0.001212170               0.999999989               0.000079861              -0.001214724               0.999999989               0.000068305              -0.001219298               0.999999989               0.000061983              -0.001228296               0.999999989               0.000057906              -0.001241856               0.999999989               0.000054281              -0.001259394               0.999999989               0.000049954              -0.001280183               0.999999989               0.000044058              -0.001303421               0.999999989               0.000036081              -0.001328306               0.999999989               0.000025435              -0.001354108               0.999999989               0.000011863              -0.001380253               0.999999989              -0.000005496              -0.001406271               0.999999989              -0.000027910              -0.001431687               0.999999989              -0.000056406              -0.001456069               0.999999989              -0.000092400              -0.001479144               0.999999989              -0.000137205              -0.001500725               0.999999989               0.000076126              -0.001220173               0.999999989               0.000051219              -0.001244118               0.999999989               0.000039001              -0.001253861               0.999999989               0.000032620              -0.001262757               0.999999989               0.000029097              -0.001274706               0.999999989               0.000026763              -0.001290570               0.999999989               0.000024759              -0.001310101               0.999999989               0.000022521              -0.001332934               0.999999989               0.000019518              -0.001358574               0.999999989               0.000015432              -0.001386378               0.999999989               0.000010158              -0.001415737               0.999999989               0.000003389              -0.001446203               0.999999989              -0.000005304              -0.001477385               0.999999989              -0.000016750              -0.001508708               0.999999989              -0.000031807              -0.001539465               0.999999989              -0.000051366              -0.001569091               0.999999989              -0.000076747              -0.001596906               0.999999989              -0.000000000              -0.001226873               0.999999989              -0.000000000              -0.001254894               0.999999989               0.000000000              -0.001267267               0.999999989               0.000000000              -0.001277886               0.999999989               0.000000000              -0.001290897               0.999999989              -0.000000000              -0.001307516               0.999999989               0.000000000              -0.001327804               0.999999989               0.000000000              -0.001351407               0.999999989              -0.000000000              -0.001377864               0.999999989              -0.000000000              -0.001406605               0.999999989              -0.000000000              -0.001437174               0.999999989              -0.000000000              -0.001469284               0.999999989               0.000000000              -0.001502509               0.999999989              -0.000000000              -0.001536243               0.999999989              -0.000000000              -0.001569706               0.999999989               0.000000000              -0.001602071               0.999999989               0.000000000              -0.001632344               0.999999989               0.000808296              -0.000000000               0.999999989               0.000852426               0.000000000               0.999999989               0.000870989              -0.000000000               0.999999989               0.000881274               0.000000000               0.999999989               0.000889581               0.000000000               0.999999989               0.000897966               0.000000000               0.999999989               0.000907107               0.000000000               0.999999989               0.000916966               0.000000000               0.999999989               0.000927234              -0.000000000               0.999999989               0.000937706               0.000000000               0.999999989               0.000948273               0.000000000               0.999999989               0.000958517               0.000000000               0.999999989               0.000968071               0.000000000               0.999999989               0.000976611              -0.000000000               0.999999989               0.000983673              -0.000000000               0.999999989               0.000988842              -0.000000000               0.999999989               0.000991348               0.000000000               0.999999989               0.000803750               0.000115546               0.999999989               0.000844117               0.000091466               0.999999989               0.000860330               0.000080216               0.999999989               0.000869075               0.000075215               0.999999989               0.000876212               0.000073371               0.999999989               0.000883694               0.000073121               0.999999989               0.000892066               0.000073224               0.999999989               0.000901139               0.000073119               0.999999989               0.000910617               0.000072374               0.999999989               0.000920152               0.000070802               0.999999989               0.000929428               0.000068157               0.999999989               0.000938193               0.000064088               0.999999989               0.000946064               0.000058240               0.999999989               0.000952701               0.000050271               0.999999989               0.000957752               0.000039618               0.999999989               0.000960718               0.000025562               0.999999989               0.000961000               0.000006808               0.999999989               0.000790397               0.000230065               0.999999989               0.000819753               0.000182667               0.999999989               0.000829118               0.000161306               0.999999989               0.000833514               0.000152268               0.999999989               0.000837681               0.000149328               0.999999989               0.000842879               0.000149206               0.999999989               0.000849139               0.000149810               0.999999989               0.000855998               0.000149808               0.999999989               0.000862962               0.000148475               0.999999989               0.000869609               0.000145379               0.999999989               0.000875452               0.000139980               0.999999989               0.000880222               0.000131912               0.999999989               0.000883550               0.000120627               0.999999989               0.000885078               0.000105367               0.999999989               0.000884499               0.000085238               0.999999989               0.000881426               0.000059044               0.999999989               0.000875670               0.000025670               0.999999989               0.000768490               0.000342599               0.999999989               0.000780500               0.000273357               0.999999989               0.000779921               0.000244024               0.999999989               0.000778487               0.000232643               0.999999989               0.000778847               0.000229618               0.999999989               0.000780963               0.000230300               0.999999989               0.000784278               0.000231766               0.999999989               0.000787925               0.000232049               0.999999989               0.000791193               0.000230140               0.999999989               0.000793502               0.000225518               0.999999989               0.000794313               0.000217591               0.999999989               0.000793253               0.000205705               0.999999989               0.000789896               0.000189385               0.999999989               0.000783924               0.000167642               0.999999989               0.000775075               0.000139638               0.999999989               0.000763379               0.000104723               0.999999989               0.000749214               0.000062333               0.999999989               0.000738388               0.000452172               0.999999989               0.000728431               0.000363544               0.999999989               0.000716834               0.000328886               0.999999989               0.000709484               0.000316987               0.999999989               0.000706152               0.000315014               0.999999989               0.000705299               0.000316960               0.999999989               0.000705442               0.000319375               0.999999989               0.000705346               0.000319881               0.999999989               0.000704060               0.000317465               0.999999989               0.000700845               0.000311416               0.999999989               0.000695187               0.000300968               0.999999989               0.000686533               0.000285572               0.999999989               0.000674561               0.000264598               0.999999989               0.000659098               0.000237617               0.999999989               0.000640372               0.000204135               0.999999989               0.000618940               0.000164272               0.999999989               0.000595658               0.000118681               0.999999989               0.000700908               0.000557711               0.999999989               0.000666246               0.000453369               0.999999989               0.000644275               0.000415993               0.999999989               0.000632328               0.000405021               0.999999989               0.000626423               0.000404689               0.999999989               0.000623058               0.000407978               0.999999989               0.000620041               0.000411244               0.999999989               0.000615839               0.000412024               0.999999989               0.000609309               0.000409009               0.999999989               0.000599646               0.000401345               0.999999989               0.000586166               0.000388427               0.999999989               0.000568481               0.000369660               0.999999989               0.000546644               0.000344959               0.999999989               0.000520998               0.000314110               0.999999989               0.000492124               0.000277633               0.999999989               0.000461031               0.000236234               0.999999989               0.000428900               0.000191766               0.999999989               0.000656682               0.000658274               0.999999989               0.000596768               0.000542973               0.999999989               0.000566866               0.000504965               0.999999989               0.000552475               0.000495706               0.999999989               0.000545172               0.000497154               0.999999989               0.000539922               0.000501506               0.999999989               0.000533869               0.000505501               0.999999989               0.000525167               0.000506378               0.999999989               0.000512615               0.000502525               0.999999989               0.000495385               0.000493228               0.999999989               0.000472924               0.000477745               0.999999989               0.000445372               0.000456195               0.999999989               0.000413070               0.000428760               0.999999989               0.000376831               0.000395971               0.999999989               0.000337718               0.000358548               0.999999989               0.000296997               0.000318144               0.999999989               0.000255782               0.000276745               0.999999989               0.000606410               0.000752962               0.999999989               0.000523316               0.000632119               0.999999989               0.000488876               0.000595058               0.999999989               0.000474450               0.000587483               0.999999989               0.000466875               0.000590360               0.999999989               0.000460066               0.000595555               0.999999989               0.000450823               0.000599950               0.999999989               0.000437107               0.000600655               0.999999989               0.000417448               0.000595729               0.999999989               0.000391388               0.000584651               0.999999989               0.000358800               0.000567163               0.999999989               0.000320195               0.000543868               0.999999989               0.000276384               0.000515365               0.999999989               0.000228806               0.000482489               0.999999989               0.000178785               0.000446627               0.999999989               0.000127842               0.000409614               0.999999989               0.000077131               0.000372989               0.999999989               0.000551761               0.000840049               0.999999989               0.000448377               0.000720756               0.999999989               0.000414171               0.000684985               0.999999989               0.000401479               0.000678449               0.999999989               0.000394317               0.000682305               0.999999989               0.000385943               0.000688394               0.999999989               0.000373074               0.000692859               0.999999989               0.000353226               0.000692988               0.999999989               0.000325193               0.000686975               0.999999989               0.000288946               0.000674558               0.999999989               0.000244824               0.000655809               0.999999989               0.000193856               0.000631886               0.999999989               0.000137504               0.000603970               0.999999989               0.000077663               0.000573497               0.999999989               0.000016141               0.000542050               0.999999989              -0.000045475               0.000511046               0.999999989              -0.000106415               0.000481304               0.999999989               0.000494966               0.000922861               0.999999989               0.000385243               0.000821049               0.999999989               0.000348895               0.000782251               0.999999989               0.000335683               0.000771705               0.999999989               0.000329147               0.000773181               0.999999989               0.000322522               0.000779007               0.999999989               0.000312233               0.000785382               0.999999989               0.000296203               0.000789749               0.999999989               0.000272970               0.000790452               0.999999989               0.000242211               0.000786450               0.999999989               0.000203668               0.000777641               0.999999989               0.000157641               0.000764305               0.999999989               0.000105376               0.000747436               0.999999989               0.000048047               0.000728057               0.999999989              -0.000012796               0.000707290               0.999999989              -0.000075428               0.000686351               0.999999989              -0.000138516               0.000666274               0.999999989               0.000432896               0.000998696               0.999999989               0.000324328               0.000918549               0.999999989               0.000285913               0.000882730               0.999999989               0.000271604               0.000870290               0.999999989               0.000265007               0.000870281               0.999999989               0.000259298               0.000876125               0.999999989               0.000251132               0.000884192               0.999999989               0.000238320               0.000892061               0.999999989               0.000219596               0.000898088               0.999999989               0.000194045               0.000901296               0.999999989               0.000161367               0.000900999               0.999999989               0.000121292               0.000897189               0.999999989               0.000074245               0.000890122               0.999999989               0.000020958               0.000880721               0.999999989              -0.000037282               0.000869712               0.999999989              -0.000098868               0.000858263               0.999999989              -0.000162223               0.000847162               0.999999989               0.000366869               0.001065574               0.999999989               0.000265697               0.001010290               0.999999989               0.000227040               0.000981441               0.999999989               0.000211560               0.000970347               0.999999989               0.000204292               0.000970352               0.999999989               0.000198840               0.000976929               0.999999989               0.000192204               0.000986900               0.999999989               0.000182155               0.000998003               0.999999989               0.000167276               0.001008833               0.999999989               0.000146479               0.001018311               0.999999989               0.000119495               0.001025656               0.999999989               0.000085690               0.001030380               0.999999989               0.000045148               0.001032331               0.999999989              -0.000002269               0.001031887               0.999999989              -0.000056103               0.001029702               0.999999989              -0.000115225               0.001026804               0.999999989              -0.000178194               0.001023991               0.999999989               0.000297610               0.001122064               0.999999989               0.000209511               0.001092302               0.999999989               0.000173080               0.001073387               0.999999989               0.000157174               0.001066350               0.999999989               0.000149231               0.001068338               0.999999989               0.000143840               0.001076542               0.999999989               0.000138270               0.001088791               0.999999989               0.000130388               0.001103174               0.999999989               0.000118768               0.001118550               0.999999989               0.000102556               0.001133719               0.999999989               0.000081017               0.001147874               0.999999989               0.000053913               0.001160507               0.999999989               0.000020500               0.001171202               0.999999989              -0.000019817               0.001179773               0.999999989              -0.000067524               0.001186536               0.999999989              -0.000122449               0.001192094               0.999999989              -0.000183857               0.001197353               0.999999989               0.000225631               0.001167241               0.999999989               0.000155442               0.001160705               0.999999989               0.000124186               0.001153015               0.999999989               0.000109411               0.001151694               0.999999989               0.000101619               0.001156998               0.999999989               0.000096558               0.001167771               0.999999989               0.000091862               0.001182607               0.999999989               0.000085696               0.001200412               0.999999989               0.000077013               0.001220087               0.999999989               0.000065038               0.001240540               0.999999989               0.000049010               0.001260952               0.999999989               0.000028570               0.001280789               0.999999989               0.000002920               0.001299605               0.999999989              -0.000029113               0.001317028               0.999999989              -0.000068621               0.001332955               0.999999989              -0.000116257               0.001347455               0.999999989              -0.000172712               0.001360977               0.999999989               0.000151574               0.001200175               0.999999989               0.000102881               0.001212170               0.999999989               0.000079861               0.001214724               0.999999989               0.000068305               0.001219298               0.999999989               0.000061983               0.001228296               0.999999989               0.000057906               0.001241856               0.999999989               0.000054281               0.001259394               0.999999989               0.000049954               0.001280183               0.999999989               0.000044058               0.001303421               0.999999989               0.000036081               0.001328306               0.999999989               0.000025435               0.001354108               0.999999989               0.000011863               0.001380253               0.999999989              -0.000005496               0.001406271               0.999999989              -0.000027910               0.001431687               0.999999989              -0.000056406               0.001456069               0.999999989              -0.000092400               0.001479144               0.999999989              -0.000137205               0.001500725               0.999999989               0.000076126               0.001220173               0.999999989               0.000051219               0.001244118               0.999999989               0.000039001               0.001253861               0.999999989               0.000032620               0.001262757               0.999999989               0.000029097               0.001274706               0.999999989               0.000026763               0.001290570               0.999999989               0.000024759               0.001310101               0.999999989               0.000022521               0.001332934               0.999999989               0.000019518               0.001358574               0.999999989               0.000015432               0.001386378               0.999999989               0.000010158               0.001415737               0.999999989               0.000003389               0.001446203               0.999999989              -0.000005304               0.001477385               0.999999989              -0.000016750               0.001508708               0.999999989              -0.000031807               0.001539465               0.999999989              -0.000051366               0.001569091               0.999999989              -0.000076747               0.001596906               0.999999989              -0.000000000               0.001226873               0.999999989              -0.000000000               0.001254894               0.999999989              -0.000000000               0.001267267               0.999999989               0.000000000               0.001277886               0.999999989              -0.000000000               0.001290897               0.999999989              -0.000000000               0.001307516               0.999999989               0.000000000               0.001327804               0.999999989              -0.000000000               0.001351407               0.999999989               0.000000000               0.001377864               0.999999989              -0.000000000               0.001406605               0.999999989               0.000000000               0.001437174               0.999999989               0.000000000               0.001469284               0.999999989               0.000000000               0.001502509               0.999999989               0.000000000               0.001536243               0.999999989               0.000000000               0.001569706               0.999999989              -0.000000000               0.001602071               0.999999989              -0.000000000               0.001632344               0.999999989 </DataArray>
<DataArray type="Float64"                                    Name="defo"                                                      NumberOfComponents=" 3" format="ascii">
             -0.000808296               0.000000000               0.999999989              -0.000852426              -0.000000000               0.999999989              -0.000870989               0.000000000               0.999999989              -0.000881274               0.000000000               0.999999989              -0.000889581               0.000000000               0.999999989              -0.000897966               0.000000000               0.999999989              -0.000907107               0.000000000               0.999999989              -0.000916966               0.000000000               0.999999989              -0.000927234              -0.000000000               0.999999989              -0.000937706               0.000000000               0.999999989              -0.000948273               0.000000000               0.999999989              -0.000958517               0.000000000               0.999999989              -0.000968071               0.000000000               0.999999989              -0.000976611               0.000000000               0.999999989              -0.000983673               0.000000000               0.999999989              -0.000988842               0.000000000               0.999999989              -0.000991348               0.000000000               0.999999989              -0.000803750               0.000115546               0.999999989              -0.000844117               0.000091466               0.999999989              -0.000860330               0.000080216               0.999999989              -0.000869075               0.000075215               0.999999989              -0.000876212               0.000073371               0.999999989              -0.000883694               0.000073121               0.999999989              -0.000892066               0.000073224               0.999999989              -0.000901139               0.000073119               0.999999989              -0.000910617               0.000072374               0.999999989              -0.000920152               0.000070802               0.999999989              -0.000929428               0.000068157               0.999999989              -0.000938193               0.000064088               0.999999989              -0.000946064               0.000058240               0.999999989              -0.000952701               0.000050271               0.999999989              -0.000957752               0.000039618               0.999999989              -0.000960718               0.000025562               0.999999989              -0.000961000               0.000006808               0.999999989              -0.000790397               0.000230065               0.999999989              -0.000819753               0.000182667               0.999999989              -0.000829118               0.000161306               0.999999989              -0.000833514               0.000152268               0.999999989              -0.000837681               0.000149328               0.999999989              -0.000842879               0.000149206               0.999999989              -0.000849139               0.000149810               0.999999989              -0.000855998               0.000149808               0.999999989              -0.000862962               0.000148475               0.999999989              -0.000869609               0.000145379               0.999999989              -0.000875452               0.000139980               0.999999989              -0.000880222               0.000131912               0.999999989              -0.000883550               0.000120627               0.999999989              -0.000885078               0.000105367               0.999999989              -0.000884499               0.000085238               0.999999989              -0.000881426               0.000059044               0.999999989              -0.000875670               0.000025670               0.999999989              -0.000768490               0.000342599               0.999999989              -0.000780500               0.000273357               0.999999989              -0.000779921               0.000244024               0.999999989              -0.000778487               0.000232643               0.999999989              -0.000778847               0.000229618               0.999999989              -0.000780963               0.000230300               0.999999989              -0.000784278               0.000231766               0.999999989              -0.000787925               0.000232049               0.999999989              -0.000791193               0.000230140               0.999999989              -0.000793502               0.000225518               0.999999989              -0.000794313               0.000217591               0.999999989              -0.000793253               0.000205705               0.999999989              -0.000789896               0.000189385               0.999999989              -0.000783924               0.000167642               0.999999989              -0.000775075               0.000139638               0.999999989              -0.000763379               0.000104723               0.999999989              -0.000749214               0.000062333               0.999999989              -0.000738388               0.000452172               0.999999989              -0.000728431               0.000363544               0.999999989              -0.000716834               0.000328886               0.999999989              -0.000709484               0.000316987               0.999999989              -0.000706152               0.000315014               0.999999989              -0.000705299               0.000316960               0.999999989              -0.000705442               0.000319375               0.999999989              -0.000705346               0.000319881               0.999999989              -0.000704060               0.000317465               0.999999989              -0.000700845               0.000311416               0.999999989              -0.000695187               0.000300968               0.999999989              -0.000686533               0.000285572               0.999999989              -0.000674561               0.000264598               0.999999989              -0.000659098               0.000237617               0.999999989              -0.000640372               0.000204135               0.999999989              -0.000618940               0.000164272               0.999999989              -0.000595658               0.000118681               0.999999989              -0.000700908               0.000557711               0.999999989              -0.000666246               0.000453369               0.999999989              -0.000644275               0.000415993               0.999999989              -0.000632328               0.000405021               0.999999989              -0.000626423               0.000404689               0.999999989              -0.000623058               0.000407978               0.999999989              -0.000620041               0.000411244               0.999999989              -0.000615839               0.000412024               0.999999989              -0.000609309               0.000409009               0.999999989              -0.000599646               0.000401345               0.999999989              -0.000586166               0.000388427               0.999999989              -0.000568481               0.000369660               0.999999989              -0.000546644               0.000344959               0.999999989              -0.000520998               0.000314110               0.999999989              -0.000492124               0.000277633               0.999999989              -0.000461031               0.000236234               0.999999989              -0.000428900               0.000191766               0.999999989              -0.000656682               0.000658274               0.999999989              -0.000596768               0.000542973               0.999999989              -0.000566866               0.000504965               0.999999989              -0.000552475               0.000495706               0.999999989              -0.000545172               0.000497154               0.999999989              -0.000539922               0.000501506               0.999999989              -0.000533869               0.000505501               0.999999989              -0.000525167               0.000506378               0.999999989              -0.000512615               0.000502525               0.999999989              -0.000495385               0.000493228               0.999999989              -0.000472924               0.000477745               0.999999989              -0.000445372               0.000456195               0.999999989              -0.000413070               0.000428760               0.999999989              -0.000376831               0.000395971               0.999999989              -0.000337718               0.000358548               0.999999989              -0.000296997               0.000318144               0.999999989              -0.000255782               0.000276745               0.999999989              -0.000606410               0.000752962               0.999999989              -0.000523316               0.000632119               0.999999989              -0.000488876               0.000595058               0.999999989              -0.000474450               0.000587483               0.999999989              -0.000466875               0.000590360               0.999999989              -0.000460066               0.000595555               0.999999989              -0.000450823               0.000599950               0.999999989              -0.000437107               0.000600655               0.999999989              -0.000417448               0.000595729               0.999999989              -0.000391388               0.000584651               0.999999989              -0.000358800               0.000567163               0.999999989              -0.000320195               0.000543868               0.999999989              -0.000276384               0.000515365               0.999999989              -0.000228806               0.000482489               0.999999989              -0.000178785               0.000446627               0.999999989              -0.000127842               0.000409614               0.999999989              -0.000077131               0.000372989               0.999999989              -0.000551761               0.000840049               0.999999989              -0.000448377               0.000720756               0.999999989              -0.000414171               0.000684985               0.999999989              -0.000401479               0.000678449               0.999999989              -0.000394317               0.000682305               0.999999989              -0.000385943               0.000688394               0.999999989              -0.000373074               0.000692859               0.999999989              -0.000353226               0.000692988               0.999999989              -0.000325193               0.000686975               0.999999989              -0.000288946               0.000674558               0.999999989              -0.000244824               0.000655809               0.999999989              -0.000193856               0.000631886               0.999999989              -0.000137504               0.000603970               0.999999989              -0.000077663               0.000573497               0.999999989              -0.000016141               0.000542050               0.999999989               0.000045475               0.000511046               0.999999989               0.000106415               0.000481304               0.999999989              -0.000494966               0.000922861               0.999999989              -0.000385243               0.000821049               0.999999989              -0.000348895               0.000782251               0.999999989              -0.000335683               0.000771705               0.999999989              -0.000329147               0.000773181               0.999999989              -0.000322522               0.000779007               0.999999989              -0.000312233               0.000785382               0.999999989              -0.000296203               0.000789749               0.999999989              -0.000272970               0.000790452               0.999999989              -0.000242211               0.000786450               0.999999989              -0.000203668               0.000777641               0.999999989              -0.000157641               0.000764305               0.999999989              -0.000105376               0.000747436               0.999999989              -0.000048047               0.000728057               0.999999989               0.000012796               0.000707290               0.999999989               0.000075428               0.000686351               0.999999989               0.000138516               0.000666274               0.999999989              -0.000432896               0.000998696               0.999999989              -0.000324328               0.000918549               0.999999989              -0.000285913               0.000882730               0.999999989              -0.000271604               0.000870290               0.999999989              -0.000265007               0.000870281               0.999999989              -0.000259298               0.000876125               0.999999989              -0.000251132               0.000884192               0.999999989              -0.000238320               0.000892061               0.999999989              -0.000219596               0.000898088               0.999999989              -0.000194045               0.000901296               0.999999989              -0.000161367               0.000900999               0.999999989              -0.000121292               0.000897189               0.999999989              -0.000074245               0.000890122               0.999999989              -0.000020958               0.000880721               0.999999989               0.000037282               0.000869712               0.999999989               0.000098868               0.000858263               0.999999989               0.000162223               0.000847162               0.999999989              -0.000366869               0.001065574               0.999999989              -0.000265697               0.001010290               0.999999989              -0.000227040               0.000981441               0.999999989              -0.000211560               0.000970347               0.999999989              -0.000204292               0.000970352               0.999999989              -0.000198840               0.000976929               0.999999989              -0.000192204               0.000986900               0.999999989              -0.000182155               0.000998003               0.999999989              -0.000167276               0.001008833               0.999999989              -0.000146479               0.001018311               0.999999989              -0.000119495               0.001025656               0.999999989              -0.000085690               0.001030380               0.999999989              -0.000045148               0.001032331               0.999999989               0.000002269               0.001031887               0.999999989               0.000056103               0.001029702               0.999999989               0.000115225               0.001026804               0.999999989               0.000178194               0.001023991               0.999999989              -0.000297610               0.001122064               0.999999989              -0.000209511               0.001092302               0.999999989              -0.000173080               0.001073387               0.999999989              -0.000157174               0.001066350               0.999999989              -0.000149231               0.001068338               0.999999989              -0.000143840               0.001076542               0.999999989              -0.000138270               0.001088791               0.999999989              -0.000130388               0.001103174               0.999999989              -0.000118768               0.001118550               0.999999989              -0.000102556               0.001133719               0.999999989              -0.000081017               0.001147874               0.999999989              -0.000053913               0.001160507               0.999999989              -0.000020500               0.001171202               0.999999989               0.000019817               0.001179773               0.999999989               0.000067524               0.001186536               0.999999989               0.000122449               0.001192094               0.999999989               0.000183857               0.001197353               0.999999989              -0.000225631               0.001167241               0.999999989              -0.000155442               0.001160705               0.999999989              -0.000124186               0.001153015               0.999999989              -0.000109411               0.001151694               0.999999989              -0.000101619               0.001156998               0.999999989              -0.000096558               0.001167771               0.999999989              -0.000091862               0.001182607               0.999999989              -0.000085696               0.001200412               0.999999989              -0.000077013               0.001220087               0.999999989              -0.000065038               0.001240540               0.999999989              -0.000049010               0.001260952               0.999999989              -0.000028570               0.001280789               0.999999989              -0.000002920               0.001299605               0.999999989               0.000029113               0.001317028               0.999999989               0.000068621               0.001332955               0.999999989               0.000116257               0.001347455               0.999999989               0.000172712               0.001360977               0.999999989              -0.000151574               0.001200175               0.999999989              -0.000102881               0.001212170               0.999999989              -0.000079861               0.001214724               0.999999989              -0.000068305               0.001219298               0.999999989              -0.000061983               0.001228296               0.999999989              -0.000057906               0.001241856               0.999999989              -0.000054281               0.001259394               0.999999989              -0.000049954               0.001280183               0.999999989              -0.000044058               0.001303421               0.999999989              -0.000036081               0.001328306               0.999999989              -0.000025435               0.001354108               0.999999989              -0.000011863               0.001380253               0.999999989               0.000005496               0.001406271               0.999999989               0.000027910               0.001431687               0.999999989               0.000056406               0.001456069               0.999999989               0.000092400               0.001479144               0.999999989               0.000137205               0.001500725               0.999999989              -0.000076126               0.001220173               0.999999989              -0.000051219               0.001244118               0.999999989              -0.000039001               0.001253861               0.999999989              -0.000032620               0.001262757               0.999999989              -0.000029097               0.001274706               0.999999989              -0.000026763               0.001290570               0.999999989              -0.000024759               0.001310101               0.999999989              -0.000022521               0.001332934               0.999999989              -0.000019518               0.001358574               0.999999989              -0.000015432               0.001386378               0.999999989              -0.000010158               0.001415737               0.999999989              -0.000003389               0.001446203               0.999999989               0.000005304               0.001477385               0.999999989               0.000016750               0.001508708               0.999999989               0.000031807               0.001539465               0.999999989               0.000051366               0.001569091               0.999999989               0.000076747               0.001596906               0.999999989              -0.000000000               0.001226873               0.999999989              -0.000000000               0.001254894               0.999999989              -0.000000000               0.001267267               0.999999989               0.000000000               0.001277886               0.999999989              -0.000000000               0.001290897               0.999999989              -0.000000000               0.001307516               0.999999989               0.000000000               0.001327804               0.999999989              -0.000000000               0.001351407               0.999999989               0.000000000               0.001377864               0.999999989              -0.000000000               0.001406605               0.999999989               0.000000000               0.001437174               0.999999989               0.000000000               0.001469284               0.999999989               0.000000000               0.001502509               0.999999989               0.000000000               0.001536243               0.999999989               0.000000000               0.001569706               0.999999989              -0.000000000               0.001602071               0.999999989              -0.000000000               0.001632344               0.999999989              -0.000808296               0.000000000               0.999999989              -0.000852426              -0.000000000               0.999999989              -0.000870989               0.000000000               0.999999989              -0.000881274               0.000000000               0.999999989              -0.000889581               0.000000000               0.999999989              -0.000897966               0.000000000               0.999999989              -0.000907107               0.000000000               0.999999989              -0.000916966               0.000000000               0.999999989              -0.000927234              -0.000000000               0.999999989              -0.000937706               0.000000000               0.999999989              -0.000948273               0.000000000               0.999999989              -0.000958517               0.000000000               0.999999989              -0.000968071               0.000000000               0.999999989              -0.000976611               0.000000000               0.999999989              -0.000983673               0.000000000               0.999999989              -0.000988842               0.000000000               0.999999989              -0.000991348               0.000000000               0.999999989              -0.000803750              -0.000115546               0.999999989              -0.000844117              -0.000091466               0.999999989              -0.000860330              -0.000080216               0.999999989              -0.000869075              -0.000075215               0.999999989              -0.000876212              -0.000073371               0.999999989              -0.000883694              -0.000073121               0.999999989              -0.000892066              -0.000073224               0.999999989              -0.000901139              -0.000073119               0.999999989              -0.000910617              -0.000072374               0.999999989              -0.000920152              -0.000070802               0.999999989              -0.000929428              -0.000068157               0.999999989              -0.000938193              -0.000064088               0.999999989              -0.000946064              -0.000058240               0.999999989              -0.000952701              -0.000050271               0.999999989              -0.000957752              -0.000039618               0.999999989              -0.000960718              -0.000025562               0.999999989              -0.000961000              -0.000006808               0.999999989              -0.000790397              -0.000230065               0.999999989              -0.000819753              -0.000182667               0.999999989              -0.000829118              -0.000161306               0.999999989              -0.000833514              -0.000152268               0.999999989              -0.000837681              -0.000149328               0.999999989              -0.000842879              -0.000149206               0.999999989              -0.000849139              -0.000149810               0.999999989              -0.000855998              -0.000149808               0.999999989              -0.000862962              -0.000148475               0.999999989              -0.000869609              -0.000145379               0.999999989              -0.000875452              -0.000139980               0.999999989              -0.000880222              -0.000131912               0.999999989              -0.000883550              -0.000120627               0.999999989              -0.000885078              -0.000105367               0.999999989              -0.000884499              -0.000085238               0.999999989              -0.000881426              -0.000059044               0.999999989              -0.000875670              -0.000025670               0.999999989              -0.000768490              -0.000342599               0.999999989              -0.000780500              -0.000273357               0.999999989              -0.000779921              -0.000244024               0.999999989              -0.000778487              -0.000232643               0.999999989              -0.000778847              -0.000229618               0.999999989              -0.000780963              -0.000230300               0.999999989              -0.000784278              -0.000231766               0.999999989              -0.000787925              -0.000232049               0.999999989              -0.000791193              -0.000230140               0.999999989              -0.000793502              -0.000225518               0.999999989              -0.000794313              -0.000217591               0.999999989              -0.000793253              -0.000205705               0.999999989              -0.000789896              -0.000189385               0.999999989              -0.000783924              -0.000167642               0.999999989              -0.000775075              -0.000139638               0.999999989              -0.000763379              -0.000104723               0.999999989              -0.000749214              -0.000062333               0.999999989              -0.000738388              -0.000452172               0.999999989              -0.000728431              -0.000363544               0.999999989              -0.000716834              -0.000328886               0.999999989              -0.000709484              -0.000316987               0.999999989              -0.000706152              -0.000315014               0.999999989              -0.000705299              -0.000316960               0.999999989              -0.000705442              -0.000319375               0.999999989              -0.000705346              -0.000319881               0.999999989              -0.000704060              -0.000317465               0.999999989              -0.000700845              -0.000311416               0.999999989              -0.000695187              -0.000300968               0.999999989              -0.000686533              -0.000285572               0.999999989              -0.000674561              -0.000264598               0.999999989              -0.000659098              -0.000237617               0.999999989              -0.000640372              -0.000204135               0.999999989              -0.000618940              -0.000164272               0.999999989              -0.000595658              -0.000118681               0.999999989              -0.000700908              -0.000557711               0.999999989              -0.000666246              -0.000453369               0.999999989              -0.000644275              -0.000415993               0.999999989              -0.000632328              -0.000405021               0.999999989              -0.000626423              -0.000404689               0.999999989              -0.000623058              -0.000407978               0.999999989              -0.000620041              -0.000411244               0.999999989              -0.000615839              -0.000412024               0.999999989              -0.000609309              -0.000409009               0.999999989              -0.000599646              -0.000401345               0.999999989              -0.000586166              -0.000388427               0.999999989              -0.000568481              -0.000369660               0.999999989              -0.000546644              -0.000344959               0.999999989              -0.000520998              -0.000314110               0.999999989              -0.000492124              -0.000277633               0.999999989              -0.000461031              -0.000236234               0.999999989              -0.000428900              -0.000191766               0.999999989              -0.000656682              -0.000658274               0.999999989              -0.000596768              -0.000542973               0.999999989              -0.000566866              -0.000504965               0.999999989              -0.000552475              -0.000495706               0.999999989              -0.000545172              -0.000497154               0.999999989              -0.000539922              -0.000501506               0.999999989              -0.000533869              -0.000505501               0.999999989              -0.000525167              -0.000506378               0.999999989              -0.000512615              -0.000502525               0.999999989              -0.000495385              -0.000493228               0.999999989              -0.000472924              -0.000477745               0.999999989              -0.000445372              -0.000456195               0.999999989              -0.000413070              -0.000428760               0.999999989              -0.000376831              -0.000395971               0.999999989              -0.000337718              -0.000358548               0.999999989              -0.000296997              -0.000318144               0.999999989              -0.000255782              -0.000276745               0.999999989              -0.000606410              -0.000752962               0.999999989              -0.000523316              -0.000632119               0.999999989              -0.000488876              -0.000595058               0.999999989              -0.000474450              -0.000587483               0.999999989              -0.000466875              -0.000590360               0.999999989              -0.000460066              -0.000595555               0.999999989              -0.000450823              -0.000599950               0.999999989              -0.000437107              -0.000600655               0.999999989              -0.000417448              -0.000595729               0.999999989              -0.000391388              -0.000584651               0.999999989              -0.000358800              -0.000567163               0.999999989              -0.000320195              -0.000543868               0.999999989              -0.000276384              -0.000515365               0.999999989              -0.000228806              -0.000482489               0.999999989              -0.000178785              -0.000446627               0.999999989              -0.000127842              -0.000409614               0.999999989              -0.000077131              -0.000372989               0.999999989              -0.000551761              -0.000840049               0.999999989              -0.000448377              -0.000720756               0.999999989              -0.000414171              -0.000684985               0.999999989              -0.000401479              -0.000678449               0.999999989              -0.000394317              -0.000682305               0.999999989              -0.000385943              -0.000688394               0.999999989              -0.000373074              -0.000692859               0.999999989              -0.000353226              -0.000692988               0.999999989              -0.000325193              -0.000686975               0.999999989              -0.000288946              -0.000674558               0.999999989              -0.000244824              -0.000655809               0.999999989              -0.000193856              -0.000631886               0.999999989              -0.000137504              -0.000603970               0.999999989              -0.000077663              -0.000573497               0.999999989              -0.000016141              -0.000542050               0.999999989               0.000045475              -0.000511046               0.999999989               0.000106415              -0.000481304               0.999999989              -0.000494966              -0.000922861               0.999999989              -0.000385243              -0.000821049               0.999999989              -0.000348895              -0.000782251               0.999999989              -0.000335683              -0.000771705               0.999999989              -0.000329147              -0.000773181               0.999999989              -0.000322522              -0.000779007               0.999999989              -0.000312233              -0.000785382               0.999999989              -0.000296203              -0.000789749               0.999999989              -0.000272970              -0.000790452               0.999999989              -0.000242211              -0.000786450               0.999999989              -0.000203668              -0.000777641               0.999999989              -0.000157641              -0.000764305               0.999999989              -0.000105376              -0.000747436               0.999999989              -0.000048047              -0.000728057               0.999999989               0.000012796              -0.000707290               0.999999989               0.000075428              -0.000686351               0.999999989               0.000138516              -0.000666274               0.999999989              -0.000432896              -0.000998696               0.999999989              -0.000324328              -0.000918549               0.999999989              -0.000285913              -0.000882730               0.999999989              -0.000271604              -0.000870290               0.999999989              -0.000265007              -0.000870281               0.999999989              -0.000259298              -0.000876125               0.999999989              -0.000251132              -0.000884192               0.999999989              -0.000238320              -0.000892061               0.999999989              -0.000219596              -0.000898088               0.999999989              -0.000194045              -0.000901296               0.999999989              -0.000161367              -0.000900999               0.999999989              -0.000121292              -0.000897189               0.999999989              -0.000074245              -0.000890122               0.999999989              -0.000020958              -0.000880721               0.999999989               0.000037282              -0.000869712               0.999999989               0.000098868              -0.000858263               0.999999989               0.000162223              -0.000847162               0.999999989              -0.000366869              -0.001065574               0.999999989              -0.000265697              -0.001010290               0.999999989              -0.000227040              -0.000981441               0.999999989              -0.000211560              -0.000970347               0.999999989              -0.000204292              -0.000970352               0.999999989              -0.000198840              -0.000976929               0.999999989              -0.000192204              -0.000986900               0.999999989              -0.000182155              -0.000998003               0.999999989              -0.000167276              -0.001008833               0.999999989              -0.000146479              -0.001018311               0.999999989              -0.000119495              -0.001025656               0.999999989              -0.000085690              -0.001030380               0.999999989              -0.000045148              -0.001032331               0.999999989               0.000002269              -0.001031887               0.999999989               0.000056103              -0.001029702               0.999999989               0.000115225              -0.001026804               0.999999989               0.000178194              -0.001023991               0.999999989              -0.000297610              -0.001122064               0.999999989              -0.000209511              -0.001092302               0.999999989              -0.000173080              -0.001073387               0.999999989              -0.000157174              -0.001066350               0.999999989              -0.000149231              -0.001068338               0.999999989              -0.000143840              -0.001076542               0.999999989              -0.000138270              -0.001088791               0.999999989              -0.000130388              -0.001103174               0.999999989              -0.000118768              -0.001118550               0.999999989              -0.000102556              -0.001133719               0.999999989              -0.000081017              -0.001147874               0.999999989              -0.000053913              -0.001160507               0.999999989              -0.000020500              -0.001171202               0.999999989               0.000019817              -0.001179773               0.999999989               0.000067524              -0.001186536               0.999999989               0.000122449              -0.001192094               0.999999989               0.000183857              -0.001197353               0.999999989              -0.000225631              -0.001167241               0.999999989              -0.000155442              -0.001160705               0.999999989              -0.000124186              -0.001153015               0.999999989              -0.000109411              -0.001151694               0.999999989              -0.000101619              -0.001156998               0.999999989              -0.000096558              -0.001167771               0.999999989              -0.000091862              -0.001182607               0.999999989              -0.000085696              -0.001200412               0.999999989              -0.000077013              -0.001220087               0.999999989              -0.000065038              -0.001240540               0.999999989              -0.000049010              -0.001260952               0.999999989              -0.000028570              -0.001280789               0.999999989              -0.000002920              -0.001299605               0.999999989               0.000029113              -0.001317028               0.999999989               0.000068621              -0.001332955               0.999999989               0.000116257              -0.001347455               0.999999989               0.000172712              -0.001360977               0.999999989              -0.000151574              -0.001200175               0.999999989              -0.000102881              -0.001212170               0.999999989              -0.000079861              -0.001214724               0.999999989              -0.000068305              -0.001219298               0.999999989              -0.000061983              -0.001228296               0.999999989              -0.000057906              -0.001241856               0.999999989              -0.000054281              -0.001259394               0.999999989              -0.000049954              -0.001280183               0.999999989              -0.000044058              -0.001303421               0.999999989              -0.000036081              -0.001328306               0.999999989              -0.000025435              -0.001354108               0.999999989              -0.000011863              -0.001380253               0.999999989               0.000005496              -0.001406271               0.999999989               0.000027910              -0.001431687               0.999999989               0.000056406              -0.001456069               0.999999989               0.000092400              -0.001479144               0.999999989               0.000137205              -0.001500725               0.999999989              -0.000076126              -0.001220173               0.999999989              -0.000051219              -0.001244118               0.999999989              -0.000039001              -0.001253861               0.999999989              -0.000032620              -0.001262757               0.999999989              -0.000029097              -0.001274706               0.999999989              -0.000026763              -0.001290570               0.999999989              -0.000024759              -0.001310101               0.999999989              -0.000022521              -0.001332934               0.999999989              -0.000019518              -0.001358574               0.999999989              -0.000015432              -0.001386378               0.999999989              -0.000010158              -0.001415737               0.999999989              -0.000003389              -0.001446203               0.999999989               0.000005304              -0.001477385               0.999999989               0.000016750              -0.001508708               0.999999989               0.000031807              -0.001539465               0.999999989               0.000051366              -0.001569091               0.999999989               0.000076747              -0.001596906               0.999999989              -0.000000000              -0.001226873               0.999999989              -0.000000000              -0.001254894               0.999999989               0.000000000              -0.001267267               0.999999989               0.000000000              -0.001277886               0.999999989               0.000000000              -0.001290897               0.999999989              -0.000000000              -0.001307516               0.999999989               0.000000000              -0.001327804               0.999999989               0.000000000              -0.001351407               0.999999989              -0.000000000              -0.001377864               0.999999989              -0.000000000              -0.001406605               0.999999989              -0.000000000              -0.001437174               0.999999989              -0.000000000              -0.001469284               0.999999989               0.000000000              -0.001502509               0.999999989              -0.000000000              -0.001536243               0.999999989              -0.000000000              -0.001569706               0.999999989               0.000000000              -0.001602071               0.999999989               0.000000000              -0.001632344               0.999999989               0.000808296              -0.000000000               0.999999989               0.000852426               0.000000000               0.999999989               0.000870989              -0.000000000               0.999999989               0.000881274               0.000000000               0.999999989               0.000889581               0.000000000               0.999999989               0.000897966               0.000000000               0.999999989               0.000907107               0.000000000               0.999999989               0.000916966               0.000000000               0.999999989               0.000927234              -0.000000000               0.999999989               0.000937706               0.000000000               0.999999989               0.000948273               0.000000000               0.999999989               0.000958517               0.000000000               0.999999989               0.000968071               0.000000000               0.999999989               0.000976611              -0.000000000               0.999999989               0.000983673              -0.000000000               0.999999989               0.000988842              -0.000000000               0.999999989               0.000991348               0.000000000               0.999999989               0.000803750              -0.000115546               0.999999989               0.000844117              -0.000091466               0.999999989               0.000860330              -0.000080216               0.999999989               0.000869075              -0.000075215               0.999999989               0.000876212              -0.000073371               0.999999989               0.000883694              -0.000073121               0.999999989               0.000892066              -0.000073224               0.999999989               0.000901139              -0.000073119               0.999999989               0.000910617              -0.000072374               0.999999989               0.000920152              -0.000070802               0.999999989               0.000929428              -0.000068157               0.999999989               0.000938193              -0.000064088               0.999999989               0.000946064              -0.000058240               0.999999989               0.000952701              -0.000050271               0.999999989               0.000957752              -0.000039618               0.999999989               0.000960718              -0.000025562               0.999999989               0.000961000              -0.000006808               0.999999989               0.000790397              -0.000230065               0.999999989               0.000819753              -0.000182667               0.999999989               0.000829118              -0.000161306               0.999999989               0.000833514              -0.000152268               0.999999989               0.000837681              -0.000149328               0.999999989               0.000842879              -0.000149206               0.999999989               0.000849139              -0.000149810               0.999999989               0.000855998              -0.000149808               0.999999989               0.000862962              -0.000148475               0.999999989               0.000869609              -0.000145379               0.999999989               0.000875452              -0.000139980               0.999999989               0.000880222              -0.000131912               0.999999989               0.000883550              -0.000120627               0.999999989               0.000885078              -0.000105367               0.999999989               0.000884499              -0.000085238               0.999999989               0.000881426              -0.000059044               0.999999989               0.000875670              -0.000025670               0.999999989               0.000768490              -0.000342599               0.999999989               0.000780500              -0.000273357               0.999999989               0.000779921              -0.000244024               0.999999989               0.000778487              -0.000232643               0.999999989               0.000778847              -0.000229618               0.999999989               0.000780963              -0.000230300               0.999999989               0.000784278              -0.000231766               0.999999989               0.000787925              -0.000232049               0.999999989               0.000791193              -0.000230140               0.999999989               0.000793502              -0.000225518               0.999999989               0.000794313              -0.000217591               0.999999989               0.000793253              -0.000205705               0.999999989               0.000789896              -0.000189385               0.999999989               0.000783924              -0.000167642               0.999999989               0.000775075              -0.000139638               0.999999989               0.000763379              -0.000104723               0.999999989               0.000749214              -0.000062333               0.999999989               0.000738388              -0.000452172               0.999999989               0.000728431              -0.000363544               0.999999989               0.000716834              -0.000328886               0.999999989               0.000709484              -0.000316987               0.999999989               0.000706152              -0.000315014               0.999999989               0.000705299              -0.000316960               0.999999989               0.000705442              -0.000319375               0.999999989               0.000705346              -0.000319881               0.999999989               0.000704060              -0.000317465               0.999999989               0.000700845              -0.000311416               0.999999989               0.000695187              -0.000300968               0.999999989               0.000686533              -0.000285572               0.999999989               0.000674561              -0.000264598               0.999999989               0.000659098              -0.000237617               0.999999989               0.000640372              -0.000204135               0.999999989               0.000618940              -0.000164272               0.999999989               0.000595658              -0.000118681               0.999999989               0.000700908              -0.000557711               0.999999989               0.000666246              -0.000453369               0.999999989               0.000644275              -0.000415993               0.999999989               0.000632328              -0.000405021               0.999999989               0.000626423              -0.000404689               0.999999989               0.000623058              -0.000407978               0.999999989               0.000620041              -0.000411244               0.999999989               0.000615839              -0.000412024               0.999999989               0.000609309              -0.000409009               0.999999989               0.000599646              -0.000401345               0.999999989               0.000586166              -0.000388427               0.999999989               0.000568481              -0.000369660               0.999999989               0.000546644              -0.000344959               0.999999989               0.000520998              -0.000314110               0.999999989               0.000492124              -0.000277633               0.999999989               0.000461031              -0.000236234               0.999999989               0.000428900              -0.000191766               0.999999989               0.000656682              -0.000658274               0.999999989               0.000596768              -0.000542973               0.999999989               0.000566866              -0.000504965               0.999999989               0.000552475              -0.000495706               0.999999989               0.000545172              -0.000497154               0.999999989               0.000539922              -0.000501506               0.999999989               0.000533869              -0.000505501               0.999999989               0.000525167              -0.000506378               0.999999989               0.000512615              -0.000502525               0.999999989               0.000495385              -0.000493228               0.999999989               0.000472924              -0.000477745               0.999999989               0.000445372              -0.000456195               0.999999989               0.000413070              -0.000428760               0.999999989               0.000376831              -0.000395971               0.999999989               0.000337718              -0.000358548               0.999999989               0.000296997              -0.000318144               0.999999989               0.000255782              -0.000276745               0.999999989               0.000606410              -0.000752962               0.999999989               0.000523316              -0.000632119               0.999999989               0.000488876              -0.000595058               0.999999989               0.000474450              -0.000587483               0.999999989               0.000466875              -0.000590360               0.999999989               0.000460066              -0.000595555               0.999999989               0.000450823              -0.000599950               0.999999989               0.000437107              -0.000600655               0.999999989               0.000417448              -0.000595729               0.999999989               0.000391388              -0.000584651               0.999999989               0.000358800              -0.000567163               0.999999989               0.000320195              -0.000543868               0.999999989               0.000276384              -0.000515365               0.999999989               0.000228806              -0.000482489               0.999999989               0.000178785              -0.000446627               0.999999989               0.000127842              -0.000409614               0.999999989               0.000077131              -0.000372989               0.999999989               0.000551761              -0.000840049               0.999999989               0.000448377              -0.000720756               0.999999989               0.000414171              -0.000684985               0.999999989               0.000401479              -0.000678449               0.999999989               0.000394317              -0.000682305               0.999999989               0.000385943              -0.000688394               0.999999989               0.000373074              -0.000692859               0.999999989               0.000353226              -0.000692988               0.999999989               0.000325193              -0.000686975               0.999999989               0.000288946              -0.000674558               0.999999989               0.000244824              -0.000655809               0.999999989               0.000193856              -0.000631886               0.999999989               0.000137504              -0.000603970               0.999999989               0.000077663              -0.000573497               0.999999989               0.000016141              -0.000542050               0.999999989              -0.000045475              -0.000511046               0.999999989              -0.000106415              -0.000481304               0.999999989               0.000494966              -0.000922861               0.999999989               0.000385243              -0.000821049               0.999999989               0.000348895              -0.000782251               0.999999989               0.000335683              -0.000771705               0.999999989               0.000329147              -0.000773181               0.999999989               0.000322522              -0.000779007               0.999999989               0.000312233              -0.000785382               0.999999989               0.000296203              -0.000789749               0.999999989               0.000272970              -0.000790452               0.999999989               0.000242211              -0.000786450               0.999999989               0.000203668              -0.000777641               0.999999989               0.000157641              -0.000764305               0.999999989               0.000105376              -0.000747436               0.999999989               0.000048047              -0.000728057               0.999999989              -0.000012796              -0.000707290               0.999999989              -0.000075428              -0.000686351               0.999999989              -0.000138516              -0.000666274               0.999999989               0.000432896              -0.000998696               0.999999989               0.000324328              -0.000918549               0.999999989               0.000285913              -0.000882730               0.999999989               0.000271604              -0.000870290               0.999999989               0.000265007              -0.000870281               0.999999989               0.000259298              -0.000876125               0.999999989               0.000251132              -0.000884192               0.999999989               0.000238320              -0.000892061               0.999999989               0.000219596              -0.000898088               0.999999989               0.000194045              -0.000901296               0.999999989               0.000161367              -0.000900999               0.999999989               0.000121292              -0.000897189               0.999999989               0.000074245              -0.000890122               0.999999989               0.000020958              -0.000880721               0.999999989              -0.000037282              -0.000869712               0.999999989              -0.000098868              -0.000858263               0.999999989              -0.000162223              -0.000847162               0.999999989               0.000366869              -0.001065574               0.999999989               0.000265697              -0.001010290               0.999999989               0.000227040              -0.000981441               0.999999989               0.000211560              -0.000970347               0.999999989               0.000204292              -0.000970352               0.999999989               0.000198840              -0.000976929               0.999999989               0.000192204              -0.000986900               0.999999989               0.000182155              -0.000998003               0.999999989               0.000167276              -0.001008833               0.999999989               0.000146479              -0.001018311               0.999999989               0.000119495              -0.001025656               0.999999989               0.000085690              -0.001030380               0.999999989               0.000045148              -0.001032331               0.999999989              -0.000002269              -0.001031887               0.999999989              -0.000056103              -0.001029702               0.999999989              -0.000115225              -0.001026804               0.999999989              -0.000178194              -0.001023991               0.999999989               0.000297610              -0.001122064               0.999999989               0.000209511              -0.001092302               0.999999989               0.000173080              -0.001073387               0.999999989               0.000157174              -0.001066350               0.999999989               0.000149231              -0.001068338               0.999999989               0.000143840              -0.001076542               0.999999989               0.000138270              -0.001088791               0.999999989               0.000130388              -0.001103174               0.999999989               0.000118768              -0.001118550               0.999999989               0.000102556              -0.001133719               0.999999989               0.000081017              -0.001147874               0.999999989               0.000053913              -0.001160507               0.999999989               0.000020500              -0.001171202               0.999999989              -0.000019817              -0.001179773               0.999999989              -0.000067524              -0.001186536               0.999999989              -0.000122449              -0.001192094               0.999999989              -0.000183857              -0.001197353               0.999999989               0.000225631              -0.001167241               0.999999989               0.000155442              -0.001160705               0.999999989               0.000124186              -0.001153015               0.999999989               0.000109411              -0.001151694               0.999999989               0.000101619              -0.001156998               0.999999989               0.000096558              -0.001167771               0.999999989               0.000091862              -0.001182607               0.999999989               0.000085696              -0.001200412               0.999999989               0.000077013              -0.001220087               0.999999989               0.000065038              -0.001240540               0.999999989               0.000049010              -0.001260952               0.999999989               0.000028570              -0.001280789               0.999999989               0.000002920              -0.001299605               0.999999989              -0.000029113              -0.001317028               0.999999989              -0.000068621              -0.001332955               0.999999989              -0.000116257              -0.001347455               0.999999989              -0.000172712              -0.001360977               0.999999989               0.000151574              -0.001200175               0.999999989               0.000102881              -0.001212170               0.999999989               0.000079861              -0.001214724               0.999999989               0.000068305              -0.001219298               0.999999989               0.000061983              -0.001228296               0.999999989               0.000057906              -0.001241856               0.999999989               0.000054281              -0.001259394               0.999999989               0.000049954              -0.001280183               0.999999989               0.000044058              -0.001303421               0.999999989               0.000036081              -0.001328306               0.999999989               0.000025435              -0.001354108               0.999999989               0.000011863              -0.001380253               0.999999989              -0.000005496              -0.001406271               0.999999989              -0.000027910              -0.001431687               0.999999989              -0.000056406              -0.001456069               0.999999989              -0.000092400              -0.001479144               0.999999989              -0.000137205              -0.001500725               0.999999989               0.000076126              -0.001220173               0.999999989               0.000051219              -0.001244118               0.999999989               0.000039001              -0.001253861               0.999999989               0.000032620              -0.001262757               0.999999989               0.000029097              -0.001274706               0.999999989               0.000026763              -0.001290570               0.999999989               0.000024759              -0.001310101               0.999999989               0.000022521              -0.001332934               0.999999989               0.000019518              -0.001358574               0.999999989               0.000015432              -0.001386378               0.999999989               0.000010158              -0.001415737               0.999999989               0.000003389              -0.001446203               0.999999989              -0.000005304              -0.001477385               0.999999989              -0.000016750              -0.001508708               0.999999989              -0.000031807              -0.001539465               0.999999989              -0.000051366              -0.001569091               0.999999989              -0.000076747              -0.001596906               0.999999989              -0.000000000              -0.001226873               0.999999989              -0.000000000              -0.001254894               0.999999989               0.000000000              -0.001267267               0.999999989               0.000000000              -0.001277886               0.999999989               0.000000000              -0.001290897               0.999999989              -0.000000000              -0.001307516               0.999999989               0.000000000              -0.001327804               0.999999989               0.000000000              -0.001351407               0.999999989              -0.000000000              -0.001377864               0.999999989              -0.000000000              -0.001406605               0.999999989              -0.000000000              -0.001437174               0.999999989              -0.000000000              -0.001469284               0.999999989               0.000000000              -0.001502509               0.999999989              -0.000000000              -0.001536243               0.999999989              -0.000000000              -0.001569706               0.999999989               0.000000000              -0.001602071               0.999999989               0.000000000              -0.001632344               0.999999989               0.000808296              -0.000000000               0.999999989               0.000852426               0.000000000               0.999999989               0.000870989              -0.000000000               0.999999989               0.000881274               0.000000000               0.999999989               0.000889581               0.000000000               0.999999989               0.000897966               0.000000000               0.999999989               0.000907107               0.000000000               0.999999989               0.000916966               0.000000000               0.999999989               0.000927234              -0.000000000               0.999999989               0.000937706               0.000000000               0.999999989               0.000948273               0.000000000               0.999999989               0.000958517               0.000000000               0.999999989               0.000968071               0.000000000               0.999999989               0.000976611              -0.000000000               0.999999989               0.000983673              -0.000000000               0.999999989               0.000988842              -0.000000000               0.999999989               0.000991348               0.000000000               0.999999989               0.000803750               0.000115546               0.999999989               0.000844117               0.000091466               0.999999989               0.000860330               0.000080216               0.999999989               0.000869075               0.000075215               0.999999989               0.000876212               0.000073371               0.999999989               0.000883694               0.000073121               0.999999989               0.000892066               0.000073224               0.999999989               0.000901139               0.000073119               0.999999989               0.000910617               0.000072374               0.999999989               0.000920152               0.000070802               0.999999989               0.000929428               0.000068157               0.999999989               0.000938193               0.000064088               0.999999989               0.000946064               0.000058240               0.999999989               0.000952701               0.000050271               0.999999989               0.000957752               0.000039618               0.999999989               0.000960718               0.000025562               0.999999989               0.000961000               0.000006808               0.999999989               0.000790397               0.000230065               0.999999989               0.000819753               0.000182667               0.999999989               0.000829118               0.000161306               0.999999989               0.000833514               0.000152268               0.999999989               0.000837681               0.000149328               0.999999989               0.000842879               0.000149206               0.999999989               0.000849139               0.000149810               0.999999989               0.000855998               0.000149808               0.999999989               0.000862962               0.000148475               0.999999989               0.000869609               0.000145379               0.999999989               0.000875452               0.000139980               0.999999989               0.000880222               0.000131912               0.999999989               0.000883550               0.000120627               0.999999989               0.000885078               0.000105367               0.999999989               0.000884499               0.000085238               0.999999989               0.000881426               0.000059044               0.999999989               0.000875670               0.000025670               0.999999989               0.000768490               0.000342599               0.999999989               0.000780500               0.000273357               0.999999989               0.000779921               0.000244024               0.999999989               0.000778487               0.000232643               0.999999989               0.000778847               0.000229618               0.999999989               0.000780963               0.000230300               0.999999989               0.000784278               0.000231766               0.999999989               0.000787925               0.000232049               0.999999989               0.000791193               0.000230140               0.999999989               0.000793502               0.000225518               0.999999989               0.000794313               0.000217591               0.999999989               0.000793253               0.000205705               0.999999989               0.000789896               0.000189385               0.999999989               0.000783924               0.000167642               0.999999989               0.000775075               0.000139638               0.999999989               0.000763379               0.000104723               0.999999989               0.000749214               0.000062333               0.999999989               0.000738388               0.000452172               0.999999989               0.000728431               0.000363544               0.999999989               0.000716834               0.000328886               0.999999989               0.000709484               0.000316987               0.999999989               0.000706152               0.000315014               0.999999989               0.000705299               0.000316960               0.999999989               0.000705442               0.000319375               0.999999989               0.000705346               0.000319881               0.999999989               0.000704060               0.000317465               0.999999989               0.000700845               0.000311416               0.999999989               0.000695187               0.000300968               0.999999989               0.000686533               0.000285572               0.999999989               0.000674561               0.000264598               0.999999989               0.000659098               0.000237617               0.999999989               0.000640372               0.000204135               0.999999989               0.000618940               0.000164272               0.999999989               0.000595658               0.000118681               0.999999989               0.000700908               0.000557711               0.999999989               0.000666246               0.000453369               0.999999989               0.000644275               0.000415993               0.999999989               0.000632328               0.000405021               0.999999989               0.000626423               0.000404689               0.999999989               0.000623058               0.000407978               0.999999989               0.000620041               0.000411244               0.999999989               0.000615839               0.000412024               0.999999989               0.000609309               0.000409009               0.999999989               0.000599646               0.000401345               0.999999989               0.000586166               0.000388427               0.999999989               0.000568481               0.000369660               0.999999989               0.000546644               0.000344959               0.999999989               0.000520998               0.000314110               0.999999989               0.000492124               0.000277633               0.999999989               0.000461031               0.000236234               0.999999989               0.000428900               0.000191766               0.999999989               0.000656682               0.000658274               0.999999989               0.000596768               0.000542973               0.999999989               0.000566866               0.000504965               0.999999989               0.000552475               0.000495706               0.999999989               0.000545172               0.000497154               0.999999989               0.000539922               0.000501506               0.999999989               0.000533869               0.000505501               0.999999989               0.000525167               0.000506378               0.999999989               0.000512615               0.000502525               0.999999989               0.000495385               0.000493228               0.999999989               0.000472924               0.000477745               0.999999989               0.000445372               0.000456195               0.999999989               0.000413070               0.000428760               0.999999989               0.000376831               0.000395971               0.999999989               0.000337718               0.000358548               0.999999989               0.000296997               0.000318144               0.999999989               0.000255782               0.000276745               0.999999989               0.000606410               0.000752962               0.999999989               0.000523316               0.000632119               0.999999989               0.000488876               0.000595058               0.999999989               0.000474450               0.000587483               0.999999989               0.000466875               0.000590360               0.999999989               0.000460066               0.000595555               0.999999989               0.000450823               0.000599950               0.999999989               0.000437107               0.000600655               0.999999989               0.000417448               0.000595729               0.999999989               0.000391388               0.000584651               0.999999989               0.000358800               0.000567163               0.999999989               0.000320195               0.000543868               0.999999989               0.000276384               0.000515365               0.999999989               0.000228806               0.000482489               0.999999989               0.000178785               0.000446627               0.999999989               0.000127842               0.000409614               0.999999989               0.000077131               0.000372989               0.999999989               0.000551761               0.000840049               0.999999989               0.000448377               0.000720756               0.999999989               0.000414171               0.000684985               0.999999989               0.000401479               0.000678449               0.999999989               0.000394317               0.000682305               0.999999989               0.000385943               0.000688394               0.999999989               0.000373074               0.000692859               0.999999989               0.000353226               0.000692988               0.999999989               0.000325193               0.000686975               0.999999989               0.000288946               0.000674558               0.999999989               0.000244824               0.000655809               0.999999989               0.000193856               0.000631886               0.999999989               0.000137504               0.000603970               0.999999989               0.000077663               0.000573497               0.999999989               0.000016141               0.000542050               0.999999989              -0.000045475               0.000511046               0.999999989              -0.000106415               0.000481304               0.999999989               0.000494966               0.000922861               0.999999989               0.000385243               0.000821049               0.999999989               0.000348895               0.000782251               0.999999989               0.000335683               0.000771705               0.999999989               0.000329147               0.000773181               0.999999989               0.000322522               0.000779007               0.999999989               0.000312233               0.000785382               0.999999989               0.000296203               0.000789749               0.999999989               0.000272970               0.000790452               0.999999989               0.000242211               0.000786450               0.999999989               0.000203668               0.000777641               0.999999989               0.000157641               0.000764305               0.999999989               0.000105376               0.000747436               0.999999989               0.000048047               0.000728057               0.999999989              -0.000012796               0.000707290               0.999999989              -0.000075428               0.000686351               0.999999989              -0.000138516               0.000666274               0.999999989               0.000432896               0.000998696               0.999999989               0.000324328               0.000918549               0.999999989               0.000285913               0.000882730               0.999999989               0.000271604               0.000870290               0.999999989               0.000265007               0.000870281               0.999999989               0.000259298               0.000876125               0.999999989               0.000251132               0.000884192               0.999999989               0.000238320               0.000892061               0.999999989               0.000219596               0.000898088               0.999999989               0.000194045               0.000901296               0.999999989               0.000161367               0.000900999               0.999999989               0.000121292               0.000897189               0.999999989               0.000074245               0.000890122               0.999999989               0.000020958               0.000880721               0.999999989              -0.000037282               0.000869712               0.999999989              -0.000098868               0.000858263               0.999999989              -0.000162223               0.000847162               0.999999989               0.000366869               0.001065574               0.999999989               0.000265697               0.001010290               0.999999989               0.000227040               0.000981441               0.999999989               0.000211560               0.000970347               0.999999989               0.000204292               0.000970352               0.999999989               0.000198840               0.000976929               0.999999989               0.000192204               0.000986900               0.999999989               0.000182155               0.000998003               0.999999989               0.000167276               0.001008833               0.999999989               0.000146479               0.001018311               0.999999989               0.000119495               0.001025656               0.999999989               0.000085690               0.001030380               0.999999989               0.000045148               0.001032331               0.999999989              -0.000002269               0.001031887               0.999999989              -0.000056103               0.001029702               0.999999989              -0.000115225               0.001026804               0.999999989              -0.000178194               0.001023991               0.999999989               0.000297610               0.001122064               0.999999989               0.000209511               0.001092302               0.999999989               0.000173080               0.001073387               0.999999989               0.000157174               0.001066350               0.999999989               0.000149231               0.001068338               0.999999989               0.000143840               0.001076542               0.999999989               0.000138270               0.001088791               0.999999989               0.000130388               0.001103174               0.999999989               0.000118768               0.001118550               0.999999989               0.000102556               0.001133719               0.999999989               0.000081017               0.001147874               0.999999989               0.000053913               0.001160507               0.999999989               0.000020500               0.001171202               0.999999989              -0.000019817               0.001179773               0.999999989              -0.000067524               0.001186536               0.999999989              -0.000122449               0.001192094               0.999999989              -0.000183857               0.001197353               0.999999989               0.000225631               0.001167241               0.999999989               0.000155442               0.001160705               0.999999989               0.000124186               0.001153015               0.999999989               0.000109411               0.001151694               0.999999989               0.000101619               0.001156998               0.999999989               0.000096558               0.001167771               0.999999989               0.000091862               0.001182607               0.999999989               0.000085696               0.001200412               0.999999989               0.000077013               0.001220087               0.999999989               0.000065038               0.001240540               0.999999989               0.000049010               0.001260952               0.999999989               0.000028570               0.001280789               0.999999989               0.000002920               0.001299605               0.999999989              -0.000029113               0.001317028               0.999999989              -0.000068621               0.001332955               0.999999989              -0.000116257               0.001347455               0.999999989              -0.000172712               0.001360977               0.999999989               0.000151574               0.001200175               0.999999989               0.000102881               0.001212170               0.999999989               0.000079861               0.001214724               0.999999989               0.000068305               0.001219298               0.999999989               0.000061983               0.001228296               0.999999989               0.000057906               0.001241856               0.999999989               0.000054281               0.001259394               0.999999989               0.000049954               0.001280183               0.999999989               0.000044058               0.001303421               0.999999989               0.000036081               0.001328306               0.999999989               0.000025435               0.001354108               0.999999989               0.000011863               0.001380253               0.999999989              -0.000005496               0.001406271               0.999999989              -0.000027910               0.001431687               0.999999989              -0.000056406               0.001456069               0.999999989              -0.000092400               0.001479144               0.999999989              -0.000137205               0.001500725               0.999999989               0.000076126               0.001220173               0.999999989               0.000051219               0.001244118               0.999999989               0.000039001               0.001253861               0.999999989               0.000032620               0.001262757               0.999999989               0.000029097               0.001274706               0.999999989               0.000026763               0.001290570               0.999999989               0.000024759               0.001310101               0.999999989               0.000022521               0.001332934               0.999999989               0.000019518               0.001358574               0.999999989               0.000015432               0.001386378               0.999999989               0.000010158               0.001415737               0.999999989               0.000003389               0.001446203               0.999999989              -0.000005304               0.001477385               0.999999989              -0.000016750               0.001508708               0.999999989              -0.000031807               0.001539465               0.999999989              -0.000051366               0.001569091               0.999999989              -0.000076747               0.001596906               0.999999989              -0.000000000               0.001226873               0.999999989              -0.000000000               0.001254894               0.999999989              -0.000000000               0.001267267               0.999999989               0.000000000               0.001277886               0.999999989              -0.000000000               0.001290897               0.999999989              -0.000000000               0.001307516               0.999999989               0.000000000               0.001327804               0.999999989              -0.000000000               0.001351407               0.999999989               0.000000000               0.001377864               0.999999989              -0.000000000               0.001406605               0.999999989               0.000000000               0.001437174               0.999999989               0.000000000               0.001469284               0.999999989               0.000000000               0.001502509               0.999999989               0.000000000               0.001536243               0.999999989               0.000000000               0.001569706               0.999999989              -0.000000000               0.001602071               0.999999989              -0.000000000               0.001632344               0.999999989 </DataArray>
<DataArray type="Float64"                                    Name="stress"                                                      NumberOfComponents="10" format="ascii">
              0.001964047               0.020955320              -0.000000000              -0.001882893               0.007612668               0.005729775               0.000000000               0.000000000               0.000000000               0.000000000               0.001864346               0.016047228              -0.000000000              -0.001306771               0.005784613               0.004477842               0.000000000               0.000000000               0.000000000               0.000000000               0.002375016               0.012042243              -0.000000000              -0.000614648               0.004218923               0.003604276               0.000000000               0.000000000               0.000000000               0.000000000               0.002167660               0.009762899               0.000000000              -0.000407489               0.003390097               0.002982608               0.000000000               0.000000000               0.000000000               0.000000000               0.001780169               0.008316330               0.000000000              -0.000371977               0.002896075               0.002524098               0.000000000               0.000000000               0.000000000               0.000000000               0.001388992               0.007307004              -0.000000000              -0.000392503               0.002566478               0.002173975               0.000000000               0.000000000               0.000000000               0.000000000               0.001043048               0.006523454              -0.000000000              -0.000424288               0.002315892               0.001891604               0.000000000               0.000000000               0.000000000               0.000000000               0.000761790               0.005865910              -0.000000000              -0.000447567               0.002104473               0.001656906               0.000000000               0.000000000               0.000000000               0.000000000               0.000534781               0.005276310              -0.000000000              -0.000458995               0.001911751               0.001452756               0.000000000               0.000000000               0.000000000               0.000000000               0.000343591               0.004721752              -0.000000000              -0.000461371               0.001727692               0.001266321               0.000000000               0.000000000               0.000000000               0.000000000               0.000187947               0.004181878              -0.000000000              -0.000452254               0.001544697               0.001092443               0.000000000               0.000000000               0.000000000               0.000000000               0.000073452               0.003639095              -0.000000000              -0.000427341               0.001355467               0.000928125               0.000000000               0.000000000               0.000000000               0.000000000              -0.000007861               0.003075135              -0.000000000              -0.000387339               0.001154148               0.000766809               0.000000000               0.000000000               0.000000000               0.000000000              -0.000057259               0.002476120              -0.000000000              -0.000330986               0.000935694               0.000604708               0.000000000               0.000000000               0.000000000               0.000000000              -0.000074147               0.001823604              -0.000000000              -0.000255755               0.000693114               0.000437358               0.000000000               0.000000000               0.000000000               0.000000000              -0.000048978               0.001095476              -0.000000000              -0.000155301               0.000416922               0.000261621               0.000000000               0.000000000               0.000000000               0.000000000              -0.000083119               0.000538655              -0.000000000              -0.000098501               0.000212383               0.000113882               0.000000000               0.000000000               0.000000000               0.000000000               0.002018844               0.020504659              -0.001380922              -0.001806012               0.007436822               0.005630810               0.000000000               0.000000000               0.000000000               0.000000000               0.001801893               0.015762974              -0.000615715              -0.001294659               0.005685825               0.004391166               0.000000000               0.000000000               0.000000000               0.000000000               0.002188154               0.011929696               0.000136110              -0.000670652               0.004200076               0.003529424               0.000000000               0.000000000               0.000000000               0.000000000               0.001938807               0.009740827               0.000444672              -0.000490550               0.003410426               0.002919877               0.000000000               0.000000000               0.000000000               0.000000000               0.001544254               0.008341061               0.000566772              -0.000463537               0.002934838               0.002471302               0.000000000               0.000000000               0.000000000               0.000000000               0.001158677               0.007350942               0.000599403              -0.000484363               0.002611744               0.002127381               0.000000000               0.000000000               0.000000000               0.000000000               0.000829692               0.006579662               0.000588629              -0.000511322               0.002363639               0.001852317               0.000000000               0.000000000               0.000000000               0.000000000               0.000567631               0.005927228               0.000561156              -0.000528041               0.002151736               0.001623696               0.000000000               0.000000000               0.000000000               0.000000000               0.000361321               0.005339823               0.000528792              -0.000531981               0.001957250               0.001425269               0.000000000               0.000000000               0.000000000               0.000000000               0.000199616               0.004787399               0.000496484              -0.000523568               0.001770306               0.001246738               0.000000000               0.000000000               0.000000000               0.000000000               0.000071737               0.004247270               0.000463672              -0.000504006               0.001583744               0.001079738               0.000000000               0.000000000               0.000000000               0.000000000              -0.000021195               0.003707735               0.000426562              -0.000471414               0.001393037               0.000921623               0.000000000               0.000000000               0.000000000               0.000000000              -0.000079421               0.003156228               0.000382570              -0.000424310               0.001193502               0.000769192               0.000000000               0.000000000               0.000000000               0.000000000              -0.000108662               0.002576403               0.000326787              -0.000362798               0.000979725               0.000616927               0.000000000               0.000000000               0.000000000               0.000000000              -0.000105528               0.001954014               0.000251025              -0.000283824               0.000745940               0.000462115               0.000000000               0.000000000               0.000000000               0.000000000              -0.000062602               0.001274728               0.000142695              -0.000182817               0.000485844               0.000303027               0.000000000               0.000000000               0.000000000               0.000000000              -0.000084354               0.000769186               0.000089172              -0.000127781               0.000298986               0.000171205               0.000000000               0.000000000               0.000000000               0.000000000               0.002147636               0.019218020              -0.002555070              -0.001596886               0.006938238               0.005341352               0.000000000               0.000000000               0.000000000               0.000000000               0.001611702               0.014954609              -0.001133734              -0.001264935               0.005406465               0.004141530               0.000000000               0.000000000               0.000000000               0.000000000               0.001659915               0.011614463               0.000249791              -0.000829338               0.004147895               0.003318557               0.000000000               0.000000000               0.000000000               0.000000000               0.001295342               0.009673740               0.000795262              -0.000723463               0.003465702               0.002742239               0.000000000               0.000000000               0.000000000               0.000000000               0.000886100               0.008393497               0.000998211              -0.000716898               0.003036770               0.002319872               0.000000000               0.000000000               0.000000000               0.000000000               0.000531835               0.007458241               0.001047993              -0.000732841               0.002730336               0.001997495               0.000000000               0.000000000               0.000000000               0.000000000               0.000257475               0.006714311               0.001024078              -0.000742734               0.002485659               0.001742925               0.000000000               0.000000000               0.000000000               0.000000000               0.000057551               0.006072594               0.000970604              -0.000737491               0.002270008               0.001532517               0.000000000               0.000000000               0.000000000               0.000000000              -0.000085770               0.005488140               0.000910844              -0.000718180               0.002068755               0.001350575               0.000000000               0.000000000               0.000000000               0.000000000              -0.000179994               0.004938816               0.000849274              -0.000684849               0.001874538               0.001189690               0.000000000               0.000000000               0.000000000               0.000000000              -0.000238465               0.004406662               0.000785089              -0.000640256               0.001682291               0.001042035               0.000000000               0.000000000               0.000000000               0.000000000              -0.000267634               0.003881155               0.000716739              -0.000585506               0.001488874               0.000903368               0.000000000               0.000000000               0.000000000               0.000000000              -0.000263562               0.003358141               0.000635311              -0.000518602               0.001292236               0.000773634               0.000000000               0.000000000               0.000000000               0.000000000              -0.000232738               0.002824983               0.000532212              -0.000440399               0.001088451               0.000648052               0.000000000               0.000000000               0.000000000               0.000000000              -0.000174185               0.002279248               0.000397929              -0.000350225               0.000876483               0.000526259               0.000000000               0.000000000               0.000000000               0.000000000              -0.000090126               0.001727149               0.000221072              -0.000249690               0.000658941               0.000409250               0.000000000               0.000000000               0.000000000               0.000000000              -0.000084470               0.001344410               0.000136915              -0.000199727               0.000514708               0.000314981               0.000000000               0.000000000               0.000000000               0.000000000               0.002242373               0.017265725              -0.003359650              -0.001317324               0.006194292               0.004876967               0.000000000               0.000000000               0.000000000               0.000000000               0.001268215               0.013745151              -0.001488038              -0.001242561               0.004995858               0.003753297               0.000000000               0.000000000               0.000000000               0.000000000               0.000853790               0.011146158               0.000304239              -0.001073096               0.004073048               0.002999952               0.000000000               0.000000000               0.000000000               0.000000000               0.000358363               0.009554930               0.000967196              -0.001059978               0.003538271               0.002478293               0.000000000               0.000000000               0.000000000               0.000000000              -0.000036410               0.008437991               0.001196437              -0.001068400               0.003168769               0.002100369               0.000000000               0.000000000               0.000000000               0.000000000              -0.000317048               0.007574260               0.001244138              -0.001065673               0.002879952               0.001814279               0.000000000               0.000000000               0.000000000               0.000000000              -0.000500473               0.006855097               0.001205576              -0.001044562               0.002633197               0.001588634               0.000000000               0.000000000               0.000000000               0.000000000              -0.000604375               0.006221263               0.001132339              -0.001004296               0.002408499               0.001404202               0.000000000               0.000000000               0.000000000               0.000000000              -0.000650684               0.005644294               0.001053819              -0.000949541               0.002197926               0.001248385               0.000000000               0.000000000               0.000000000               0.000000000              -0.000651699               0.005105320               0.000975182              -0.000882550               0.001995940               0.001113389               0.000000000               0.000000000               0.000000000               0.000000000              -0.000617833               0.004590328               0.000892063              -0.000805477               0.001798586               0.000993109               0.000000000               0.000000000               0.000000000               0.000000000              -0.000555712               0.004091055               0.000804593              -0.000719772               0.001603595               0.000883823               0.000000000               0.000000000               0.000000000               0.000000000              -0.000466410               0.003605848               0.000702909              -0.000625634               0.001410482               0.000784848               0.000000000               0.000000000               0.000000000               0.000000000              -0.000354647               0.003139929               0.000574972              -0.000525483               0.001221793               0.000696311               0.000000000               0.000000000               0.000000000               0.000000000              -0.000229858               0.002702352               0.000417325              -0.000423990               0.001042105               0.000618115               0.000000000               0.000000000               0.000000000               0.000000000              -0.000108121               0.002312903               0.000225115              -0.000329657               0.000880846               0.000551188               0.000000000               0.000000000               0.000000000               0.000000000              -0.000075648               0.002075115               0.000133032              -0.000287757               0.000787617               0.000499860               0.000000000               0.000000000               0.000000000               0.000000000               0.002168826               0.014877167              -0.003726846              -0.001046336               0.005307784               0.004261448               0.000000000               0.000000000               0.000000000               0.000000000               0.000748382               0.012299061              -0.001667590              -0.001256737               0.004518558               0.003261821               0.000000000               0.000000000               0.000000000               0.000000000              -0.000137681               0.010578735               0.000269753              -0.001373969               0.003984199               0.002610230               0.000000000               0.000000000               0.000000000               0.000000000              -0.000708230               0.009365647               0.000930982              -0.001436289               0.003600614               0.002164325               0.000000000               0.000000000               0.000000000               0.000000000              -0.001033855               0.008414675               0.001137797              -0.001439526               0.003284705               0.001845179               0.000000000               0.000000000               0.000000000               0.000000000              -0.001196114               0.007618046               0.001171483              -0.001400795               0.003006255               0.001605459               0.000000000               0.000000000               0.000000000               0.000000000              -0.001251487               0.006925716               0.001125975              -0.001335019               0.002753555               0.001418536               0.000000000               0.000000000               0.000000000               0.000000000              -0.001229743               0.006310712               0.001048774              -0.001249990               0.002520213               0.001270223               0.000000000               0.000000000               0.000000000               0.000000000              -0.001154721               0.005752132               0.000968482              -0.001152034               0.002301369               0.001149335               0.000000000               0.000000000               0.000000000               0.000000000              -0.001044912               0.005230043               0.000887727              -0.001045595               0.002091862               0.001046267               0.000000000               0.000000000               0.000000000               0.000000000              -0.000906535               0.004737777               0.000803986              -0.000932171               0.001889967               0.000957796               0.000000000               0.000000000               0.000000000               0.000000000              -0.000746008               0.004274059               0.000714727              -0.000814008               0.001696008               0.000882000               0.000000000               0.000000000               0.000000000               0.000000000              -0.000570539               0.003844575               0.000611405              -0.000694523               0.001513020               0.000818497               0.000000000               0.000000000               0.000000000               0.000000000              -0.000390811               0.003462083               0.000484973              -0.000579313               0.001347120               0.000767807               0.000000000               0.000000000               0.000000000               0.000000000              -0.000226802               0.003143579               0.000334787              -0.000477997               0.001207181               0.000729185               0.000000000               0.000000000               0.000000000               0.000000000              -0.000097947               0.002907028               0.000170879              -0.000400108               0.001102369               0.000702261               0.000000000               0.000000000               0.000000000               0.000000000              -0.000052636               0.002796310               0.000092515              -0.000369276               0.001055186               0.000685910               0.000000000               0.000000000               0.000000000               0.000000000               0.001823885               0.012311288              -0.003661137              -0.000854955               0.004388706               0.003533751               0.000000000               0.000000000               0.000000000               0.000000000               0.000057827               0.010777440              -0.001693804              -0.001325493               0.004034275               0.002708782               0.000000000               0.000000000               0.000000000               0.000000000              -0.001206035               0.009951250               0.000127887              -0.001696165               0.003882438               0.002186273               0.000000000               0.000000000               0.000000000               0.000000000              -0.001756131               0.009084096               0.000698285              -0.001794057               0.003626021               0.001831964               0.000000000               0.000000000               0.000000000               0.000000000              -0.001945276               0.008276038               0.000862701              -0.001763979               0.003346645               0.001582666               0.000000000               0.000000000               0.000000000               0.000000000              -0.001944970               0.007542602               0.000890098              -0.001672185               0.003071571               0.001399386               0.000000000               0.000000000               0.000000000               0.000000000              -0.001844146               0.006891722               0.000855648              -0.001553016               0.002814890               0.001261874               0.000000000               0.000000000               0.000000000               0.000000000              -0.001681955               0.006309037               0.000792567              -0.001419359               0.002576111               0.001156752               0.000000000               0.000000000               0.000000000               0.000000000              -0.001482668               0.005773662               0.000725525              -0.001277705               0.002350436               0.001072731               0.000000000               0.000000000               0.000000000               0.000000000              -0.001256962               0.005277327               0.000658386              -0.001131024               0.002136099               0.001005075               0.000000000               0.000000000               0.000000000               0.000000000              -0.001015079               0.004817533               0.000588475              -0.000982844               0.001933443               0.000950599               0.000000000               0.000000000               0.000000000               0.000000000              -0.000769983               0.004403235               0.000511176              -0.000839146               0.001747446               0.000908299               0.000000000               0.000000000               0.000000000               0.000000000              -0.000536909               0.004044376               0.000419360              -0.000706886               0.001583740               0.000876854               0.000000000               0.000000000               0.000000000               0.000000000              -0.000326988               0.003752629               0.000310754              -0.000591698               0.001448096               0.000856399               0.000000000               0.000000000               0.000000000               0.000000000              -0.000161108               0.003538549               0.000193260              -0.000502733               0.001347082               0.000844349               0.000000000               0.000000000               0.000000000               0.000000000              -0.000058008               0.003413717               0.000086257              -0.000448467               0.001287383               0.000838917               0.000000000               0.000000000               0.000000000               0.000000000              -0.000023010               0.003378823               0.000039539              -0.000430980               0.001269923               0.000838943               0.000000000               0.000000000               0.000000000               0.000000000               0.001143271               0.009793715              -0.003234799              -0.000795489               0.003529701               0.002734212               0.000000000               0.000000000               0.000000000               0.000000000              -0.000772414               0.009298214              -0.001619936              -0.001451929               0.003583350               0.002131420               0.000000000               0.000000000               0.000000000               0.000000000              -0.002235175               0.009289174              -0.000132102              -0.001999333               0.003762805               0.001763472               0.000000000               0.000000000               0.000000000               0.000000000              -0.002645341               0.008708681               0.000311040              -0.002080583               0.003596392               0.001515809               0.000000000               0.000000000               0.000000000               0.000000000              -0.002644197               0.008019872               0.000444397              -0.001994053               0.003337948               0.001343895               0.000000000               0.000000000               0.000000000               0.000000000              -0.002464067               0.007354280               0.000485164              -0.001843305               0.003065837               0.001222532               0.000000000               0.000000000               0.000000000               0.000000000              -0.002199138               0.006755590               0.000482618              -0.001669121               0.002808214               0.001139093               0.000000000               0.000000000               0.000000000               0.000000000              -0.001894773               0.006210869               0.000449760              -0.001486895               0.002565901               0.001079006               0.000000000               0.000000000               0.000000000               0.000000000              -0.001579718               0.005705342               0.000413025              -0.001305559               0.002336948               0.001031389               0.000000000               0.000000000               0.000000000               0.000000000              -0.001257117               0.005244550               0.000373404              -0.001126985               0.002123827               0.000996843               0.000000000               0.000000000               0.000000000               0.000000000              -0.000941344               0.004834710               0.000328634              -0.000957341               0.001930668               0.000973327               0.000000000               0.000000000               0.000000000               0.000000000              -0.000646839               0.004491489               0.000276444              -0.000803999               0.001765147               0.000961149               0.000000000               0.000000000               0.000000000               0.000000000              -0.000392008               0.004218249               0.000212012              -0.000674282               0.001630830               0.000956547               0.000000000               0.000000000               0.000000000               0.000000000              -0.000193029               0.004019797               0.000136077              -0.000574859               0.001531539               0.000956680               0.000000000               0.000000000               0.000000000               0.000000000              -0.000063631               0.003898681               0.000064249              -0.000511196               0.001469946               0.000958750               0.000000000               0.000000000               0.000000000               0.000000000              -0.000007637               0.003855449               0.000017717              -0.000484794               0.001446735               0.000961941               0.000000000               0.000000000               0.000000000               0.000000000               0.000005785               0.003862096               0.000000976              -0.000480591               0.001447550               0.000966958               0.000000000               0.000000000               0.000000000               0.000000000               0.000153607               0.007472891              -0.002561883              -0.000876508               0.002783107               0.001906599               0.000000000               0.000000000               0.000000000               0.000000000              -0.001690044               0.007945673              -0.001501348              -0.001626972               0.003190855               0.001563883               0.000000000               0.000000000               0.000000000               0.000000000              -0.003118385               0.008601808              -0.000498437              -0.002244615               0.003615445               0.001370831               0.000000000               0.000000000               0.000000000               0.000000000              -0.003290343               0.008238475              -0.000168768              -0.002263682               0.003500692               0.001237009               0.000000000               0.000000000               0.000000000               0.000000000              -0.003067933               0.007662661              -0.000033912              -0.002108302               0.003256962               0.001148660               0.000000000               0.000000000               0.000000000               0.000000000              -0.002710183               0.007084026               0.000039213              -0.001901817               0.002995257               0.001093440               0.000000000               0.000000000               0.000000000               0.000000000              -0.002299960               0.006540323               0.000084404              -0.001680021               0.002740093               0.001060072               0.000000000               0.000000000               0.000000000               0.000000000              -0.001870711               0.006035903               0.000099767              -0.001456001               0.002497281               0.001041280               0.000000000               0.000000000               0.000000000               0.000000000              -0.001455510               0.005574034               0.000104962              -0.001242568               0.002272182               0.001029615               0.000000000               0.000000000               0.000000000               0.000000000              -0.001065014               0.005166514               0.000104059              -0.001045192               0.002070551               0.001025360               0.000000000               0.000000000               0.000000000               0.000000000              -0.000707171               0.004827634               0.000097369              -0.000868641               0.001898742               0.001030101               0.000000000               0.000000000               0.000000000               0.000000000              -0.000399353               0.004567321               0.000084804              -0.000720671               0.001762649               0.001041978               0.000000000               0.000000000               0.000000000               0.000000000              -0.000163361               0.004386885               0.000058434              -0.000609619               0.001665487               0.001055867               0.000000000               0.000000000               0.000000000               0.000000000              -0.000009180               0.004288013               0.000023265              -0.000539443               0.001609138               0.001069695               0.000000000               0.000000000               0.000000000               0.000000000               0.000063798               0.004268343              -0.000005021              -0.000509618               0.001592639               0.001083022               0.000000000               0.000000000               0.000000000               0.000000000               0.000058689               0.004305094              -0.000012944              -0.000516127               0.001607059               0.001090932               0.000000000               0.000000000               0.000000000               0.000000000               0.000043136               0.004351561              -0.000015643              -0.000527768               0.001626428               0.001098660               0.000000000               0.000000000               0.000000000               0.000000000              -0.001018542               0.005519433              -0.001752414              -0.001071881               0.002197086               0.001125205               0.000000000               0.000000000               0.000000000               0.000000000              -0.002593185               0.006741935              -0.001376211              -0.001815182               0.002852350               0.001037167               0.000000000               0.000000000               0.000000000               0.000000000              -0.003813268               0.007912363              -0.000940841              -0.002419015               0.003443766               0.001024751               0.000000000               0.000000000               0.000000000               0.000000000              -0.003733124               0.007779564              -0.000681905              -0.002372361               0.003383949               0.001011588               0.000000000               0.000000000               0.000000000               0.000000000              -0.003320136               0.007347411              -0.000516285              -0.002163472               0.003170270               0.001006798               0.000000000               0.000000000               0.000000000               0.000000000              -0.002814267               0.006871116              -0.000399139              -0.001914235               0.002928428               0.001014193               0.000000000               0.000000000               0.000000000               0.000000000              -0.002289239               0.006397189              -0.000303270              -0.001658109               0.002685078               0.001026969               0.000000000               0.000000000               0.000000000               0.000000000              -0.001767245               0.005940514              -0.000228738              -0.001405278               0.002448578               0.001043300               0.000000000               0.000000000               0.000000000               0.000000000              -0.001275081               0.005527707              -0.000173553              -0.001169116               0.002232256               0.001063140               0.000000000               0.000000000               0.000000000               0.000000000              -0.000829971               0.005169895              -0.000129493              -0.000957473               0.002042439               0.001084965               0.000000000               0.000000000               0.000000000               0.000000000              -0.000445305               0.004883422              -0.000089717              -0.000777415               0.001886929               0.001109514               0.000000000               0.000000000               0.000000000               0.000000000              -0.000140018               0.004676387              -0.000053537              -0.000637054               0.001771131               0.001134078               0.000000000               0.000000000               0.000000000               0.000000000               0.000077633               0.004555176              -0.000030900              -0.000540283               0.001698471               0.001158188               0.000000000               0.000000000               0.000000000               0.000000000               0.000202020               0.004522455              -0.000019898              -0.000489548               0.001670652               0.001181104               0.000000000               0.000000000               0.000000000               0.000000000               0.000243020               0.004570468              -0.000015417              -0.000480175               0.001683532               0.001203357               0.000000000               0.000000000               0.000000000               0.000000000               0.000220615               0.004674422              -0.000011117              -0.000501571               0.001725315               0.001223745               0.000000000               0.000000000               0.000000000               0.000000000               0.000190279               0.004746527              -0.000008973              -0.000521960               0.001756147               0.001234186               0.000000000               0.000000000               0.000000000               0.000000000              -0.002378209               0.003713791              -0.000903931              -0.001356049               0.001689934               0.000333885               0.000000000               0.000000000               0.000000000               0.000000000              -0.003363040               0.005349611              -0.001241378              -0.001929837               0.002426464               0.000496628               0.000000000               0.000000000               0.000000000               0.000000000              -0.004242093               0.006898331              -0.001406577              -0.002453070               0.003117110               0.000664040               0.000000000               0.000000000               0.000000000               0.000000000              -0.004015738               0.007118957              -0.001227953              -0.002395766               0.003171550               0.000775785               0.000000000               0.000000000               0.000000000               0.000000000              -0.003522420               0.006932396              -0.001035635              -0.002187452               0.003039926               0.000852474               0.000000000               0.000000000               0.000000000               0.000000000              -0.002965035               0.006633665              -0.000869844              -0.001941092               0.002858230               0.000917138               0.000000000               0.000000000               0.000000000               0.000000000              -0.002403937               0.006305148              -0.000724693              -0.001689616               0.002664900               0.000975284               0.000000000               0.000000000               0.000000000               0.000000000              -0.001856379               0.005966109              -0.000597693              -0.001441902               0.002469317               0.001027415               0.000000000               0.000000000               0.000000000               0.000000000              -0.001334611               0.005639489              -0.000492286              -0.001205412               0.002281615               0.001076202               0.000000000               0.000000000               0.000000000               0.000000000              -0.000858684               0.005340909              -0.000399826              -0.000989618               0.002110158               0.001120540               0.000000000               0.000000000               0.000000000               0.000000000              -0.000438616               0.005089547              -0.000309614              -0.000800672               0.001963389               0.001162717               0.000000000               0.000000000               0.000000000               0.000000000              -0.000092393               0.004898914              -0.000224693              -0.000647010               0.001848625               0.001201615               0.000000000               0.000000000               0.000000000               0.000000000               0.000171072               0.004780401              -0.000149001              -0.000533397               0.001771250               0.001237853               0.000000000               0.000000000               0.000000000               0.000000000               0.000345854               0.004733455              -0.000084301              -0.000461986               0.001731798               0.001269812               0.000000000               0.000000000               0.000000000               0.000000000               0.000440518               0.004760685              -0.000038518              -0.000429890               0.001730176               0.001300286               0.000000000               0.000000000               0.000000000               0.000000000               0.000474971               0.004859376              -0.000013279              -0.000429307               0.001762878               0.001333571               0.000000000               0.000000000               0.000000000               0.000000000               0.000466976               0.004921705              -0.000002209              -0.000440096               0.001787251               0.001347155               0.000000000               0.000000000               0.000000000               0.000000000              -0.004094073               0.002078798              -0.000086797              -0.001795124               0.001291299              -0.000503825               0.000000000               0.000000000               0.000000000               0.000000000              -0.004221334               0.003946275              -0.001052172              -0.002076280               0.002007504              -0.000068776               0.000000000               0.000000000               0.000000000               0.000000000              -0.004589442               0.005694366              -0.001784577              -0.002432831               0.002709046               0.000276215               0.000000000               0.000000000               0.000000000               0.000000000              -0.004228282               0.006248630              -0.001754164              -0.002366679               0.002871749               0.000505069               0.000000000               0.000000000               0.000000000               0.000000000              -0.003688978               0.006345811              -0.001565234              -0.002176588               0.002840778               0.000664190               0.000000000               0.000000000               0.000000000               0.000000000              -0.003116922               0.006262605              -0.001367729              -0.001951667               0.002738070               0.000786403               0.000000000               0.000000000               0.000000000               0.000000000              -0.002540743               0.006103898              -0.001186676              -0.001715762               0.002606533               0.000890771               0.000000000               0.000000000               0.000000000               0.000000000              -0.001979985               0.005902104              -0.001021205              -0.001480254               0.002460766               0.000980512               0.000000000               0.000000000               0.000000000               0.000000000              -0.001442471               0.005685638              -0.000871467              -0.001251629               0.002312403               0.001060774               0.000000000               0.000000000               0.000000000               0.000000000              -0.000944243               0.005466962              -0.000734985              -0.001037459               0.002168122               0.001130663               0.000000000               0.000000000               0.000000000               0.000000000              -0.000485200               0.005261879              -0.000604692              -0.000839683               0.002033836               0.001194153               0.000000000               0.000000000               0.000000000               0.000000000              -0.000078128               0.005084886              -0.000476901              -0.000664907               0.001916581               0.001251674               0.000000000               0.000000000               0.000000000               0.000000000               0.000261546               0.004953166              -0.000350773              -0.000521065               0.001824727               0.001303662               0.000000000               0.000000000               0.000000000               0.000000000               0.000519254               0.004873765              -0.000229327              -0.000414499               0.001762739               0.001348239               0.000000000               0.000000000               0.000000000               0.000000000               0.000690741               0.004857005              -0.000126123              -0.000348097               0.001735018               0.001386921               0.000000000               0.000000000               0.000000000               0.000000000               0.000783715               0.004907213              -0.000049400              -0.000319508               0.001742224               0.001422716               0.000000000               0.000000000               0.000000000               0.000000000               0.000802540               0.004941269              -0.000016214              -0.000316705               0.001752642               0.001435936               0.000000000               0.000000000               0.000000000               0.000000000              -0.006040677               0.000750514               0.000622417              -0.002359066               0.001036520              -0.001322546               0.000000000               0.000000000               0.000000000               0.000000000              -0.005204548               0.002615006              -0.000799229              -0.002278577               0.001631183              -0.000647394               0.000000000               0.000000000               0.000000000               0.000000000              -0.004874840               0.004305415              -0.001973128              -0.002366237               0.002223868              -0.000142369               0.000000000               0.000000000               0.000000000               0.000000000              -0.004309779               0.005094079              -0.002121978              -0.002252922               0.002448983               0.000196061               0.000000000               0.000000000               0.000000000               0.000000000              -0.003709593               0.005453805              -0.001986184              -0.002072818               0.002508856               0.000436037               0.000000000               0.000000000               0.000000000               0.000000000              -0.003118691               0.005600102              -0.001794504              -0.001869518               0.002489854               0.000620336               0.000000000               0.000000000               0.000000000               0.000000000              -0.002540888               0.005627684              -0.001603319              -0.001656290               0.002427972               0.000771682               0.000000000               0.000000000               0.000000000               0.000000000              -0.001979133               0.005588508              -0.001418485              -0.001440735               0.002343062               0.000902327               0.000000000               0.000000000               0.000000000               0.000000000              -0.001438802               0.005513379              -0.001243299              -0.001228720               0.002247348               0.001018627               0.000000000               0.000000000               0.000000000               0.000000000              -0.000925675               0.005406853              -0.001081358              -0.001022983               0.002143260               0.001120278               0.000000000               0.000000000               0.000000000               0.000000000              -0.000443810               0.005281976              -0.000928023              -0.000826674               0.002036199               0.001209525               0.000000000               0.000000000               0.000000000               0.000000000               0.000007498               0.005153182              -0.000777778              -0.000641335               0.001931488               0.001290154               0.000000000               0.000000000               0.000000000               0.000000000               0.000411848               0.005038924              -0.000622651              -0.000475421               0.001838098               0.001362677               0.000000000               0.000000000               0.000000000               0.000000000               0.000748382               0.004955140              -0.000455221              -0.000338749               0.001764613               0.001425864               0.000000000               0.000000000               0.000000000               0.000000000               0.000996771               0.004921426              -0.000287898              -0.000241388               0.001720922               0.001479533               0.000000000               0.000000000               0.000000000               0.000000000               0.001143611               0.004940602              -0.000133990              -0.000188721               0.001709758               0.001521037               0.000000000               0.000000000               0.000000000               0.000000000               0.001182793               0.004956955              -0.000060865              -0.000176072               0.001710992               0.001534921               0.000000000               0.000000000               0.000000000               0.000000000              -0.008089635              -0.000193304               0.001116051              -0.003009448               0.000938708              -0.002070740               0.000000000               0.000000000               0.000000000               0.000000000              -0.006258292               0.001434027              -0.000521971              -0.002526110               0.001320037              -0.001206073               0.000000000               0.000000000               0.000000000               0.000000000              -0.005128374               0.002861402              -0.001941384              -0.002280812               0.001714059              -0.000566753               0.000000000               0.000000000               0.000000000               0.000000000              -0.004286116               0.003759779              -0.002243119              -0.002077262               0.001945666              -0.000131596               0.000000000               0.000000000               0.000000000               0.000000000              -0.003586550               0.004317050              -0.002191099              -0.001884583               0.002067196               0.000182612               0.000000000               0.000000000               0.000000000               0.000000000              -0.002963013               0.004668521              -0.002039707              -0.001694692               0.002121055               0.000426363               0.000000000               0.000000000               0.000000000               0.000000000              -0.002386877               0.004885191              -0.001862310              -0.001505725               0.002130288               0.000624564               0.000000000               0.000000000               0.000000000               0.000000000              -0.001836417               0.005021661              -0.001680703              -0.001316361               0.002112657               0.000796296               0.000000000               0.000000000               0.000000000               0.000000000              -0.001301540               0.005099106              -0.001507606              -0.001125464               0.002074839               0.000949375               0.000000000               0.000000000               0.000000000               0.000000000              -0.000780990               0.005120873              -0.001344720              -0.000932979               0.002017933               0.001084954               0.000000000               0.000000000               0.000000000               0.000000000              -0.000278799               0.005107612              -0.001191331              -0.000743000               0.001950187               0.001207187               0.000000000               0.000000000               0.000000000               0.000000000               0.000208463               0.005073434              -0.001040226              -0.000556005               0.001876462               0.001320458               0.000000000               0.000000000               0.000000000               0.000000000               0.000664354               0.005023139              -0.000873562              -0.000378759               0.001800616               0.001421857               0.000000000               0.000000000               0.000000000               0.000000000               0.001070922               0.004975727              -0.000681153              -0.000220370               0.001732016               0.001511646               0.000000000               0.000000000               0.000000000               0.000000000               0.001406337               0.004952418              -0.000466412              -0.000091676               0.001681348               0.001589672               0.000000000               0.000000000               0.000000000               0.000000000               0.001645519               0.004964740              -0.000239240              -0.000003523               0.001656071               0.001652548               0.000000000               0.000000000               0.000000000               0.000000000               0.001742725               0.004982376              -0.000126125               0.000030724               0.001650534               0.001681258               0.000000000               0.000000000               0.000000000               0.000000000              -0.010061164              -0.000780326               0.001294483              -0.003675393               0.000965015              -0.002710378               0.000000000               0.000000000               0.000000000               0.000000000              -0.007301164               0.000473043              -0.000274886              -0.002797064               0.001090028              -0.001707036               0.000000000               0.000000000               0.000000000               0.000000000              -0.005356032               0.001507370              -0.001684394              -0.002196930               0.001234758              -0.000962173               0.000000000               0.000000000               0.000000000               0.000000000              -0.004187141               0.002396666              -0.002066903              -0.001869758               0.001422131              -0.000447627               0.000000000               0.000000000               0.000000000               0.000000000              -0.003351788               0.003073837              -0.002091231              -0.001641147               0.001571650              -0.000069497               0.000000000               0.000000000               0.000000000               0.000000000              -0.002681103               0.003583389              -0.001993807              -0.001453335               0.001678895               0.000225560               0.000000000               0.000000000               0.000000000               0.000000000              -0.002098739               0.003971408              -0.001851234              -0.001283451               0.001751606               0.000468155               0.000000000               0.000000000               0.000000000               0.000000000              -0.001555058               0.004274981              -0.001697075              -0.001117517               0.001797485               0.000679967               0.000000000               0.000000000               0.000000000               0.000000000              -0.001031449               0.004498551              -0.001548928              -0.000949111               0.001815872               0.000866761               0.000000000               0.000000000               0.000000000               0.000000000              -0.000517284               0.004653003              -0.001408482              -0.000775606               0.001809520               0.001033915               0.000000000               0.000000000               0.000000000               0.000000000              -0.000004774               0.004762692              -0.001277373              -0.000597126               0.001786590               0.001189464               0.000000000               0.000000000               0.000000000               0.000000000               0.000506791               0.004840803              -0.001146240              -0.000415053               0.001751936               0.001336882               0.000000000               0.000000000               0.000000000               0.000000000               0.001011169               0.004889473              -0.000992152              -0.000231996               0.001707140               0.001475144               0.000000000               0.000000000               0.000000000               0.000000000               0.001495900               0.004918249              -0.000802554              -0.000053819               0.001657340               0.001603520               0.000000000               0.000000000               0.000000000               0.000000000               0.001948282               0.004940240              -0.000576323               0.000113074               0.001609039               0.001722113               0.000000000               0.000000000               0.000000000               0.000000000               0.002342266               0.004967313              -0.000309895               0.000257433               0.001569944               0.001827377               0.000000000               0.000000000               0.000000000               0.000000000               0.002565119               0.005000879              -0.000175059               0.000336806               0.001554674               0.001891481               0.000000000               0.000000000               0.000000000               0.000000000              -0.011714964              -0.001087346               0.001124669              -0.004257190               0.001056607              -0.003200583               0.000000000               0.000000000               0.000000000               0.000000000              -0.008203986              -0.000225104              -0.000103652              -0.003048354               0.000941077              -0.002107277               0.000000000               0.000000000               0.000000000               0.000000000              -0.005546900               0.000397241              -0.001235095              -0.002129740               0.000842321              -0.001287420               0.000000000               0.000000000               0.000000000               0.000000000              -0.004058808               0.001204651              -0.001588709              -0.001672632               0.000959087              -0.000713545               0.000000000               0.000000000               0.000000000               0.000000000              -0.003080336               0.001935038              -0.001651581              -0.001397003               0.001110672              -0.000286331               0.000000000               0.000000000               0.000000000               0.000000000              -0.002353800               0.002551390              -0.001601977              -0.001201596               0.001250986               0.000049390               0.000000000               0.000000000               0.000000000               0.000000000              -0.001754362               0.003065311              -0.001507250              -0.001041048               0.001368775               0.000327727               0.000000000               0.000000000               0.000000000               0.000000000              -0.001210866               0.003495212              -0.001396771              -0.000890975               0.001462050               0.000571075               0.000000000               0.000000000               0.000000000               0.000000000              -0.000695991               0.003844712              -0.001287217              -0.000741584               0.001528752               0.000787168               0.000000000               0.000000000               0.000000000               0.000000000              -0.000191585               0.004122703              -0.001184473              -0.000587181               0.001569947               0.000982766               0.000000000               0.000000000               0.000000000               0.000000000               0.000320826               0.004348541              -0.001091215              -0.000423258               0.001590585               0.001167327               0.000000000               0.000000000               0.000000000               0.000000000               0.000846490               0.004536355              -0.000997736              -0.000249611               0.001595307               0.001345696               0.000000000               0.000000000               0.000000000               0.000000000               0.001389797               0.004688551              -0.000881147              -0.000064896               0.001584466               0.001519571               0.000000000               0.000000000               0.000000000               0.000000000               0.001952543               0.004803768              -0.000731602               0.000131731               0.001557330               0.001689061               0.000000000               0.000000000               0.000000000               0.000000000               0.002535000               0.004889355              -0.000541274               0.000339452               0.001516618               0.001856070               0.000000000               0.000000000               0.000000000               0.000000000               0.003128927               0.004952570              -0.000297709               0.000554271               0.001466083               0.002020354               0.000000000               0.000000000               0.000000000               0.000000000               0.003532411               0.005017350              -0.000176261               0.000697479               0.001439940               0.002137419               0.000000000               0.000000000               0.000000000               0.000000000              -0.012816220              -0.001210085               0.000652301              -0.004654819               0.001148237              -0.003506582               0.000000000               0.000000000               0.000000000               0.000000000              -0.008818795              -0.000640693              -0.000020771              -0.003226959               0.000862083              -0.002364876               0.000000000               0.000000000               0.000000000               0.000000000              -0.005676937              -0.000330819              -0.000651808              -0.002087498               0.000585555              -0.001501942               0.000000000               0.000000000               0.000000000               0.000000000              -0.003954172               0.000388938              -0.000865868              -0.001531430               0.000640118              -0.000891312               0.000000000               0.000000000               0.000000000               0.000000000              -0.002867849               0.001133828              -0.000914546              -0.001217170               0.000783660              -0.000433510               0.000000000               0.000000000               0.000000000               0.000000000              -0.002094600               0.001803724              -0.000895249              -0.001010938               0.000938214              -0.000072724               0.000000000               0.000000000               0.000000000               0.000000000              -0.001477984               0.002386504              -0.000849586              -0.000852555               0.001079678               0.000227123               0.000000000               0.000000000               0.000000000               0.000000000              -0.000934507               0.002894848              -0.000792445              -0.000712295               0.001202371               0.000490076               0.000000000               0.000000000               0.000000000               0.000000000              -0.000422718               0.003329587              -0.000732577              -0.000574716               0.001301423               0.000726707               0.000000000               0.000000000               0.000000000               0.000000000               0.000078552               0.003694031              -0.000677765              -0.000432296               0.001375430               0.000943134               0.000000000               0.000000000               0.000000000               0.000000000               0.000588336               0.004006846              -0.000629540              -0.000280230               0.001429012               0.001148782               0.000000000               0.000000000               0.000000000               0.000000000               0.001118120               0.004282649              -0.000581992              -0.000116036               0.001466214               0.001350178               0.000000000               0.000000000               0.000000000               0.000000000               0.001682921               0.004518252              -0.000522519               0.000066313               0.001483965               0.001550278               0.000000000               0.000000000               0.000000000               0.000000000               0.002299401               0.004702616              -0.000441943               0.000274445               0.001476041               0.001750487               0.000000000               0.000000000               0.000000000               0.000000000               0.002984047               0.004839947              -0.000334790               0.000514019               0.001441960               0.001955979               0.000000000               0.000000000               0.000000000               0.000000000               0.003755008               0.004935264              -0.000188487               0.000791212               0.001381334               0.002172546               0.000000000               0.000000000               0.000000000               0.000000000               0.004329702               0.005029766              -0.000114899               0.000994908               0.001344936               0.002339844               0.000000000               0.000000000               0.000000000               0.000000000              -0.013202402              -0.001240587              -0.000000000              -0.004795825               0.001185071              -0.003610753               0.000000000               0.000000000               0.000000000               0.000000000              -0.009035870              -0.000776922              -0.000000000              -0.003291334               0.000838132              -0.002453202               0.000000000               0.000000000               0.000000000               0.000000000              -0.005721672              -0.000579489               0.000000000              -0.002073189               0.000497897              -0.001575293               0.000000000               0.000000000               0.000000000               0.000000000              -0.003913662               0.000100477              -0.000000000              -0.001480181               0.000526883              -0.000953299               0.000000000               0.000000000               0.000000000               0.000000000              -0.002790856               0.000839220               0.000000000              -0.001151472               0.000663560              -0.000487912               0.000000000               0.000000000               0.000000000               0.000000000              -0.001998088               0.001526197               0.000000000              -0.000940056               0.000822079              -0.000117977               0.000000000               0.000000000               0.000000000               0.000000000              -0.001373376               0.002134460               0.000000000              -0.000781822               0.000972087               0.000190265               0.000000000               0.000000000               0.000000000               0.000000000              -0.000830960               0.002667899               0.000000000              -0.000645096               0.001104323               0.000459227               0.000000000               0.000000000               0.000000000               0.000000000              -0.000320521               0.003129485              -0.000000000              -0.000511380               0.001213611               0.000702231               0.000000000               0.000000000               0.000000000               0.000000000               0.000182606               0.003525839               0.000000000              -0.000372252               0.001299352               0.000927100               0.000000000               0.000000000               0.000000000               0.000000000               0.000692403               0.003876521               0.000000000              -0.000224913               0.001367132               0.001142218               0.000000000               0.000000000               0.000000000               0.000000000               0.001224700               0.004191984              -0.000000000              -0.000064736               0.001418893               0.001354157               0.000000000               0.000000000               0.000000000               0.000000000               0.001795127               0.004462224              -0.000000000               0.000115394               0.001448928               0.001564322               0.000000000               0.000000000               0.000000000               0.000000000               0.002428955               0.004675635              -0.000000000               0.000326401               0.001449729               0.001776130               0.000000000               0.000000000               0.000000000               0.000000000               0.003153443               0.004832902              -0.000000000               0.000578423               0.001418144               0.001996566               0.000000000               0.000000000               0.000000000               0.000000000               0.003994426               0.004934085              -0.000000000               0.000881140               0.001350965               0.002232105               0.000000000               0.000000000               0.000000000               0.000000000               0.004641584               0.005036860               0.000000000               0.001110975               0.001308611               0.002419587               0.000000000               0.000000000               0.000000000               0.000000000               0.000000000               0.000000000               0.000000000               0.000000000               0.000000000               0.000000000               0.000000000               0.000000000               0.000000000               0.000000000               0.000000000               0.000000000               0.000000000               0.000000000               0.000000000               0.000000000               0.000000000               0.000000000               0.000000000               0.000000000               0.000000000               0.000000000               0.000000000               0.000000000               0.000000000               0.000000000               0.000000000               0.000000000               0.000000000               0.000000000               0.000000000               0.000000000               0.000000000               0.000000000               0.000000000               0.000000000               0.000000000               0.000000000               0.000000000               0.000000000               0.000000000               0.000000000               0.000000000               0.000000000               0.000000000               0.000000000               0.000000000               0.000000000               0.000000000               0.000000000               0.000000000               0.000000000               0.000000000               0.000000000               0.000000000               0.000000000               0.000000000               0.000000000               0.000000000               0.000000000               0.000000000               0.000000000               0.000000000               0.000000000               0.000000000               0.000000000               0.000000000               0.000000000               0.000000000               0.000000000               0.000000000               0.000000000               0.000000000               0.000000000               0.000000000               0.000000000               0.000000000               0.000000000               0.000000000               0.000000000               0.000000000               0.000000000               0.000000000               0.000000000               0.000000000               0.000000000               0.000000000               0.000000000               0.000000000               0.000000000               0.000000000               0.000000000               0.000000000               0.000000000               0.000000000               0.000000000               0.000000000               0.000000000               0.000000000               0.000000000               0.000000000               0.000000000               0.000000000               0.000000000               0.000000000               0.000000000               0.000000000               0.000000000               0.000000000               0.000000000               0.000000000               0.000000000               0.000000000               0.000000000               0.000000000               0.000000000               0.000000000               0.000000000               0.000000000               0.000000000               0.000000000               0.000000000               0.000000000               0.000000000               0.000000000               0.000000000               0.000000000               0.000000000               0.000000000               0.000000000               0.000000000               0.000000000               0.000000000               0.000000000               0.000000000               0.000000000               0.000000000               0.000000000               0.000000000               0.000000000               0.000000000               0.000000000               0.000000000               0.000000000               0.000000000               0.000000000               0.000000000               0.000000000               0.000000000               0.000000000               0.000000000               0.000000000               0.000000000               0.000000000               0.000000000               0.000000000               0.000000000               0.000000000               0.000000000               0.000000000               0.000000000               0.000000000               0.000000000               0.000000000               0.000000000               0.000000000               0.000000000               0.000000000               0.000000000               0.000000000               0.002018844               0.020504659               0.001380922              -0.001806012               0.007436822               0.005630810               0.000000000               0.000000000               0.000000000               0.000000000               0.001801893               0.015762974               0.000615715              -0.001294659               0.005685825               0.004391166               0.000000000               0.000000000               0.000000000               0.000000000               0.002188154               0.011929696              -0.000136110              -0.000670652               0.004200076               0.003529424               0.000000000               0.000000000               0.000000000               0.000000000               0.001938807               0.009740827              -0.000444672              -0.000490550               0.003410426               0.002919877               0.000000000               0.000000000               0.000000000               0.000000000               0.001544254               0.008341061              -0.000566772              -0.000463537               0.002934838               0.002471302               0.000000000               0.000000000               0.000000000               0.000000000               0.001158677               0.007350942              -0.000599403              -0.000484363               0.002611744               0.002127381               0.000000000               0.000000000               0.000000000               0.000000000               0.000829692               0.006579662              -0.000588629              -0.000511322               0.002363639               0.001852317               0.000000000               0.000000000               0.000000000               0.000000000               0.000567631               0.005927228              -0.000561156              -0.000528041               0.002151736               0.001623696               0.000000000               0.000000000               0.000000000               0.000000000               0.000361321               0.005339823              -0.000528792              -0.000531981               0.001957250               0.001425269               0.000000000               0.000000000               0.000000000               0.000000000               0.000199616               0.004787399              -0.000496484              -0.000523568               0.001770306               0.001246738               0.000000000               0.000000000               0.000000000               0.000000000               0.000071737               0.004247270              -0.000463672              -0.000504006               0.001583744               0.001079738               0.000000000               0.000000000               0.000000000               0.000000000              -0.000021195               0.003707735              -0.000426562              -0.000471414               0.001393037               0.000921623               0.000000000               0.000000000               0.000000000               0.000000000              -0.000079421               0.003156228              -0.000382570              -0.000424310               0.001193502               0.000769192               0.000000000               0.000000000               0.000000000               0.000000000              -0.000108662               0.002576403              -0.000326787              -0.000362798               0.000979725               0.000616927               0.000000000               0.000000000               0.000000000               0.000000000              -0.000105528               0.001954014              -0.000251025              -0.000283824               0.000745940               0.000462115               0.000000000               0.000000000               0.000000000               0.000000000              -0.000062602               0.001274728              -0.000142695              -0.000182817               0.000485844               0.000303027               0.000000000               0.000000000               0.000000000               0.000000000              -0.000084354               0.000769186              -0.000089172              -0.000127781               0.000298986               0.000171205               0.000000000               0.000000000               0.000000000               0.000000000               0.002147636               0.019218020               0.002555070              -0.001596886               0.006938238               0.005341352               0.000000000               0.000000000               0.000000000               0.000000000               0.001611702               0.014954609               0.001133734              -0.001264935               0.005406465               0.004141530               0.000000000               0.000000000               0.000000000               0.000000000               0.001659915               0.011614463              -0.000249791              -0.000829338               0.004147895               0.003318557               0.000000000               0.000000000               0.000000000               0.000000000               0.001295342               0.009673740              -0.000795262              -0.000723463               0.003465702               0.002742239               0.000000000               0.000000000               0.000000000               0.000000000               0.000886100               0.008393497              -0.000998211              -0.000716898               0.003036770               0.002319872               0.000000000               0.000000000               0.000000000               0.000000000               0.000531835               0.007458241              -0.001047993              -0.000732841               0.002730336               0.001997495               0.000000000               0.000000000               0.000000000               0.000000000               0.000257475               0.006714311              -0.001024078              -0.000742734               0.002485659               0.001742925               0.000000000               0.000000000               0.000000000               0.000000000               0.000057551               0.006072594              -0.000970604              -0.000737491               0.002270008               0.001532517               0.000000000               0.000000000               0.000000000               0.000000000              -0.000085770               0.005488140              -0.000910844              -0.000718180               0.002068755               0.001350575               0.000000000               0.000000000               0.000000000               0.000000000              -0.000179994               0.004938816              -0.000849274              -0.000684849               0.001874538               0.001189690               0.000000000               0.000000000               0.000000000               0.000000000              -0.000238465               0.004406662              -0.000785089              -0.000640256               0.001682291               0.001042035               0.000000000               0.000000000               0.000000000               0.000000000              -0.000267634               0.003881155              -0.000716739              -0.000585506               0.001488874               0.000903368               0.000000000               0.000000000               0.000000000               0.000000000              -0.000263562               0.003358141              -0.000635311              -0.000518602               0.001292236               0.000773634               0.000000000               0.000000000               0.000000000               0.000000000              -0.000232738               0.002824983              -0.000532212              -0.000440399               0.001088451               0.000648052               0.000000000               0.000000000               0.000000000               0.000000000              -0.000174185               0.002279248              -0.000397929              -0.000350225               0.000876483               0.000526259               0.000000000               0.000000000               0.000000000               0.000000000              -0.000090126               0.001727149              -0.000221072              -0.000249690               0.000658941               0.000409250               0.000000000               0.000000000               0.000000000               0.000000000              -0.000084470               0.001344410              -0.000136915              -0.000199727               0.000514708               0.000314981               0.000000000               0.000000000               0.000000000               0.000000000               0.002242373               0.017265725               0.003359650              -0.001317324               0.006194292               0.004876967               0.000000000               0.000000000               0.000000000               0.000000000               0.001268215               0.013745151               0.001488038              -0.001242561               0.004995858               0.003753297               0.000000000               0.000000000               0.000000000               0.000000000               0.000853790               0.011146158              -0.000304239              -0.001073096               0.004073048               0.002999952               0.000000000               0.000000000               0.000000000               0.000000000               0.000358363               0.009554930              -0.000967196              -0.001059978               0.003538271               0.002478293               0.000000000               0.000000000               0.000000000               0.000000000              -0.000036410               0.008437991              -0.001196437              -0.001068400               0.003168769               0.002100369               0.000000000               0.000000000               0.000000000               0.000000000              -0.000317048               0.007574260              -0.001244138              -0.001065673               0.002879952               0.001814279               0.000000000               0.000000000               0.000000000               0.000000000              -0.000500473               0.006855097              -0.001205576              -0.001044562               0.002633197               0.001588634               0.000000000               0.000000000               0.000000000               0.000000000              -0.000604375               0.006221263              -0.001132339              -0.001004296               0.002408499               0.001404202               0.000000000               0.000000000               0.000000000               0.000000000              -0.000650684               0.005644294              -0.001053819              -0.000949541               0.002197926               0.001248385               0.000000000               0.000000000               0.000000000               0.000000000              -0.000651699               0.005105320              -0.000975182              -0.000882550               0.001995940               0.001113389               0.000000000               0.000000000               0.000000000               0.000000000              -0.000617833               0.004590328              -0.000892063              -0.000805477               0.001798586               0.000993109               0.000000000               0.000000000               0.000000000               0.000000000              -0.000555712               0.004091055              -0.000804593              -0.000719772               0.001603595               0.000883823               0.000000000               0.000000000               0.000000000               0.000000000              -0.000466410               0.003605848              -0.000702909              -0.000625634               0.001410482               0.000784848               0.000000000               0.000000000               0.000000000               0.000000000              -0.000354647               0.003139929              -0.000574972              -0.000525483               0.001221793               0.000696311               0.000000000               0.000000000               0.000000000               0.000000000              -0.000229858               0.002702352              -0.000417325              -0.000423990               0.001042105               0.000618115               0.000000000               0.000000000               0.000000000               0.000000000              -0.000108121               0.002312903              -0.000225115              -0.000329657               0.000880846               0.000551188               0.000000000               0.000000000               0.000000000               0.000000000              -0.000075648               0.002075115              -0.000133032              -0.000287757               0.000787617               0.000499860               0.000000000               0.000000000               0.000000000               0.000000000               0.002168826               0.014877167               0.003726846              -0.001046336               0.005307784               0.004261448               0.000000000               0.000000000               0.000000000               0.000000000               0.000748382               0.012299061               0.001667590              -0.001256737               0.004518558               0.003261821               0.000000000               0.000000000               0.000000000               0.000000000              -0.000137681               0.010578735              -0.000269753              -0.001373969               0.003984199               0.002610230               0.000000000               0.000000000               0.000000000               0.000000000              -0.000708230               0.009365647              -0.000930982              -0.001436289               0.003600614               0.002164325               0.000000000               0.000000000               0.000000000               0.000000000              -0.001033855               0.008414675              -0.001137797              -0.001439526               0.003284705               0.001845179               0.000000000               0.000000000               0.000000000               0.000000000              -0.001196114               0.007618046              -0.001171483              -0.001400795               0.003006255               0.001605459               0.000000000               0.000000000               0.000000000               0.000000000              -0.001251487               0.006925716              -0.001125975              -0.001335019               0.002753555               0.001418536               0.000000000               0.000000000               0.000000000               0.000000000              -0.001229743               0.006310712              -0.001048774              -0.001249990               0.002520213               0.001270223               0.000000000               0.000000000               0.000000000               0.000000000              -0.001154721               0.005752132              -0.000968482              -0.001152034               0.002301369               0.001149335               0.000000000               0.000000000               0.000000000               0.000000000              -0.001044912               0.005230043              -0.000887727              -0.001045595               0.002091862               0.001046267               0.000000000               0.000000000               0.000000000               0.000000000              -0.000906535               0.004737777              -0.000803986              -0.000932171               0.001889967               0.000957796               0.000000000               0.000000000               0.000000000               0.000000000              -0.000746008               0.004274059              -0.000714727              -0.000814008               0.001696008               0.000882000               0.000000000               0.000000000               0.000000000               0.000000000              -0.000570539               0.003844575              -0.000611405              -0.000694523               0.001513020               0.000818497               0.000000000               0.000000000               0.000000000               0.000000000              -0.000390811               0.003462083              -0.000484973              -0.000579313               0.001347120               0.000767807               0.000000000               0.000000000               0.000000000               0.000000000              -0.000226802               0.003143579              -0.000334787              -0.000477997               0.001207181               0.000729185               0.000000000               0.000000000               0.000000000               0.000000000              -0.000097947               0.002907028              -0.000170879              -0.000400108               0.001102369               0.000702261               0.000000000               0.000000000               0.000000000               0.000000000              -0.000052636               0.002796310              -0.000092515              -0.000369276               0.001055186               0.000685910               0.000000000               0.000000000               0.000000000               0.000000000               0.001823885               0.012311288               0.003661137              -0.000854955               0.004388706               0.003533751               0.000000000               0.000000000               0.000000000               0.000000000               0.000057827               0.010777440               0.001693804              -0.001325493               0.004034275               0.002708782               0.000000000               0.000000000               0.000000000               0.000000000              -0.001206035               0.009951250              -0.000127887              -0.001696165               0.003882438               0.002186273               0.000000000               0.000000000               0.000000000               0.000000000              -0.001756131               0.009084096              -0.000698285              -0.001794057               0.003626021               0.001831964               0.000000000               0.000000000               0.000000000               0.000000000              -0.001945276               0.008276038              -0.000862701              -0.001763979               0.003346645               0.001582666               0.000000000               0.000000000               0.000000000               0.000000000              -0.001944970               0.007542602              -0.000890098              -0.001672185               0.003071571               0.001399386               0.000000000               0.000000000               0.000000000               0.000000000              -0.001844146               0.006891722              -0.000855648              -0.001553016               0.002814890               0.001261874               0.000000000               0.000000000               0.000000000               0.000000000              -0.001681955               0.006309037              -0.000792567              -0.001419359               0.002576111               0.001156752               0.000000000               0.000000000               0.000000000               0.000000000              -0.001482668               0.005773662              -0.000725525              -0.001277705               0.002350436               0.001072731               0.000000000               0.000000000               0.000000000               0.000000000              -0.001256962               0.005277327              -0.000658386              -0.001131024               0.002136099               0.001005075               0.000000000               0.000000000               0.000000000               0.000000000              -0.001015079               0.004817533              -0.000588475              -0.000982844               0.001933443               0.000950599               0.000000000               0.000000000               0.000000000               0.000000000              -0.000769983               0.004403235              -0.000511176              -0.000839146               0.001747446               0.000908299               0.000000000               0.000000000               0.000000000               0.000000000              -0.000536909               0.004044376              -0.000419360              -0.000706886               0.001583740               0.000876854               0.000000000               0.000000000               0.000000000               0.000000000              -0.000326988               0.003752629              -0.000310754              -0.000591698               0.001448096               0.000856399               0.000000000               0.000000000               0.000000000               0.000000000              -0.000161108               0.003538549              -0.000193260              -0.000502733               0.001347082               0.000844349               0.000000000               0.000000000               0.000000000               0.000000000              -0.000058008               0.003413717              -0.000086257              -0.000448467               0.001287383               0.000838917               0.000000000               0.000000000               0.000000000               0.000000000              -0.000023010               0.003378823              -0.000039539              -0.000430980               0.001269923               0.000838943               0.000000000               0.000000000               0.000000000               0.000000000               0.001143271               0.009793715               0.003234799              -0.000795489               0.003529701               0.002734212               0.000000000               0.000000000               0.000000000               0.000000000              -0.000772414               0.009298214               0.001619936              -0.001451929               0.003583350               0.002131420               0.000000000               0.000000000               0.000000000               0.000000000              -0.002235175               0.009289174               0.000132102              -0.001999333               0.003762805               0.001763472               0.000000000               0.000000000               0.000000000               0.000000000              -0.002645341               0.008708681              -0.000311040              -0.002080583               0.003596392               0.001515809               0.000000000               0.000000000               0.000000000               0.000000000              -0.002644197               0.008019872              -0.000444397              -0.001994053               0.003337948               0.001343895               0.000000000               0.000000000               0.000000000               0.000000000              -0.002464067               0.007354280              -0.000485164              -0.001843305               0.003065837               0.001222532               0.000000000               0.000000000               0.000000000               0.000000000              -0.002199138               0.006755590              -0.000482618              -0.001669121               0.002808214               0.001139093               0.000000000               0.000000000               0.000000000               0.000000000              -0.001894773               0.006210869              -0.000449760              -0.001486895               0.002565901               0.001079006               0.000000000               0.000000000               0.000000000               0.000000000              -0.001579718               0.005705342              -0.000413025              -0.001305559               0.002336948               0.001031389               0.000000000               0.000000000               0.000000000               0.000000000              -0.001257117               0.005244550              -0.000373404              -0.001126985               0.002123827               0.000996843               0.000000000               0.000000000               0.000000000               0.000000000              -0.000941344               0.004834710              -0.000328634              -0.000957341               0.001930668               0.000973327               0.000000000               0.000000000               0.000000000               0.000000000              -0.000646839               0.004491489              -0.000276444              -0.000803999               0.001765147               0.000961149               0.000000000               0.000000000               0.000000000               0.000000000              -0.000392008               0.004218249              -0.000212012              -0.000674282               0.001630830               0.000956547               0.000000000               0.000000000               0.000000000               0.000000000              -0.000193029               0.004019797              -0.000136077              -0.000574859               0.001531539               0.000956680               0.000000000               0.000000000               0.000000000               0.000000000              -0.000063631               0.003898681              -0.000064249              -0.000511196               0.001469946               0.000958750               0.000000000               0.000000000               0.000000000               0.000000000              -0.000007637               0.003855449              -0.000017717              -0.000484794               0.001446735               0.000961941               0.000000000               0.000000000               0.000000000               0.000000000               0.000005785               0.003862096              -0.000000976              -0.000480591               0.001447550               0.000966958               0.000000000               0.000000000               0.000000000               0.000000000               0.000153607               0.007472891               0.002561883              -0.000876508               0.002783107               0.001906599               0.000000000               0.000000000               0.000000000               0.000000000              -0.001690044               0.007945673               0.001501348              -0.001626972               0.003190855               0.001563883               0.000000000               0.000000000               0.000000000               0.000000000              -0.003118385               0.008601808               0.000498437              -0.002244615               0.003615445               0.001370831               0.000000000               0.000000000               0.000000000               0.000000000              -0.003290343               0.008238475               0.000168768              -0.002263682               0.003500692               0.001237009               0.000000000               0.000000000               0.000000000               0.000000000              -0.003067933               0.007662661               0.000033912              -0.002108302               0.003256962               0.001148660               0.000000000               0.000000000               0.000000000               0.000000000              -0.002710183               0.007084026              -0.000039213              -0.001901817               0.002995257               0.001093440               0.000000000               0.000000000               0.000000000               0.000000000              -0.002299960               0.006540323              -0.000084404              -0.001680021               0.002740093               0.001060072               0.000000000               0.000000000               0.000000000               0.000000000              -0.001870711               0.006035903              -0.000099767              -0.001456001               0.002497281               0.001041280               0.000000000               0.000000000               0.000000000               0.000000000              -0.001455510               0.005574034              -0.000104962              -0.001242568               0.002272182               0.001029615               0.000000000               0.000000000               0.000000000               0.000000000              -0.001065014               0.005166514              -0.000104059              -0.001045192               0.002070551               0.001025360               0.000000000               0.000000000               0.000000000               0.000000000              -0.000707171               0.004827634              -0.000097369              -0.000868641               0.001898742               0.001030101               0.000000000               0.000000000               0.000000000               0.000000000              -0.000399353               0.004567321              -0.000084804              -0.000720671               0.001762649               0.001041978               0.000000000               0.000000000               0.000000000               0.000000000              -0.000163361               0.004386885              -0.000058434              -0.000609619               0.001665487               0.001055867               0.000000000               0.000000000               0.000000000               0.000000000              -0.000009180               0.004288013              -0.000023265              -0.000539443               0.001609138               0.001069695               0.000000000               0.000000000               0.000000000               0.000000000               0.000063798               0.004268343               0.000005021              -0.000509618               0.001592639               0.001083022               0.000000000               0.000000000               0.000000000               0.000000000               0.000058689               0.004305094               0.000012944              -0.000516127               0.001607059               0.001090932               0.000000000               0.000000000               0.000000000               0.000000000               0.000043136               0.004351561               0.000015643              -0.000527768               0.001626428               0.001098660               0.000000000               0.000000000               0.000000000               0.000000000              -0.001018542               0.005519433               0.001752414              -0.001071881               0.002197086               0.001125205               0.000000000               0.000000000               0.000000000               0.000000000              -0.002593185               0.006741935               0.001376211              -0.001815182               0.002852350               0.001037167               0.000000000               0.000000000               0.000000000               0.000000000              -0.003813268               0.007912363               0.000940841              -0.002419015               0.003443766               0.001024751               0.000000000               0.000000000               0.000000000               0.000000000              -0.003733124               0.007779564               0.000681905              -0.002372361               0.003383949               0.001011588               0.000000000               0.000000000               0.000000000               0.000000000              -0.003320136               0.007347411               0.000516285              -0.002163472               0.003170270               0.001006798               0.000000000               0.000000000               0.000000000               0.000000000              -0.002814267               0.006871116               0.000399139              -0.001914235               0.002928428               0.001014193               0.000000000               0.000000000               0.000000000               0.000000000              -0.002289239               0.006397189               0.000303270              -0.001658109               0.002685078               0.001026969               0.000000000               0.000000000               0.000000000               0.000000000              -0.001767245               0.005940514               0.000228738              -0.001405278               0.002448578               0.001043300               0.000000000               0.000000000               0.000000000               0.000000000              -0.001275081               0.005527707               0.000173553              -0.001169116               0.002232256               0.001063140               0.000000000               0.000000000               0.000000000               0.000000000              -0.000829971               0.005169895               0.000129493              -0.000957473               0.002042439               0.001084965               0.000000000               0.000000000               0.000000000               0.000000000              -0.000445305               0.004883422               0.000089717              -0.000777415               0.001886929               0.001109514               0.000000000               0.000000000               0.000000000               0.000000000              -0.000140018               0.004676387               0.000053537              -0.000637054               0.001771131               0.001134078               0.000000000               0.000000000               0.000000000               0.000000000               0.000077633               0.004555176               0.000030900              -0.000540283               0.001698471               0.001158188               0.000000000               0.000000000               0.000000000               0.000000000               0.000202020               0.004522455               0.000019898              -0.000489548               0.001670652               0.001181104               0.000000000               0.000000000               0.000000000               0.000000000               0.000243020               0.004570468               0.000015417              -0.000480175               0.001683532               0.001203357               0.000000000               0.000000000               0.000000000               0.000000000               0.000220615               0.004674422               0.000011117              -0.000501571               0.001725315               0.001223745               0.000000000               0.000000000               0.000000000               0.000000000               0.000190279               0.004746527               0.000008973              -0.000521960               0.001756147               0.001234186               0.000000000               0.000000000               0.000000000               0.000000000              -0.002378209               0.003713791               0.000903931              -0.001356049               0.001689934               0.000333885               0.000000000               0.000000000               0.000000000               0.000000000              -0.003363040               0.005349611               0.001241378              -0.001929837               0.002426464               0.000496628               0.000000000               0.000000000               0.000000000               0.000000000              -0.004242093               0.006898331               0.001406577              -0.002453070               0.003117110               0.000664040               0.000000000               0.000000000               0.000000000               0.000000000              -0.004015738               0.007118957               0.001227953              -0.002395766               0.003171550               0.000775785               0.000000000               0.000000000               0.000000000               0.000000000              -0.003522420               0.006932396               0.001035635              -0.002187452               0.003039926               0.000852474               0.000000000               0.000000000               0.000000000               0.000000000              -0.002965035               0.006633665               0.000869844              -0.001941092               0.002858230               0.000917138               0.000000000               0.000000000               0.000000000               0.000000000              -0.002403937               0.006305148               0.000724693              -0.001689616               0.002664900               0.000975284               0.000000000               0.000000000               0.000000000               0.000000000              -0.001856379               0.005966109               0.000597693              -0.001441902               0.002469317               0.001027415               0.000000000               0.000000000               0.000000000               0.000000000              -0.001334611               0.005639489               0.000492286              -0.001205412               0.002281615               0.001076202               0.000000000               0.000000000               0.000000000               0.000000000              -0.000858684               0.005340909               0.000399826              -0.000989618               0.002110158               0.001120540               0.000000000               0.000000000               0.000000000               0.000000000              -0.000438616               0.005089547               0.000309614              -0.000800672               0.001963389               0.001162717               0.000000000               0.000000000               0.000000000               0.000000000              -0.000092393               0.004898914               0.000224693              -0.000647010               0.001848625               0.001201615               0.000000000               0.000000000               0.000000000               0.000000000               0.000171072               0.004780401               0.000149001              -0.000533397               0.001771250               0.001237853               0.000000000               0.000000000               0.000000000               0.000000000               0.000345854               0.004733455               0.000084301              -0.000461986               0.001731798               0.001269812               0.000000000               0.000000000               0.000000000               0.000000000               0.000440518               0.004760685               0.000038518              -0.000429890               0.001730176               0.001300286               0.000000000               0.000000000               0.000000000               0.000000000               0.000474971               0.004859376               0.000013279              -0.000429307               0.001762878               0.001333571               0.000000000               0.000000000               0.000000000               0.000000000               0.000466976               0.004921705               0.000002209              -0.000440096               0.001787251               0.001347155               0.000000000               0.000000000               0.000000000               0.000000000              -0.004094073               0.002078798               0.000086797              -0.001795124               0.001291299              -0.000503825               0.000000000               0.000000000               0.000000000               0.000000000              -0.004221334               0.003946275               0.001052172              -0.002076280               0.002007504              -0.000068776               0.000000000               0.000000000               0.000000000               0.000000000              -0.004589442               0.005694366               0.001784577              -0.002432831               0.002709046               0.000276215               0.000000000               0.000000000               0.000000000               0.000000000              -0.004228282               0.006248630               0.001754164              -0.002366679               0.002871749               0.000505069               0.000000000               0.000000000               0.000000000               0.000000000              -0.003688978               0.006345811               0.001565234              -0.002176588               0.002840778               0.000664190               0.000000000               0.000000000               0.000000000               0.000000000              -0.003116922               0.006262605               0.001367729              -0.001951667               0.002738070               0.000786403               0.000000000               0.000000000               0.000000000               0.000000000              -0.002540743               0.006103898               0.001186676              -0.001715762               0.002606533               0.000890771               0.000000000               0.000000000               0.000000000               0.000000000              -0.001979985               0.005902104               0.001021205              -0.001480254               0.002460766               0.000980512               0.000000000               0.000000000               0.000000000               0.000000000              -0.001442471               0.005685638               0.000871467              -0.001251629               0.002312403               0.001060774               0.000000000               0.000000000               0.000000000               0.000000000              -0.000944243               0.005466962               0.000734985              -0.001037459               0.002168122               0.001130663               0.000000000               0.000000000               0.000000000               0.000000000              -0.000485200               0.005261879               0.000604692              -0.000839683               0.002033836               0.001194153               0.000000000               0.000000000               0.000000000               0.000000000              -0.000078128               0.005084886               0.000476901              -0.000664907               0.001916581               0.001251674               0.000000000               0.000000000               0.000000000               0.000000000               0.000261546               0.004953166               0.000350773              -0.000521065               0.001824727               0.001303662               0.000000000               0.000000000               0.000000000               0.000000000               0.000519254               0.004873765               0.000229327              -0.000414499               0.001762739               0.001348239               0.000000000               0.000000000               0.000000000               0.000000000               0.000690741               0.004857005               0.000126123              -0.000348097               0.001735018               0.001386921               0.000000000               0.000000000               0.000000000               0.000000000               0.000783715               0.004907213               0.000049400              -0.000319508               0.001742224               0.001422716               0.000000000               0.000000000               0.000000000               0.000000000               0.000802540               0.004941269               0.000016214              -0.000316705               0.001752642               0.001435936               0.000000000               0.000000000               0.000000000               0.000000000              -0.006040677               0.000750514              -0.000622417              -0.002359066               0.001036520              -0.001322546               0.000000000               0.000000000               0.000000000               0.000000000              -0.005204548               0.002615006               0.000799229              -0.002278577               0.001631183              -0.000647394               0.000000000               0.000000000               0.000000000               0.000000000              -0.004874840               0.004305415               0.001973128              -0.002366237               0.002223868              -0.000142369               0.000000000               0.000000000               0.000000000               0.000000000              -0.004309779               0.005094079               0.002121978              -0.002252922               0.002448983               0.000196061               0.000000000               0.000000000               0.000000000               0.000000000              -0.003709593               0.005453805               0.001986184              -0.002072818               0.002508856               0.000436037               0.000000000               0.000000000               0.000000000               0.000000000              -0.003118691               0.005600102               0.001794504              -0.001869518               0.002489854               0.000620336               0.000000000               0.000000000               0.000000000               0.000000000              -0.002540888               0.005627684               0.001603319              -0.001656290               0.002427972               0.000771682               0.000000000               0.000000000               0.000000000               0.000000000              -0.001979133               0.005588508               0.001418485              -0.001440735               0.002343062               0.000902327               0.000000000               0.000000000               0.000000000               0.000000000              -0.001438802               0.005513379               0.001243299              -0.001228720               0.002247348               0.001018627               0.000000000               0.000000000               0.000000000               0.000000000              -0.000925675               0.005406853               0.001081358              -0.001022983               0.002143260               0.001120278               0.000000000               0.000000000               0.000000000               0.000000000              -0.000443810               0.005281976               0.000928023              -0.000826674               0.002036199               0.001209525               0.000000000               0.000000000               0.000000000               0.000000000               0.000007498               0.005153182               0.000777778              -0.000641335               0.001931488               0.001290154               0.000000000               0.000000000               0.000000000               0.000000000               0.000411848               0.005038924               0.000622651              -0.000475421               0.001838098               0.001362677               0.000000000               0.000000000               0.000000000               0.000000000               0.000748382               0.004955140               0.000455221              -0.000338749               0.001764613               0.001425864               0.000000000               0.000000000               0.000000000               0.000000000               0.000996771               0.004921426               0.000287898              -0.000241388               0.001720922               0.001479533               0.000000000               0.000000000               0.000000000               0.000000000               0.001143611               0.004940602               0.000133990              -0.000188721               0.001709758               0.001521037               0.000000000               0.000000000               0.000000000               0.000000000               0.001182793               0.004956955               0.000060865              -0.000176072               0.001710992               0.001534921               0.000000000               0.000000000               0.000000000               0.000000000              -0.008089635              -0.000193304              -0.001116051              -0.003009448               0.000938708              -0.002070740               0.000000000               0.000000000               0.000000000               0.000000000              -0.006258292               0.001434027               0.000521971              -0.002526110               0.001320037              -0.001206073               0.000000000               0.000000000               0.000000000               0.000000000              -0.005128374               0.002861402               0.001941384              -0.002280812               0.001714059              -0.000566753               0.000000000               0.000000000               0.000000000               0.000000000              -0.004286116               0.003759779               0.002243119              -0.002077262               0.001945666              -0.000131596               0.000000000               0.000000000               0.000000000               0.000000000              -0.003586550               0.004317050               0.002191099              -0.001884583               0.002067196               0.000182612               0.000000000               0.000000000               0.000000000               0.000000000              -0.002963013               0.004668521               0.002039707              -0.001694692               0.002121055               0.000426363               0.000000000               0.000000000               0.000000000               0.000000000              -0.002386877               0.004885191               0.001862310              -0.001505725               0.002130288               0.000624564               0.000000000               0.000000000               0.000000000               0.000000000              -0.001836417               0.005021661               0.001680703              -0.001316361               0.002112657               0.000796296               0.000000000               0.000000000               0.000000000               0.000000000              -0.001301540               0.005099106               0.001507606              -0.001125464               0.002074839               0.000949375               0.000000000               0.000000000               0.000000000               0.000000000              -0.000780990               0.005120873               0.001344720              -0.000932979               0.002017933               0.001084954               0.000000000               0.000000000               0.000000000               0.000000000              -0.000278799               0.005107612               0.001191331              -0.000743000               0.001950187               0.001207187               0.000000000               0.000000000               0.000000000               0.000000000               0.000208463               0.005073434               0.001040226              -0.000556005               0.001876462               0.001320458               0.000000000               0.000000000               0.000000000               0.000000000               0.000664354               0.005023139               0.000873562              -0.000378759               0.001800616               0.001421857               0.000000000               0.000000000               0.000000000               0.000000000               0.001070922               0.004975727               0.000681153              -0.000220370               0.001732016               0.001511646               0.000000000               0.000000000               0.000000000               0.000000000               0.001406337               0.004952418               0.000466412              -0.000091676               0.001681348               0.001589672               0.000000000               0.000000000               0.000000000               0.000000000               0.001645519               0.004964740               0.000239240              -0.000003523               0.001656071               0.001652548               0.000000000               0.000000000               0.000000000               0.000000000               0.001742725               0.004982376               0.000126125               0.000030724               0.001650534               0.001681258               0.000000000               0.000000000               0.000000000               0.000000000              -0.010061164              -0.000780326              -0.001294483              -0.003675393               0.000965015              -0.002710378               0.000000000               0.000000000               0.000000000               0.000000000              -0.007301164               0.000473043               0.000274886              -0.002797064               0.001090028              -0.001707036               0.000000000               0.000000000               0.000000000               0.000000000              -0.005356032               0.001507370               0.001684394              -0.002196930               0.001234758              -0.000962173               0.000000000               0.000000000               0.000000000               0.000000000              -0.004187141               0.002396666               0.002066903              -0.001869758               0.001422131              -0.000447627               0.000000000               0.000000000               0.000000000               0.000000000              -0.003351788               0.003073837               0.002091231              -0.001641147               0.001571650              -0.000069497               0.000000000               0.000000000               0.000000000               0.000000000              -0.002681103               0.003583389               0.001993807              -0.001453335               0.001678895               0.000225560               0.000000000               0.000000000               0.000000000               0.000000000              -0.002098739               0.003971408               0.001851234              -0.001283451               0.001751606               0.000468155               0.000000000               0.000000000               0.000000000               0.000000000              -0.001555058               0.004274981               0.001697075              -0.001117517               0.001797485               0.000679967               0.000000000               0.000000000               0.000000000               0.000000000              -0.001031449               0.004498551               0.001548928              -0.000949111               0.001815872               0.000866761               0.000000000               0.000000000               0.000000000               0.000000000              -0.000517284               0.004653003               0.001408482              -0.000775606               0.001809520               0.001033915               0.000000000               0.000000000               0.000000000               0.000000000              -0.000004774               0.004762692               0.001277373              -0.000597126               0.001786590               0.001189464               0.000000000               0.000000000               0.000000000               0.000000000               0.000506791               0.004840803               0.001146240              -0.000415053               0.001751936               0.001336882               0.000000000               0.000000000               0.000000000               0.000000000               0.001011169               0.004889473               0.000992152              -0.000231996               0.001707140               0.001475144               0.000000000               0.000000000               0.000000000               0.000000000               0.001495900               0.004918249               0.000802554              -0.000053819               0.001657340               0.001603520               0.000000000               0.000000000               0.000000000               0.000000000               0.001948282               0.004940240               0.000576323               0.000113074               0.001609039               0.001722113               0.000000000               0.000000000               0.000000000               0.000000000               0.002342266               0.004967313               0.000309895               0.000257433               0.001569944               0.001827377               0.000000000               0.000000000               0.000000000               0.000000000               0.002565119               0.005000879               0.000175059               0.000336806               0.001554674               0.001891481               0.000000000               0.000000000               0.000000000               0.000000000              -0.011714964              -0.001087346              -0.001124669              -0.004257190               0.001056607              -0.003200583               0.000000000               0.000000000               0.000000000               0.000000000              -0.008203986              -0.000225104               0.000103652              -0.003048354               0.000941077              -0.002107277               0.000000000               0.000000000               0.000000000               0.000000000              -0.005546900               0.000397241               0.001235095              -0.002129740               0.000842321              -0.001287420               0.000000000               0.000000000               0.000000000               0.000000000              -0.004058808               0.001204651               0.001588709              -0.001672632               0.000959087              -0.000713545               0.000000000               0.000000000               0.000000000               0.000000000              -0.003080336               0.001935038               0.001651581              -0.001397003               0.001110672              -0.000286331               0.000000000               0.000000000               0.000000000               0.000000000              -0.002353800               0.002551390               0.001601977              -0.001201596               0.001250986               0.000049390               0.000000000               0.000000000               0.000000000               0.000000000              -0.001754362               0.003065311               0.001507250              -0.001041048               0.001368775               0.000327727               0.000000000               0.000000000               0.000000000               0.000000000              -0.001210866               0.003495212               0.001396771              -0.000890975               0.001462050               0.000571075               0.000000000               0.000000000               0.000000000               0.000000000              -0.000695991               0.003844712               0.001287217              -0.000741584               0.001528752               0.000787168               0.000000000               0.000000000               0.000000000               0.000000000              -0.000191585               0.004122703               0.001184473              -0.000587181               0.001569947               0.000982766               0.000000000               0.000000000               0.000000000               0.000000000               0.000320826               0.004348541               0.001091215              -0.000423258               0.001590585               0.001167327               0.000000000               0.000000000               0.000000000               0.000000000               0.000846490               0.004536355               0.000997736              -0.000249611               0.001595307               0.001345696               0.000000000               0.000000000               0.000000000               0.000000000               0.001389797               0.004688551               0.000881147              -0.000064896               0.001584466               0.001519571               0.000000000               0.000000000               0.000000000               0.000000000               0.001952543               0.004803768               0.000731602               0.000131731               0.001557330               0.001689061               0.000000000               0.000000000               0.000000000               0.000000000               0.002535000               0.004889355               0.000541274               0.000339452               0.001516618               0.001856070               0.000000000               0.000000000               0.000000000               0.000000000               0.003128927               0.004952570               0.000297709               0.000554271               0.001466083               0.002020354               0.000000000               0.000000000               0.000000000               0.000000000               0.003532411               0.005017350               0.000176261               0.000697479               0.001439940               0.002137419               0.000000000               0.000000000               0.000000000               0.000000000              -0.012816220              -0.001210085              -0.000652301              -0.004654819               0.001148237              -0.003506582               0.000000000               0.000000000               0.000000000               0.000000000              -0.008818795              -0.000640693               0.000020771              -0.003226959               0.000862083              -0.002364876               0.000000000               0.000000000               0.000000000               0.000000000              -0.005676937              -0.000330819               0.000651808              -0.002087498               0.000585555              -0.001501942               0.000000000               0.000000000               0.000000000               0.000000000              -0.003954172               0.000388938               0.000865868              -0.001531430               0.000640118              -0.000891312               0.000000000               0.000000000               0.000000000               0.000000000              -0.002867849               0.001133828               0.000914546              -0.001217170               0.000783660              -0.000433510               0.000000000               0.000000000               0.000000000               0.000000000              -0.002094600               0.001803724               0.000895249              -0.001010938               0.000938214              -0.000072724               0.000000000               0.000000000               0.000000000               0.000000000              -0.001477984               0.002386504               0.000849586              -0.000852555               0.001079678               0.000227123               0.000000000               0.000000000               0.000000000               0.000000000              -0.000934507               0.002894848               0.000792445              -0.000712295               0.001202371               0.000490076               0.000000000               0.000000000               0.000000000               0.000000000              -0.000422718               0.003329587               0.000732577              -0.000574716               0.001301423               0.000726707               0.000000000               0.000000000               0.000000000               0.000000000               0.000078552               0.003694031               0.000677765              -0.000432296               0.001375430               0.000943134               0.000000000               0.000000000               0.000000000               0.000000000               0.000588336               0.004006846               0.000629540              -0.000280230               0.001429012               0.001148782               0.000000000               0.000000000               0.000000000               0.000000000               0.001118120               0.004282649               0.000581992              -0.000116036               0.001466214               0.001350178               0.000000000               0.000000000               0.000000000               0.000000000               0.001682921               0.004518252               0.000522519               0.000066313               0.001483965               0.001550278               0.000000000               0.000000000               0.000000000               0.000000000               0.002299401               0.004702616               0.000441943               0.000274445               0.001476041               0.001750487               0.000000000               0.000000000               0.000000000               0.000000000               0.002984047               0.004839947               0.000334790               0.000514019               0.001441960               0.001955979               0.000000000               0.000000000               0.000000000               0.000000000               0.003755008               0.004935264               0.000188487               0.000791212               0.001381334               0.002172546               0.000000000               0.000000000               0.000000000               0.000000000               0.004329702               0.005029766               0.000114899               0.000994908               0.001344936               0.002339844               0.000000000               0.000000000               0.000000000               0.000000000              -0.013202402              -0.001240587               0.000000000              -0.004795825               0.001185071              -0.003610753               0.000000000               0.000000000               0.000000000               0.000000000              -0.009035870              -0.000776922               0.000000000              -0.003291334               0.000838132              -0.002453202               0.000000000               0.000000000               0.000000000               0.000000000              -0.005721672              -0.000579489              -0.000000000              -0.002073189               0.000497897              -0.001575293               0.000000000               0.000000000               0.000000000               0.000000000              -0.003913662               0.000100477               0.000000000              -0.001480181               0.000526883              -0.000953299               0.000000000               0.000000000               0.000000000               0.000000000              -0.002790856               0.000839220               0.000000000              -0.001151472               0.000663560              -0.000487912               0.000000000               0.000000000               0.000000000               0.000000000              -0.001998088               0.001526197              -0.000000000              -0.000940056               0.000822079              -0.000117977               0.000000000               0.000000000               0.000000000               0.000000000              -0.001373376               0.002134460               0.000000000              -0.000781822               0.000972087               0.000190265               0.000000000               0.000000000               0.000000000               0.000000000              -0.000830960               0.002667899               0.000000000              -0.000645096               0.001104323               0.000459227               0.000000000               0.000000000               0.000000000               0.000000000              -0.000320521               0.003129485               0.000000000              -0.000511380               0.001213611               0.000702231               0.000000000               0.000000000               0.000000000               0.000000000               0.000182606               0.003525839               0.000000000              -0.000372252               0.001299352               0.000927100               0.000000000               0.000000000               0.000000000               0.000000000               0.000692403               0.003876521              -0.000000000              -0.000224913               0.001367132               0.001142218               0.000000000               0.000000000               0.000000000               0.000000000               0.001224700               0.004191984              -0.000000000              -0.000064736               0.001418893               0.001354157               0.000000000               0.000000000               0.000000000               0.000000000               0.001795127               0.004462224               0.000000000               0.000115394               0.001448928               0.001564322               0.000000000               0.000000000               0.000000000               0.000000000               0.002428955               0.004675635               0.000000000               0.000326401               0.001449729               0.001776130               0.000000000               0.000000000               0.000000000               0.000000000               0.003153443               0.004832902              -0.000000000               0.000578423               0.001418144               0.001996566               0.000000000               0.000000000               0.000000000               0.000000000               0.003994426               0.004934085              -0.000000000               0.000881140               0.001350965               0.002232105               0.000000000               0.000000000               0.000000000               0.000000000               0.004641584               0.005036860               0.000000000               0.001110975               0.001308611               0.002419587               0.000000000               0.000000000               0.000000000               0.000000000               0.001964047               0.020955320              -0.000000000              -0.001882893               0.007612668               0.005729775               0.000000000               0.000000000               0.000000000               0.000000000               0.001864346               0.016047228               0.000000000              -0.001306771               0.005784613               0.004477842               0.000000000               0.000000000               0.000000000               0.000000000               0.002375016               0.012042243               0.000000000              -0.000614648               0.004218923               0.003604276               0.000000000               0.000000000               0.000000000               0.000000000               0.002167660               0.009762899               0.000000000              -0.000407489               0.003390097               0.002982608               0.000000000               0.000000000               0.000000000               0.000000000               0.001780169               0.008316330              -0.000000000              -0.000371977               0.002896075               0.002524098               0.000000000               0.000000000               0.000000000               0.000000000               0.001388992               0.007307004              -0.000000000              -0.000392503               0.002566478               0.002173975               0.000000000               0.000000000               0.000000000               0.000000000               0.001043048               0.006523454               0.000000000              -0.000424288               0.002315892               0.001891604               0.000000000               0.000000000               0.000000000               0.000000000               0.000761790               0.005865910              -0.000000000              -0.000447567               0.002104473               0.001656906               0.000000000               0.000000000               0.000000000               0.000000000               0.000534781               0.005276310              -0.000000000              -0.000458995               0.001911751               0.001452756               0.000000000               0.000000000               0.000000000               0.000000000               0.000343591               0.004721752              -0.000000000              -0.000461371               0.001727692               0.001266321               0.000000000               0.000000000               0.000000000               0.000000000               0.000187947               0.004181878               0.000000000              -0.000452254               0.001544697               0.001092443               0.000000000               0.000000000               0.000000000               0.000000000               0.000073452               0.003639095               0.000000000              -0.000427341               0.001355467               0.000928125               0.000000000               0.000000000               0.000000000               0.000000000              -0.000007861               0.003075135               0.000000000              -0.000387339               0.001154148               0.000766809               0.000000000               0.000000000               0.000000000               0.000000000              -0.000057259               0.002476120               0.000000000              -0.000330986               0.000935694               0.000604708               0.000000000               0.000000000               0.000000000               0.000000000              -0.000074147               0.001823604              -0.000000000              -0.000255755               0.000693114               0.000437358               0.000000000               0.000000000               0.000000000               0.000000000              -0.000048978               0.001095476              -0.000000000              -0.000155301               0.000416922               0.000261621               0.000000000               0.000000000               0.000000000               0.000000000              -0.000083119               0.000538655              -0.000000000              -0.000098501               0.000212383               0.000113882               0.000000000               0.000000000               0.000000000               0.000000000               0.002018844               0.020504659              -0.001380922              -0.001806012               0.007436822               0.005630810               0.000000000               0.000000000               0.000000000               0.000000000               0.001801893               0.015762974              -0.000615715              -0.001294659               0.005685825               0.004391166               0.000000000               0.000000000               0.000000000               0.000000000               0.002188154               0.011929696               0.000136110              -0.000670652               0.004200076               0.003529424               0.000000000               0.000000000               0.000000000               0.000000000               0.001938807               0.009740827               0.000444672              -0.000490550               0.003410426               0.002919877               0.000000000               0.000000000               0.000000000               0.000000000               0.001544254               0.008341061               0.000566772              -0.000463537               0.002934838               0.002471302               0.000000000               0.000000000               0.000000000               0.000000000               0.001158677               0.007350942               0.000599403              -0.000484363               0.002611744               0.002127381               0.000000000               0.000000000               0.000000000               0.000000000               0.000829692               0.006579662               0.000588629              -0.000511322               0.002363639               0.001852317               0.000000000               0.000000000               0.000000000               0.000000000               0.000567631               0.005927228               0.000561156              -0.000528041               0.002151736               0.001623696               0.000000000               0.000000000               0.000000000               0.000000000               0.000361321               0.005339823               0.000528792              -0.000531981               0.001957250               0.001425269               0.000000000               0.000000000               0.000000000               0.000000000               0.000199616               0.004787399               0.000496484              -0.000523568               0.001770306               0.001246738               0.000000000               0.000000000               0.000000000               0.000000000               0.000071737               0.004247270               0.000463672              -0.000504006               0.001583744               0.001079738               0.000000000               0.000000000               0.000000000               0.000000000              -0.000021195               0.003707735               0.000426562              -0.000471414               0.001393037               0.000921623               0.000000000               0.000000000               0.000000000               0.000000000              -0.000079421               0.003156228               0.000382570              -0.000424310               0.001193502               0.000769192               0.000000000               0.000000000               0.000000000               0.000000000              -0.000108662               0.002576403               0.000326787              -0.000362798               0.000979725               0.000616927               0.000000000               0.000000000               0.000000000               0.000000000              -0.000105528               0.001954014               0.000251025              -0.000283824               0.000745940               0.000462115               0.000000000               0.000000000               0.000000000               0.000000000              -0.000062602               0.001274728               0.000142695              -0.000182817               0.000485844               0.000303027               0.000000000               0.000000000               0.000000000               0.000000000              -0.000084354               0.000769186               0.000089172              -0.000127781               0.000298986               0.000171205               0.000000000               0.000000000               0.000000000               0.000000000               0.002147636               0.019218020              -0.002555070              -0.001596886               0.006938238               0.005341352               0.000000000               0.000000000               0.000000000               0.000000000               0.001611702               0.014954609              -0.001133734              -0.001264935               0.005406465               0.004141530               0.000000000               0.000000000               0.000000000               0.000000000               0.001659915               0.011614463               0.000249791              -0.000829338               0.004147895               0.003318557               0.000000000               0.000000000               0.000000000               0.000000000               0.001295342               0.009673740               0.000795262              -0.000723463               0.003465702               0.002742239               0.000000000               0.000000000               0.000000000               0.000000000               0.000886100               0.008393497               0.000998211              -0.000716898               0.003036770               0.002319872               0.000000000               0.000000000               0.000000000               0.000000000               0.000531835               0.007458241               0.001047993              -0.000732841               0.002730336               0.001997495               0.000000000               0.000000000               0.000000000               0.000000000               0.000257475               0.006714311               0.001024078              -0.000742734               0.002485659               0.001742925               0.000000000               0.000000000               0.000000000               0.000000000               0.000057551               0.006072594               0.000970604              -0.000737491               0.002270008               0.001532517               0.000000000               0.000000000               0.000000000               0.000000000              -0.000085770               0.005488140               0.000910844              -0.000718180               0.002068755               0.001350575               0.000000000               0.000000000               0.000000000               0.000000000              -0.000179994               0.004938816               0.000849274              -0.000684849               0.001874538               0.001189690               0.000000000               0.000000000               0.000000000               0.000000000              -0.000238465               0.004406662               0.000785089              -0.000640256               0.001682291               0.001042035               0.000000000               0.000000000               0.000000000               0.000000000              -0.000267634               0.003881155               0.000716739              -0.000585506               0.001488874               0.000903368               0.000000000               0.000000000               0.000000000               0.000000000              -0.000263562               0.003358141               0.000635311              -0.000518602               0.001292236               0.000773634               0.000000000               0.000000000               0.000000000               0.000000000              -0.000232738               0.002824983               0.000532212              -0.000440399               0.001088451               0.000648052               0.000000000               0.000000000               0.000000000               0.000000000              -0.000174185               0.002279248               0.000397929              -0.000350225               0.000876483               0.000526259               0.000000000               0.000000000               0.000000000               0.000000000              -0.000090126               0.001727149               0.000221072              -0.000249690               0.000658941               0.000409250               0.000000000               0.000000000               0.000000000               0.000000000              -0.000084470               0.001344410               0.000136915              -0.000199727               0.000514708               0.000314981               0.000000000               0.000000000               0.000000000               0.000000000               0.002242373               0.017265725              -0.003359650              -0.001317324               0.006194292               0.004876967               0.000000000               0.000000000               0.000000000               0.000000000               0.001268215               0.013745151              -0.001488038              -0.001242561               0.004995858               0.003753297               0.000000000               0.000000000               0.000000000               0.000000000               0.000853790               0.011146158               0.000304239              -0.001073096               0.004073048               0.002999952               0.000000000               0.000000000               0.000000000               0.000000000               0.000358363               0.009554930               0.000967196              -0.001059978               0.003538271               0.002478293               0.000000000               0.000000000               0.000000000               0.000000000              -0.000036410               0.008437991               0.001196437              -0.001068400               0.003168769               0.002100369               0.000000000               0.000000000               0.000000000               0.000000000              -0.000317048               0.007574260               0.001244138              -0.001065673               0.002879952               0.001814279               0.000000000               0.000000000               0.000000000               0.000000000              -0.000500473               0.006855097               0.001205576              -0.001044562               0.002633197               0.001588634               0.000000000               0.000000000               0.000000000               0.000000000              -0.000604375               0.006221263               0.001132339              -0.001004296               0.002408499               0.001404202               0.000000000               0.000000000               0.000000000               0.000000000              -0.000650684               0.005644294               0.001053819              -0.000949541               0.002197926               0.001248385               0.000000000               0.000000000               0.000000000               0.000000000              -0.000651699               0.005105320               0.000975182              -0.000882550               0.001995940               0.001113389               0.000000000               0.000000000               0.000000000               0.000000000              -0.000617833               0.004590328               0.000892063              -0.000805477               0.001798586               0.000993109               0.000000000               0.000000000               0.000000000               0.000000000              -0.000555712               0.004091055               0.000804593              -0.000719772               0.001603595               0.000883823               0.000000000               0.000000000               0.000000000               0.000000000              -0.000466410               0.003605848               0.000702909              -0.000625634               0.001410482               0.000784848               0.000000000               0.000000000               0.000000000               0.000000000              -0.000354647               0.003139929               0.000574972              -0.000525483               0.001221793               0.000696311               0.000000000               0.000000000               0.000000000               0.000000000              -0.000229858               0.002702352               0.000417325              -0.000423990               0.001042105               0.000618115               0.000000000               0.000000000               0.000000000               0.000000000              -0.000108121               0.002312903               0.000225115              -0.000329657               0.000880846               0.000551188               0.000000000               0.000000000               0.000000000               0.000000000              -0.000075648               0.002075115               0.000133032              -0.000287757               0.000787617               0.000499860               0.000000000               0.000000000               0.000000000               0.000000000               0.002168826               0.014877167              -0.003726846              -0.001046336               0.005307784               0.004261448               0.000000000               0.000000000               0.000000000               0.000000000               0.000748382               0.012299061              -0.001667590              -0.001256737               0.004518558               0.003261821               0.000000000               0.000000000               0.000000000               0.000000000              -0.000137681               0.010578735               0.000269753              -0.001373969               0.003984199               0.002610230               0.000000000               0.000000000               0.000000000               0.000000000              -0.000708230               0.009365647               0.000930982              -0.001436289               0.003600614               0.002164325               0.000000000               0.000000000               0.000000000               0.000000000              -0.001033855               0.008414675               0.001137797              -0.001439526               0.003284705               0.001845179               0.000000000               0.000000000               0.000000000               0.000000000              -0.001196114               0.007618046               0.001171483              -0.001400795               0.003006255               0.001605459               0.000000000               0.000000000               0.000000000               0.000000000              -0.001251487               0.006925716               0.001125975              -0.001335019               0.002753555               0.001418536               0.000000000               0.000000000               0.000000000               0.000000000              -0.001229743               0.006310712               0.001048774              -0.001249990               0.002520213               0.001270223               0.000000000               0.000000000               0.000000000               0.000000000              -0.001154721               0.005752132               0.000968482              -0.001152034               0.002301369               0.001149335               0.000000000               0.000000000               0.000000000               0.000000000              -0.001044912               0.005230043               0.000887727              -0.001045595               0.002091862               0.001046267               0.000000000               0.000000000               0.000000000               0.000000000              -0.000906535               0.004737777               0.000803986              -0.000932171               0.001889967               0.000957796               0.000000000               0.000000000               0.000000000               0.000000000              -0.000746008               0.004274059               0.000714727              -0.000814008               0.001696008               0.000882000               0.000000000               0.000000000               0.000000000               0.000000000              -0.000570539               0.003844575               0.000611405              -0.000694523               0.001513020               0.000818497               0.000000000               0.000000000               0.000000000               0.000000000              -0.000390811               0.003462083               0.000484973              -0.000579313               0.001347120               0.000767807               0.000000000               0.000000000               0.000000000               0.000000000              -0.000226802               0.003143579               0.000334787              -0.000477997               0.001207181               0.000729185               0.000000000               0.000000000               0.000000000               0.000000000              -0.000097947               0.002907028               0.000170879              -0.000400108               0.001102369               0.000702261               0.000000000               0.000000000               0.000000000               0.000000000              -0.000052636               0.002796310               0.000092515              -0.000369276               0.001055186               0.000685910               0.000000000               0.000000000               0.000000000               0.000000000               0.001823885               0.012311288              -0.003661137              -0.000854955               0.004388706               0.003533751               0.000000000               0.000000000               0.000000000               0.000000000               0.000057827               0.010777440              -0.001693804              -0.001325493               0.004034275               0.002708782               0.000000000               0.000000000               0.000000000               0.000000000              -0.001206035               0.009951250               0.000127887              -0.001696165               0.003882438               0.002186273               0.000000000               0.000000000               0.000000000               0.000000000              -0.001756131               0.009084096               0.000698285              -0.001794057               0.003626021               0.001831964               0.000000000               0.000000000               0.000000000               0.000000000              -0.001945276               0.008276038               0.000862701              -0.001763979               0.003346645               0.001582666               0.000000000               0.000000000               0.000000000               0.000000000              -0.001944970               0.007542602               0.000890098              -0.001672185               0.003071571               0.001399386               0.000000000               0.000000000               0.000000000               0.000000000              -0.001844146               0.006891722               0.000855648              -0.001553016               0.002814890               0.001261874               0.000000000               0.000000000               0.000000000               0.000000000              -0.001681955               0.006309037               0.000792567              -0.001419359               0.002576111               0.001156752               0.000000000               0.000000000               0.000000000               0.000000000              -0.001482668               0.005773662               0.000725525              -0.001277705               0.002350436               0.001072731               0.000000000               0.000000000               0.000000000               0.000000000              -0.001256962               0.005277327               0.000658386              -0.001131024               0.002136099               0.001005075               0.000000000               0.000000000               0.000000000               0.000000000              -0.001015079               0.004817533               0.000588475              -0.000982844               0.001933443               0.000950599               0.000000000               0.000000000               0.000000000               0.000000000              -0.000769983               0.004403235               0.000511176              -0.000839146               0.001747446               0.000908299               0.000000000               0.000000000               0.000000000               0.000000000              -0.000536909               0.004044376               0.000419360              -0.000706886               0.001583740               0.000876854               0.000000000               0.000000000               0.000000000               0.000000000              -0.000326988               0.003752629               0.000310754              -0.000591698               0.001448096               0.000856399               0.000000000               0.000000000               0.000000000               0.000000000              -0.000161108               0.003538549               0.000193260              -0.000502733               0.001347082               0.000844349               0.000000000               0.000000000               0.000000000               0.000000000              -0.000058008               0.003413717               0.000086257              -0.000448467               0.001287383               0.000838917               0.000000000               0.000000000               0.000000000               0.000000000              -0.000023010               0.003378823               0.000039539              -0.000430980               0.001269923               0.000838943               0.000000000               0.000000000               0.000000000               0.000000000               0.001143271               0.009793715              -0.003234799              -0.000795489               0.003529701               0.002734212               0.000000000               0.000000000               0.000000000               0.000000000              -0.000772414               0.009298214              -0.001619936              -0.001451929               0.003583350               0.002131420               0.000000000               0.000000000               0.000000000               0.000000000              -0.002235175               0.009289174              -0.000132102              -0.001999333               0.003762805               0.001763472               0.000000000               0.000000000               0.000000000               0.000000000              -0.002645341               0.008708681               0.000311040              -0.002080583               0.003596392               0.001515809               0.000000000               0.000000000               0.000000000               0.000000000              -0.002644197               0.008019872               0.000444397              -0.001994053               0.003337948               0.001343895               0.000000000               0.000000000               0.000000000               0.000000000              -0.002464067               0.007354280               0.000485164              -0.001843305               0.003065837               0.001222532               0.000000000               0.000000000               0.000000000               0.000000000              -0.002199138               0.006755590               0.000482618              -0.001669121               0.002808214               0.001139093               0.000000000               0.000000000               0.000000000               0.000000000              -0.001894773               0.006210869               0.000449760              -0.001486895               0.002565901               0.001079006               0.000000000               0.000000000               0.000000000               0.000000000              -0.001579718               0.005705342               0.000413025              -0.001305559               0.002336948               0.001031389               0.000000000               0.000000000               0.000000000               0.000000000              -0.001257117               0.005244550               0.000373404              -0.001126985               0.002123827               0.000996843               0.000000000               0.000000000               0.000000000               0.000000000              -0.000941344               0.004834710               0.000328634              -0.000957341               0.001930668               0.000973327               0.000000000               0.000000000               0.000000000               0.000000000              -0.000646839               0.004491489               0.000276444              -0.000803999               0.001765147               0.000961149               0.000000000               0.000000000               0.000000000               0.000000000              -0.000392008               0.004218249               0.000212012              -0.000674282               0.001630830               0.000956547               0.000000000               0.000000000               0.000000000               0.000000000              -0.000193029               0.004019797               0.000136077              -0.000574859               0.001531539               0.000956680               0.000000000               0.000000000               0.000000000               0.000000000              -0.000063631               0.003898681               0.000064249              -0.000511196               0.001469946               0.000958750               0.000000000               0.000000000               0.000000000               0.000000000              -0.000007637               0.003855449               0.000017717              -0.000484794               0.001446735               0.000961941               0.000000000               0.000000000               0.000000000               0.000000000               0.000005785               0.003862096               0.000000976              -0.000480591               0.001447550               0.000966958               0.000000000               0.000000000               0.000000000               0.000000000               0.000153607               0.007472891              -0.002561883              -0.000876508               0.002783107               0.001906599               0.000000000               0.000000000               0.000000000               0.000000000              -0.001690044               0.007945673              -0.001501348              -0.001626972               0.003190855               0.001563883               0.000000000               0.000000000               0.000000000               0.000000000              -0.003118385               0.008601808              -0.000498437              -0.002244615               0.003615445               0.001370831               0.000000000               0.000000000               0.000000000               0.000000000              -0.003290343               0.008238475              -0.000168768              -0.002263682               0.003500692               0.001237009               0.000000000               0.000000000               0.000000000               0.000000000              -0.003067933               0.007662661              -0.000033912              -0.002108302               0.003256962               0.001148660               0.000000000               0.000000000               0.000000000               0.000000000              -0.002710183               0.007084026               0.000039213              -0.001901817               0.002995257               0.001093440               0.000000000               0.000000000               0.000000000               0.000000000              -0.002299960               0.006540323               0.000084404              -0.001680021               0.002740093               0.001060072               0.000000000               0.000000000               0.000000000               0.000000000              -0.001870711               0.006035903               0.000099767              -0.001456001               0.002497281               0.001041280               0.000000000               0.000000000               0.000000000               0.000000000              -0.001455510               0.005574034               0.000104962              -0.001242568               0.002272182               0.001029615               0.000000000               0.000000000               0.000000000               0.000000000              -0.001065014               0.005166514               0.000104059              -0.001045192               0.002070551               0.001025360               0.000000000               0.000000000               0.000000000               0.000000000              -0.000707171               0.004827634               0.000097369              -0.000868641               0.001898742               0.001030101               0.000000000               0.000000000               0.000000000               0.000000000              -0.000399353               0.004567321               0.000084804              -0.000720671               0.001762649               0.001041978               0.000000000               0.000000000               0.000000000               0.000000000              -0.000163361               0.004386885               0.000058434              -0.000609619               0.001665487               0.001055867               0.000000000               0.000000000               0.000000000               0.000000000              -0.000009180               0.004288013               0.000023265              -0.000539443               0.001609138               0.001069695               0.000000000               0.000000000               0.000000000               0.000000000               0.000063798               0.004268343              -0.000005021              -0.000509618               0.001592639               0.001083022               0.000000000               0.000000000               0.000000000               0.000000000               0.000058689               0.004305094              -0.000012944              -0.000516127               0.001607059               0.001090932               0.000000000               0.000000000               0.000000000               0.000000000               0.000043136               0.004351561              -0.000015643              -0.000527768               0.001626428               0.001098660               0.000000000               0.000000000               0.000000000               0.000000000              -0.001018542               0.005519433              -0.001752414              -0.001071881               0.002197086               0.001125205               0.000000000               0.000000000               0.000000000               0.000000000              -0.002593185               0.006741935              -0.001376211              -0.001815182               0.002852350               0.001037167               0.000000000               0.000000000               0.000000000               0.000000000              -0.003813268               0.007912363              -0.000940841              -0.002419015               0.003443766               0.001024751               0.000000000               0.000000000               0.000000000               0.000000000              -0.003733124               0.007779564              -0.000681905              -0.002372361               0.003383949               0.001011588               0.000000000               0.000000000               0.000000000               0.000000000              -0.003320136               0.007347411              -0.000516285              -0.002163472               0.003170270               0.001006798               0.000000000               0.000000000               0.000000000               0.000000000              -0.002814267               0.006871116              -0.000399139              -0.001914235               0.002928428               0.001014193               0.000000000               0.000000000               0.000000000               0.000000000              -0.002289239               0.006397189              -0.000303270              -0.001658109               0.002685078               0.001026969               0.000000000               0.000000000               0.000000000               0.000000000              -0.001767245               0.005940514              -0.000228738              -0.001405278               0.002448578               0.001043300               0.000000000               0.000000000               0.000000000               0.000000000              -0.001275081               0.005527707              -0.000173553              -0.001169116               0.002232256               0.001063140               0.000000000               0.000000000               0.000000000               0.000000000              -0.000829971               0.005169895              -0.000129493              -0.000957473               0.002042439               0.001084965               0.000000000               0.000000000               0.000000000               0.000000000              -0.000445305               0.004883422              -0.000089717              -0.000777415               0.001886929               0.001109514               0.000000000               0.000000000               0.000000000               0.000000000              -0.000140018               0.004676387              -0.000053537              -0.000637054               0.001771131               0.001134078               0.000000000               0.000000000               0.000000000               0.000000000               0.000077633               0.004555176              -0.000030900              -0.000540283               0.001698471               0.001158188               0.000000000               0.000000000               0.000000000               0.000000000               0.000202020               0.004522455              -0.000019898              -0.000489548               0.001670652               0.001181104               0.000000000               0.000000000               0.000000000               0.000000000               0.000243020               0.004570468              -0.000015417              -0.000480175               0.001683532               0.001203357               0.000000000               0.000000000               0.000000000               0.000000000               0.000220615               0.004674422              -0.000011117              -0.000501571               0.001725315               0.001223745               0.000000000               0.000000000               0.000000000               0.000000000               0.000190279               0.004746527              -0.000008973              -0.000521960               0.001756147               0.001234186               0.000000000               0.000000000               0.000000000               0.000000000              -0.002378209               0.003713791              -0.000903931              -0.001356049               0.001689934               0.000333885               0.000000000               0.000000000               0.000000000               0.000000000              -0.003363040               0.005349611              -0.001241378              -0.001929837               0.002426464               0.000496628               0.000000000               0.000000000               0.000000000               0.000000000              -0.004242093               0.006898331              -0.001406577              -0.002453070               0.003117110               0.000664040               0.000000000               0.000000000               0.000000000               0.000000000              -0.004015738               0.007118957              -0.001227953              -0.002395766               0.003171550               0.000775785               0.000000000               0.000000000               0.000000000               0.000000000              -0.003522420               0.006932396              -0.001035635              -0.002187452               0.003039926               0.000852474               0.000000000               0.000000000               0.000000000               0.000000000              -0.002965035               0.006633665              -0.000869844              -0.001941092               0.002858230               0.000917138               0.000000000               0.000000000               0.000000000               0.000000000              -0.002403937               0.006305148              -0.000724693              -0.001689616               0.002664900               0.000975284               0.000000000               0.000000000               0.000000000               0.000000000              -0.001856379               0.005966109              -0.000597693              -0.001441902               0.002469317               0.001027415               0.000000000               0.000000000               0.000000000               0.000000000              -0.001334611               0.005639489              -0.000492286              -0.001205412               0.002281615               0.001076202               0.000000000               0.000000000               0.000000000               0.000000000              -0.000858684               0.005340909              -0.000399826              -0.000989618               0.002110158               0.001120540               0.000000000               0.000000000               0.000000000               0.000000000              -0.000438616               0.005089547              -0.000309614              -0.000800672               0.001963389               0.001162717               0.000000000               0.000000000               0.000000000               0.000000000              -0.000092393               0.004898914              -0.000224693              -0.000647010               0.001848625               0.001201615               0.000000000               0.000000000               0.000000000               0.000000000               0.000171072               0.004780401              -0.000149001              -0.000533397               0.001771250               0.001237853               0.000000000               0.000000000               0.000000000               0.000000000               0.000345854               0.004733455              -0.000084301              -0.000461986               0.001731798               0.001269812               0.000000000               0.000000000               0.000000000               0.000000000               0.000440518               0.004760685              -0.000038518              -0.000429890               0.001730176               0.001300286               0.000000000               0.000000000               0.000000000               0.000000000               0.000474971               0.004859376              -0.000013279              -0.000429307               0.001762878               0.001333571               0.000000000               0.000000000               0.000000000               0.000000000               0.000466976               0.004921705              -0.000002209              -0.000440096               0.001787251               0.001347155               0.000000000               0.000000000               0.000000000               0.000000000              -0.004094073               0.002078798              -0.000086797              -0.001795124               0.001291299              -0.000503825               0.000000000               0.000000000               0.000000000               0.000000000              -0.004221334               0.003946275              -0.001052172              -0.002076280               0.002007504              -0.000068776               0.000000000               0.000000000               0.000000000               0.000000000              -0.004589442               0.005694366              -0.001784577              -0.002432831               0.002709046               0.000276215               0.000000000               0.000000000               0.000000000               0.000000000              -0.004228282               0.006248630              -0.001754164              -0.002366679               0.002871749               0.000505069               0.000000000               0.000000000               0.000000000               0.000000000              -0.003688978               0.006345811              -0.001565234              -0.002176588               0.002840778               0.000664190               0.000000000               0.000000000               0.000000000               0.000000000              -0.003116922               0.006262605              -0.001367729              -0.001951667               0.002738070               0.000786403               0.000000000               0.000000000               0.000000000               0.000000000              -0.002540743               0.006103898              -0.001186676              -0.001715762               0.002606533               0.000890771               0.000000000               0.000000000               0.000000000               0.000000000              -0.001979985               0.005902104              -0.001021205              -0.001480254               0.002460766               0.000980512               0.000000000               0.000000000               0.000000000               0.000000000              -0.001442471               0.005685638              -0.000871467              -0.001251629               0.002312403               0.001060774               0.000000000               0.000000000               0.000000000               0.000000000              -0.000944243               0.005466962              -0.000734985              -0.001037459               0.002168122               0.001130663               0.000000000               0.000000000               0.000000000               0.000000000              -0.000485200               0.005261879              -0.000604692              -0.000839683               0.002033836               0.001194153               0.000000000               0.000000000               0.000000000               0.000000000              -0.000078128               0.005084886              -0.000476901              -0.000664907               0.001916581               0.001251674               0.000000000               0.000000000               0.000000000               0.000000000               0.000261546               0.004953166              -0.000350773              -0.000521065               0.001824727               0.001303662               0.000000000               0.000000000               0.000000000               0.000000000               0.000519254               0.004873765              -0.000229327              -0.000414499               0.001762739               0.001348239               0.000000000               0.000000000               0.000000000               0.000000000               0.000690741               0.004857005              -0.000126123              -0.000348097               0.001735018               0.001386921               0.000000000               0.000000000               0.000000000               0.000000000               0.000783715               0.004907213              -0.000049400              -0.000319508               0.001742224               0.001422716               0.000000000               0.000000000               0.000000000               0.000000000               0.000802540               0.004941269              -0.000016214              -0.000316705               0.001752642               0.001435936               0.000000000               0.000000000               0.000000000               0.000000000              -0.006040677               0.000750514               0.000622417              -0.002359066               0.001036520              -0.001322546               0.000000000               0.000000000               0.000000000               0.000000000              -0.005204548               0.002615006              -0.000799229              -0.002278577               0.001631183              -0.000647394               0.000000000               0.000000000               0.000000000               0.000000000              -0.004874840               0.004305415              -0.001973128              -0.002366237               0.002223868              -0.000142369               0.000000000               0.000000000               0.000000000               0.000000000              -0.004309779               0.005094079              -0.002121978              -0.002252922               0.002448983               0.000196061               0.000000000               0.000000000               0.000000000               0.000000000              -0.003709593               0.005453805              -0.001986184              -0.002072818               0.002508856               0.000436037               0.000000000               0.000000000               0.000000000               0.000000000              -0.003118691               0.005600102              -0.001794504              -0.001869518               0.002489854               0.000620336               0.000000000               0.000000000               0.000000000               0.000000000              -0.002540888               0.005627684              -0.001603319              -0.001656290               0.002427972               0.000771682               0.000000000               0.000000000               0.000000000               0.000000000              -0.001979133               0.005588508              -0.001418485              -0.001440735               0.002343062               0.000902327               0.000000000               0.000000000               0.000000000               0.000000000              -0.001438802               0.005513379              -0.001243299              -0.001228720               0.002247348               0.001018627               0.000000000               0.000000000               0.000000000               0.000000000              -0.000925675               0.005406853              -0.001081358              -0.001022983               0.002143260               0.001120278               0.000000000               0.000000000               0.000000000               0.000000000              -0.000443810               0.005281976              -0.000928023              -0.000826674               0.002036199               0.001209525               0.000000000               0.000000000               0.000000000               0.000000000               0.000007498               0.005153182              -0.000777778              -0.000641335               0.001931488               0.001290154               0.000000000               0.000000000               0.000000000               0.000000000               0.000411848               0.005038924              -0.000622651              -0.000475421               0.001838098               0.001362677               0.000000000               0.000000000               0.000000000               0.000000000               0.000748382               0.004955140              -0.000455221              -0.000338749               0.001764613               0.001425864               0.000000000               0.000000000               0.000000000               0.000000000               0.000996771               0.004921426              -0.000287898              -0.000241388               0.001720922               0.001479533               0.000000000               0.000000000               0.000000000               0.000000000               0.001143611               0.004940602              -0.000133990              -0.000188721               0.001709758               0.001521037               0.000000000               0.000000000               0.000000000               0.000000000               0.001182793               0.004956955              -0.000060865              -0.000176072               0.001710992               0.001534921               0.000000000               0.000000000               0.000000000               0.000000000              -0.008089635              -0.000193304               0.001116051              -0.003009448               0.000938708              -0.002070740               0.000000000               0.000000000               0.000000000               0.000000000              -0.006258292               0.001434027              -0.000521971              -0.002526110               0.001320037              -0.001206073               0.000000000               0.000000000               0.000000000               0.000000000              -0.005128374               0.002861402              -0.001941384              -0.002280812               0.001714059              -0.000566753               0.000000000               0.000000000               0.000000000               0.000000000              -0.004286116               0.003759779              -0.002243119              -0.002077262               0.001945666              -0.000131596               0.000000000               0.000000000               0.000000000               0.000000000              -0.003586550               0.004317050              -0.002191099              -0.001884583               0.002067196               0.000182612               0.000000000               0.000000000               0.000000000               0.000000000              -0.002963013               0.004668521              -0.002039707              -0.001694692               0.002121055               0.000426363               0.000000000               0.000000000               0.000000000               0.000000000              -0.002386877               0.004885191              -0.001862310              -0.001505725               0.002130288               0.000624564               0.000000000               0.000000000               0.000000000               0.000000000              -0.001836417               0.005021661              -0.001680703              -0.001316361               0.002112657               0.000796296               0.000000000               0.000000000               0.000000000               0.000000000              -0.001301540               0.005099106              -0.001507606              -0.001125464               0.002074839               0.000949375               0.000000000               0.000000000               0.000000000               0.000000000              -0.000780990               0.005120873              -0.001344720              -0.000932979               0.002017933               0.001084954               0.000000000               0.000000000               0.000000000               0.000000000              -0.000278799               0.005107612              -0.001191331              -0.000743000               0.001950187               0.001207187               0.000000000               0.000000000               0.000000000               0.000000000               0.000208463               0.005073434              -0.001040226              -0.000556005               0.001876462               0.001320458               0.000000000               0.000000000               0.000000000               0.000000000               0.000664354               0.005023139              -0.000873562              -0.000378759               0.001800616               0.001421857               0.000000000               0.000000000               0.000000000               0.000000000               0.001070922               0.004975727              -0.000681153              -0.000220370               0.001732016               0.001511646               0.000000000               0.000000000               0.000000000               0.000000000               0.001406337               0.004952418              -0.000466412              -0.000091676               0.001681348               0.001589672               0.000000000               0.000000000               0.000000000               0.000000000               0.001645519               0.004964740              -0.000239240              -0.000003523               0.001656071               0.001652548               0.000000000               0.000000000               0.000000000               0.000000000               0.001742725               0.004982376              -0.000126125               0.000030724               0.001650534               0.001681258               0.000000000               0.000000000               0.000000000               0.000000000              -0.010061164              -0.000780326               0.001294483              -0.003675393               0.000965015              -0.002710378               0.000000000               0.000000000               0.000000000               0.000000000              -0.007301164               0.000473043              -0.000274886              -0.002797064               0.001090028              -0.001707036               0.000000000               0.000000000               0.000000000               0.000000000              -0.005356032               0.001507370              -0.001684394              -0.002196930               0.001234758              -0.000962173               0.000000000               0.000000000               0.000000000               0.000000000              -0.004187141               0.002396666              -0.002066903              -0.001869758               0.001422131              -0.000447627               0.000000000               0.000000000               0.000000000               0.000000000              -0.003351788               0.003073837              -0.002091231              -0.001641147               0.001571650              -0.000069497               0.000000000               0.000000000               0.000000000               0.000000000              -0.002681103               0.003583389              -0.001993807              -0.001453335               0.001678895               0.000225560               0.000000000               0.000000000               0.000000000               0.000000000              -0.002098739               0.003971408              -0.001851234              -0.001283451               0.001751606               0.000468155               0.000000000               0.000000000               0.000000000               0.000000000              -0.001555058               0.004274981              -0.001697075              -0.001117517               0.001797485               0.000679967               0.000000000               0.000000000               0.000000000               0.000000000              -0.001031449               0.004498551              -0.001548928              -0.000949111               0.001815872               0.000866761               0.000000000               0.000000000               0.000000000               0.000000000              -0.000517284               0.004653003              -0.001408482              -0.000775606               0.001809520               0.001033915               0.000000000               0.000000000               0.000000000               0.000000000              -0.000004774               0.004762692              -0.001277373              -0.000597126               0.001786590               0.001189464               0.000000000               0.000000000               0.000000000               0.000000000               0.000506791               0.004840803              -0.001146240              -0.000415053               0.001751936               0.001336882               0.000000000               0.000000000               0.000000000               0.000000000               0.001011169               0.004889473              -0.000992152              -0.000231996               0.001707140               0.001475144               0.000000000               0.000000000               0.000000000               0.000000000               0.001495900               0.004918249              -0.000802554              -0.000053819               0.001657340               0.001603520               0.000000000               0.000000000               0.000000000               0.000000000               0.001948282               0.004940240              -0.000576323               0.000113074               0.001609039               0.001722113               0.000000000               0.000000000               0.000000000               0.000000000               0.002342266               0.004967313              -0.000309895               0.000257433               0.001569944               0.001827377               0.000000000               0.000000000               0.000000000               0.000000000               0.002565119               0.005000879              -0.000175059               0.000336806               0.001554674               0.001891481               0.000000000               0.000000000               0.000000000               0.000000000              -0.011714964              -0.001087346               0.001124669              -0.004257190               0.001056607              -0.003200583               0.000000000               0.000000000               0.000000000               0.000000000              -0.008203986              -0.000225104              -0.000103652              -0.003048354               0.000941077              -0.002107277               0.000000000               0.000000000               0.000000000               0.000000000              -0.005546900               0.000397241              -0.001235095              -0.002129740               0.000842321              -0.001287420               0.000000000               0.000000000               0.000000000               0.000000000              -0.004058808               0.001204651              -0.001588709              -0.001672632               0.000959087              -0.000713545               0.000000000               0.000000000               0.000000000               0.000000000              -0.003080336               0.001935038              -0.001651581              -0.001397003               0.001110672              -0.000286331               0.000000000               0.000000000               0.000000000               0.000000000              -0.002353800               0.002551390              -0.001601977              -0.001201596               0.001250986               0.000049390               0.000000000               0.000000000               0.000000000               0.000000000              -0.001754362               0.003065311              -0.001507250              -0.001041048               0.001368775               0.000327727               0.000000000               0.000000000               0.000000000               0.000000000              -0.001210866               0.003495212              -0.001396771              -0.000890975               0.001462050               0.000571075               0.000000000               0.000000000               0.000000000               0.000000000              -0.000695991               0.003844712              -0.001287217              -0.000741584               0.001528752               0.000787168               0.000000000               0.000000000               0.000000000               0.000000000              -0.000191585               0.004122703              -0.001184473              -0.000587181               0.001569947               0.000982766               0.000000000               0.000000000               0.000000000               0.000000000               0.000320826               0.004348541              -0.001091215              -0.000423258               0.001590585               0.001167327               0.000000000               0.000000000               0.000000000               0.000000000               0.000846490               0.004536355              -0.000997736              -0.000249611               0.001595307               0.001345696               0.000000000               0.000000000               0.000000000               0.000000000               0.001389797               0.004688551              -0.000881147              -0.000064896               0.001584466               0.001519571               0.000000000               0.000000000               0.000000000               0.000000000               0.001952543               0.004803768              -0.000731602               0.000131731               0.001557330               0.001689061               0.000000000               0.000000000               0.000000000               0.000000000               0.002535000               0.004889355              -0.000541274               0.000339452               0.001516618               0.001856070               0.000000000               0.000000000               0.000000000               0.000000000               0.003128927               0.004952570              -0.000297709               0.000554271               0.001466083               0.002020354               0.000000000               0.000000000               0.000000000               0.000000000               0.003532411               0.005017350              -0.000176261               0.000697479               0.001439940               0.002137419               0.000000000               0.000000000               0.000000000               0.000000000              -0.012816220              -0.001210085               0.000652301              -0.004654819               0.001148237              -0.003506582               0.000000000               0.000000000               0.000000000               0.000000000              -0.008818795              -0.000640693              -0.000020771              -0.003226959               0.000862083              -0.002364876               0.000000000               0.000000000               0.000000000               0.000000000              -0.005676937              -0.000330819              -0.000651808              -0.002087498               0.000585555              -0.001501942               0.000000000               0.000000000               0.000000000               0.000000000              -0.003954172               0.000388938              -0.000865868              -0.001531430               0.000640118              -0.000891312               0.000000000               0.000000000               0.000000000               0.000000000              -0.002867849               0.001133828              -0.000914546              -0.001217170               0.000783660              -0.000433510               0.000000000               0.000000000               0.000000000               0.000000000              -0.002094600               0.001803724              -0.000895249              -0.001010938               0.000938214              -0.000072724               0.000000000               0.000000000               0.000000000               0.000000000              -0.001477984               0.002386504              -0.000849586              -0.000852555               0.001079678               0.000227123               0.000000000               0.000000000               0.000000000               0.000000000              -0.000934507               0.002894848              -0.000792445              -0.000712295               0.001202371               0.000490076               0.000000000               0.000000000               0.000000000               0.000000000              -0.000422718               0.003329587              -0.000732577              -0.000574716               0.001301423               0.000726707               0.000000000               0.000000000               0.000000000               0.000000000               0.000078552               0.003694031              -0.000677765              -0.000432296               0.001375430               0.000943134               0.000000000               0.000000000               0.000000000               0.000000000               0.000588336               0.004006846              -0.000629540              -0.000280230               0.001429012               0.001148782               0.000000000               0.000000000               0.000000000               0.000000000               0.001118120               0.004282649              -0.000581992              -0.000116036               0.001466214               0.001350178               0.000000000               0.000000000               0.000000000               0.000000000               0.001682921               0.004518252              -0.000522519               0.000066313               0.001483965               0.001550278               0.000000000               0.000000000               0.000000000               0.000000000               0.002299401               0.004702616              -0.000441943               0.000274445               0.001476041               0.001750487               0.000000000               0.000000000               0.000000000               0.000000000               0.002984047               0.004839947              -0.000334790               0.000514019               0.001441960               0.001955979               0.000000000               0.000000000               0.000000000               0.000000000               0.003755008               0.004935264              -0.000188487               0.000791212               0.001381334               0.002172546               0.000000000               0.000000000               0.000000000               0.000000000               0.004329702               0.005029766              -0.000114899               0.000994908               0.001344936               0.002339844               0.000000000               0.000000000               0.000000000               0.000000000               0.000000000               0.000000000               0.000000000               0.000000000               0.000000000               0.000000000               0.000000000               0.000000000               0.000000000               0.000000000               0.000000000               0.000000000               0.000000000               0.000000000               0.000000000               0.000000000               0.000000000               0.000000000               0.000000000               0.000000000               0.000000000               0.000000000               0.000000000               0.000000000               0.000000000               0.000000000               0.000000000               0.000000000               0.000000000               0.000000000               0.000000000               0.000000000               0.000000000               0.000000000               0.000000000               0.000000000               0.000000000               0.000000000               0.000000000               0.000000000               0.000000000               0.000000000               0.000000000               0.000000000               0.000000000               0.000000000               0.000000000               0.000000000               0.000000000               0.000000000               0.000000000               0.000000000               0.000000000               0.000000000               0.000000000               0.000000000               0.000000000               0.000000000               0.000000000               0.000000000               0.000000000               0.000000000               0.000000000               0.000000000               0.000000000               0.000000000               0.000000000               0.000000000               0.000000000               0.000000000               0.000000000               0.000000000               0.000000000               0.000000000               0.000000000               0.000000000               0.000000000               0.000000000               0.000000000               0.000000000               0.000000000               0.000000000               0.000000000               0.000000000               0.000000000               0.000000000               0.000000000               0.000000000               0.000000000               0.000000000               0.000000000               0.000000000               0.000000000               0.000000000               0.000000000               0.000000000               0.000000000               0.000000000               0.000000000               0.000000000               0.000000000               0.000000000               0.000000000               0.000000000               0.000000000               0.000000000               0.000000000               0.000000000               0.000000000               0.000000000               0.000000000               0.000000000               0.000000000               0.000000000               0.000000000               0.000000000               0.000000000               0.000000000               0.000000000               0.000000000               0.000000000               0.000000000               0.000000000               0.000000000               0.000000000               0.000000000               0.000000000               0.000000000               0.000000000               0.000000000               0.000000000               0.000000000               0.000000000               0.000000000               0.000000000               0.000000000               0.000000000               0.000000000               0.000000000               0.000000000               0.000000000               0.000000000               0.000000000               0.000000000               0.000000000               0.000000000               0.000000000               0.000000000               0.000000000               0.000000000               0.000000000               0.000000000               0.000000000               0.000000000               0.000000000               0.000000000               0.000000000               0.000000000               0.000000000               0.000000000               0.000000000               0.000000000               0.000000000               0.000000000               0.000000000               0.000000000               0.000000000               0.000000000               0.000000000               0.000000000               0.000000000               0.000000000               0.000000000               0.000000000               0.000000000               0.000000000               0.000000000               0.000000000               0.000000000               0.000000000               0.000000000               0.000000000               0.000000000               0.000000000               0.000000000               0.000000000               0.000000000               0.000000000               0.000000000               0.000000000               0.000000000               0.000000000               0.000000000               0.000000000               0.000000000               0.000000000               0.000000000               0.000000000               0.000000000               0.000000000               0.000000000               0.000000000               0.000000000               0.000000000               0.000000000               0.000000000               0.000000000               0.000000000               0.000000000               0.000000000               0.000000000               0.000000000               0.000000000               0.000000000               0.000000000               0.000000000               0.000000000               0.000000000               0.000000000               0.000000000               0.000000000               0.000000000               0.000000000               0.000000000               0.000000000               0.000000000               0.000000000               0.000000000               0.000000000               0.000000000               0.000000000               0.000000000               0.000000000               0.000000000               0.000000000               0.000000000               0.000000000               0.000000000               0.000000000               0.000000000               0.000000000               0.000000000               0.000000000               0.000000000               0.000000000               0.000000000               0.000000000               0.000000000               0.000000000               0.000000000               0.000000000               0.000000000               0.000000000               0.000000000               0.000000000               0.000000000               0.000000000               0.000000000               0.000000000               0.000000000               0.000000000               0.000000000               0.000000000               0.000000000               0.000000000               0.000000000               0.000000000               0.000000000               0.000000000               0.000000000               0.000000000               0.000000000               0.000000000               0.000000000               0.000000000               0.000000000               0.000000000               0.000000000               0.000000000               0.000000000               0.000000000               0.000000000               0.000000000               0.000000000               0.000000000               0.000000000               0.000000000               0.000000000               0.000000000               0.000000000               0.000000000               0.000000000               0.000000000               0.000000000               0.000000000               0.000000000               0.000000000               0.000000000               0.000000000               0.000000000               0.000000000               0.000000000               0.000000000               0.000000000               0.000000000               0.000000000               0.000000000               0.000000000               0.000000000               0.000000000               0.000000000               0.000000000               0.000000000               0.000000000               0.000000000               0.000000000               0.000000000               0.000000000               0.000000000               0.000000000               0.000000000               0.000000000               0.000000000               0.000000000               0.000000000               0.000000000               0.000000000               0.000000000               0.000000000               0.000000000               0.000000000               0.000000000               0.000000000               0.000000000               0.000000000               0.000000000               0.000000000               0.000000000               0.000000000               0.000000000               0.002018844               0.020504659               0.001380922              -0.001806012               0.007436822               0.005630810               0.000000000               0.000000000               0.000000000               0.000000000               0.001801893               0.015762974               0.000615715              -0.001294659               0.005685825               0.004391166               0.000000000               0.000000000               0.000000000               0.000000000               0.002188154               0.011929696              -0.000136110              -0.000670652               0.004200076               0.003529424               0.000000000               0.000000000               0.000000000               0.000000000               0.001938807               0.009740827              -0.000444672              -0.000490550               0.003410426               0.002919877               0.000000000               0.000000000               0.000000000               0.000000000               0.001544254               0.008341061              -0.000566772              -0.000463537               0.002934838               0.002471302               0.000000000               0.000000000               0.000000000               0.000000000               0.001158677               0.007350942              -0.000599403              -0.000484363               0.002611744               0.002127381               0.000000000               0.000000000               0.000000000               0.000000000               0.000829692               0.006579662              -0.000588629              -0.000511322               0.002363639               0.001852317               0.000000000               0.000000000               0.000000000               0.000000000               0.000567631               0.005927228              -0.000561156              -0.000528041               0.002151736               0.001623696               0.000000000               0.000000000               0.000000000               0.000000000               0.000361321               0.005339823              -0.000528792              -0.000531981               0.001957250               0.001425269               0.000000000               0.000000000               0.000000000               0.000000000               0.000199616               0.004787399              -0.000496484              -0.000523568               0.001770306               0.001246738               0.000000000               0.000000000               0.000000000               0.000000000               0.000071737               0.004247270              -0.000463672              -0.000504006               0.001583744               0.001079738               0.000000000               0.000000000               0.000000000               0.000000000              -0.000021195               0.003707735              -0.000426562              -0.000471414               0.001393037               0.000921623               0.000000000               0.000000000               0.000000000               0.000000000              -0.000079421               0.003156228              -0.000382570              -0.000424310               0.001193502               0.000769192               0.000000000               0.000000000               0.000000000               0.000000000              -0.000108662               0.002576403              -0.000326787              -0.000362798               0.000979725               0.000616927               0.000000000               0.000000000               0.000000000               0.000000000              -0.000105528               0.001954014              -0.000251025              -0.000283824               0.000745940               0.000462115               0.000000000               0.000000000               0.000000000               0.000000000              -0.000062602               0.001274728              -0.000142695              -0.000182817               0.000485844               0.000303027               0.000000000               0.000000000               0.000000000               0.000000000              -0.000084354               0.000769186              -0.000089172              -0.000127781               0.000298986               0.000171205               0.000000000               0.000000000               0.000000000               0.000000000               0.002147636               0.019218020               0.002555070              -0.001596886               0.006938238               0.005341352               0.000000000               0.000000000               0.000000000               0.000000000               0.001611702               0.014954609               0.001133734              -0.001264935               0.005406465               0.004141530               0.000000000               0.000000000               0.000000000               0.000000000               0.001659915               0.011614463              -0.000249791              -0.000829338               0.004147895               0.003318557               0.000000000               0.000000000               0.000000000               0.000000000               0.001295342               0.009673740              -0.000795262              -0.000723463               0.003465702               0.002742239               0.000000000               0.000000000               0.000000000               0.000000000               0.000886100               0.008393497              -0.000998211              -0.000716898               0.003036770               0.002319872               0.000000000               0.000000000               0.000000000               0.000000000               0.000531835               0.007458241              -0.001047993              -0.000732841               0.002730336               0.001997495               0.000000000               0.000000000               0.000000000               0.000000000               0.000257475               0.006714311              -0.001024078              -0.000742734               0.002485659               0.001742925               0.000000000               0.000000000               0.000000000               0.000000000               0.000057551               0.006072594              -0.000970604              -0.000737491               0.002270008               0.001532517               0.000000000               0.000000000               0.000000000               0.000000000              -0.000085770               0.005488140              -0.000910844              -0.000718180               0.002068755               0.001350575               0.000000000               0.000000000               0.000000000               0.000000000              -0.000179994               0.004938816              -0.000849274              -0.000684849               0.001874538               0.001189690               0.000000000               0.000000000               0.000000000               0.000000000              -0.000238465               0.004406662              -0.000785089              -0.000640256               0.001682291               0.001042035               0.000000000               0.000000000               0.000000000               0.000000000              -0.000267634               0.003881155              -0.000716739              -0.000585506               0.001488874               0.000903368               0.000000000               0.000000000               0.000000000               0.000000000              -0.000263562               0.003358141              -0.000635311              -0.000518602               0.001292236               0.000773634               0.000000000               0.000000000               0.000000000               0.000000000              -0.000232738               0.002824983              -0.000532212              -0.000440399               0.001088451               0.000648052               0.000000000               0.000000000               0.000000000               0.000000000              -0.000174185               0.002279248              -0.000397929              -0.000350225               0.000876483               0.000526259               0.000000000               0.000000000               0.000000000               0.000000000              -0.000090126               0.001727149              -0.000221072              -0.000249690               0.000658941               0.000409250               0.000000000               0.000000000               0.000000000               0.000000000              -0.000084470               0.001344410              -0.000136915              -0.000199727               0.000514708               0.000314981               0.000000000               0.000000000               0.000000000               0.000000000               0.002242373               0.017265725               0.003359650              -0.001317324               0.006194292               0.004876967               0.000000000               0.000000000               0.000000000               0.000000000               0.001268215               0.013745151               0.001488038              -0.001242561               0.004995858               0.003753297               0.000000000               0.000000000               0.000000000               0.000000000               0.000853790               0.011146158              -0.000304239              -0.001073096               0.004073048               0.002999952               0.000000000               0.000000000               0.000000000               0.000000000               0.000358363               0.009554930              -0.000967196              -0.001059978               0.003538271               0.002478293               0.000000000               0.000000000               0.000000000               0.000000000              -0.000036410               0.008437991              -0.001196437              -0.001068400               0.003168769               0.002100369               0.000000000               0.000000000               0.000000000               0.000000000              -0.000317048               0.007574260              -0.001244138              -0.001065673               0.002879952               0.001814279               0.000000000               0.000000000               0.000000000               0.000000000              -0.000500473               0.006855097              -0.001205576              -0.001044562               0.002633197               0.001588634               0.000000000               0.000000000               0.000000000               0.000000000              -0.000604375               0.006221263              -0.001132339              -0.001004296               0.002408499               0.001404202               0.000000000               0.000000000               0.000000000               0.000000000              -0.000650684               0.005644294              -0.001053819              -0.000949541               0.002197926               0.001248385               0.000000000               0.000000000               0.000000000               0.000000000              -0.000651699               0.005105320              -0.000975182              -0.000882550               0.001995940               0.001113389               0.000000000               0.000000000               0.000000000               0.000000000              -0.000617833               0.004590328              -0.000892063              -0.000805477               0.001798586               0.000993109               0.000000000               0.000000000               0.000000000               0.000000000              -0.000555712               0.004091055              -0.000804593              -0.000719772               0.001603595               0.000883823               0.000000000               0.000000000               0.000000000               0.000000000              -0.000466410               0.003605848              -0.000702909              -0.000625634               0.001410482               0.000784848               0.000000000               0.000000000               0.000000000               0.000000000              -0.000354647               0.003139929              -0.000574972              -0.000525483               0.001221793               0.000696311               0.000000000               0.000000000               0.000000000               0.000000000              -0.000229858               0.002702352              -0.000417325              -0.000423990               0.001042105               0.000618115               0.000000000               0.000000000               0.000000000               0.000000000              -0.000108121               0.002312903              -0.000225115              -0.000329657               0.000880846               0.000551188               0.000000000               0.000000000               0.000000000               0.000000000              -0.000075648               0.002075115              -0.000133032              -0.000287757               0.000787617               0.000499860               0.000000000               0.000000000               0.000000000               0.000000000               0.002168826               0.014877167               0.003726846              -0.001046336               0.005307784               0.004261448               0.000000000               0.000000000               0.000000000               0.000000000               0.000748382               0.012299061               0.001667590              -0.001256737               0.004518558               0.003261821               0.000000000               0.000000000               0.000000000               0.000000000              -0.000137681               0.010578735              -0.000269753              -0.001373969               0.003984199               0.002610230               0.000000000               0.000000000               0.000000000               0.000000000              -0.000708230               0.009365647              -0.000930982              -0.001436289               0.003600614               0.002164325               0.000000000               0.000000000               0.000000000               0.000000000              -0.001033855               0.008414675              -0.001137797              -0.001439526               0.003284705               0.001845179               0.000000000               0.000000000               0.000000000               0.000000000              -0.001196114               0.007618046              -0.001171483              -0.001400795               0.003006255               0.001605459               0.000000000               0.000000000               0.000000000               0.000000000              -0.001251487               0.006925716              -0.001125975              -0.001335019               0.002753555               0.001418536               0.000000000               0.000000000               0.000000000               0.000000000              -0.001229743               0.006310712              -0.001048774              -0.001249990               0.002520213               0.001270223               0.000000000               0.000000000               0.000000000               0.000000000              -0.001154721               0.005752132              -0.000968482              -0.001152034               0.002301369               0.001149335               0.000000000               0.000000000               0.000000000               0.000000000              -0.001044912               0.005230043              -0.000887727              -0.001045595               0.002091862               0.001046267               0.000000000               0.000000000               0.000000000               0.000000000              -0.000906535               0.004737777              -0.000803986              -0.000932171               0.001889967               0.000957796               0.000000000               0.000000000               0.000000000               0.000000000              -0.000746008               0.004274059              -0.000714727              -0.000814008               0.001696008               0.000882000               0.000000000               0.000000000               0.000000000               0.000000000              -0.000570539               0.003844575              -0.000611405              -0.000694523               0.001513020               0.000818497               0.000000000               0.000000000               0.000000000               0.000000000              -0.000390811               0.003462083              -0.000484973              -0.000579313               0.001347120               0.000767807               0.000000000               0.000000000               0.000000000               0.000000000              -0.000226802               0.003143579              -0.000334787              -0.000477997               0.001207181               0.000729185               0.000000000               0.000000000               0.000000000               0.000000000              -0.000097947               0.002907028              -0.000170879              -0.000400108               0.001102369               0.000702261               0.000000000               0.000000000               0.000000000               0.000000000              -0.000052636               0.002796310              -0.000092515              -0.000369276               0.001055186               0.000685910               0.000000000               0.000000000               0.000000000               0.000000000               0.001823885               0.012311288               0.003661137              -0.000854955               0.004388706               0.003533751               0.000000000               0.000000000               0.000000000               0.000000000               0.000057827               0.010777440               0.001693804              -0.001325493               0.004034275               0.002708782               0.000000000               0.000000000               0.000000000               0.000000000              -0.001206035               0.009951250              -0.000127887              -0.001696165               0.003882438               0.002186273               0.000000000               0.000000000               0.000000000               0.000000000              -0.001756131               0.009084096              -0.000698285              -0.001794057               0.003626021               0.001831964               0.000000000               0.000000000               0.000000000               0.000000000              -0.001945276               0.008276038              -0.000862701              -0.001763979               0.003346645               0.001582666               0.000000000               0.000000000               0.000000000               0.000000000              -0.001944970               0.007542602              -0.000890098              -0.001672185               0.003071571               0.001399386               0.000000000               0.000000000               0.000000000               0.000000000              -0.001844146               0.006891722              -0.000855648              -0.001553016               0.002814890               0.001261874               0.000000000               0.000000000               0.000000000               0.000000000              -0.001681955               0.006309037              -0.000792567              -0.001419359               0.002576111               0.001156752               0.000000000               0.000000000               0.000000000               0.000000000              -0.001482668               0.005773662              -0.000725525              -0.001277705               0.002350436               0.001072731               0.000000000               0.000000000               0.000000000               0.000000000              -0.001256962               0.005277327              -0.000658386              -0.001131024               0.002136099               0.001005075               0.000000000               0.000000000               0.000000000               0.000000000              -0.001015079               0.004817533              -0.000588475              -0.000982844               0.001933443               0.000950599               0.000000000               0.000000000               0.000000000               0.000000000              -0.000769983               0.004403235              -0.000511176              -0.000839146               0.001747446               0.000908299               0.000000000               0.000000000               0.000000000               0.000000000              -0.000536909               0.004044376              -0.000419360              -0.000706886               0.001583740               0.000876854               0.000000000               0.000000000               0.000000000               0.000000000              -0.000326988               0.003752629              -0.000310754              -0.000591698               0.001448096               0.000856399               0.000000000               0.000000000               0.000000000               0.000000000              -0.000161108               0.003538549              -0.000193260              -0.000502733               0.001347082               0.000844349               0.000000000               0.000000000               0.000000000               0.000000000              -0.000058008               0.003413717              -0.000086257              -0.000448467               0.001287383               0.000838917               0.000000000               0.000000000               0.000000000               0.000000000              -0.000023010               0.003378823              -0.000039539              -0.000430980               0.001269923               0.000838943               0.000000000               0.000000000               0.000000000               0.000000000               0.001143271               0.009793715               0.003234799              -0.000795489               0.003529701               0.002734212               0.000000000               0.000000000               0.000000000               0.000000000              -0.000772414               0.009298214               0.001619936              -0.001451929               0.003583350               0.002131420               0.000000000               0.000000000               0.000000000               0.000000000              -0.002235175               0.009289174               0.000132102              -0.001999333               0.003762805               0.001763472               0.000000000               0.000000000               0.000000000               0.000000000              -0.002645341               0.008708681              -0.000311040              -0.002080583               0.003596392               0.001515809               0.000000000               0.000000000               0.000000000               0.000000000              -0.002644197               0.008019872              -0.000444397              -0.001994053               0.003337948               0.001343895               0.000000000               0.000000000               0.000000000               0.000000000              -0.002464067               0.007354280              -0.000485164              -0.001843305               0.003065837               0.001222532               0.000000000               0.000000000               0.000000000               0.000000000              -0.002199138               0.006755590              -0.000482618              -0.001669121               0.002808214               0.001139093               0.000000000               0.000000000               0.000000000               0.000000000              -0.001894773               0.006210869              -0.000449760              -0.001486895               0.002565901               0.001079006               0.000000000               0.000000000               0.000000000               0.000000000              -0.001579718               0.005705342              -0.000413025              -0.001305559               0.002336948               0.001031389               0.000000000               0.000000000               0.000000000               0.000000000              -0.001257117               0.005244550              -0.000373404              -0.001126985               0.002123827               0.000996843               0.000000000               0.000000000               0.000000000               0.000000000              -0.000941344               0.004834710              -0.000328634              -0.000957341               0.001930668               0.000973327               0.000000000               0.000000000               0.000000000               0.000000000              -0.000646839               0.004491489              -0.000276444              -0.000803999               0.001765147               0.000961149               0.000000000               0.000000000               0.000000000               0.000000000              -0.000392008               0.004218249              -0.000212012              -0.000674282               0.001630830               0.000956547               0.000000000               0.000000000               0.000000000               0.000000000              -0.000193029               0.004019797              -0.000136077              -0.000574859               0.001531539               0.000956680               0.000000000               0.000000000               0.000000000               0.000000000              -0.000063631               0.003898681              -0.000064249              -0.000511196               0.001469946               0.000958750               0.000000000               0.000000000               0.000000000               0.000000000              -0.000007637               0.003855449              -0.000017717              -0.000484794               0.001446735               0.000961941               0.000000000               0.000000000               0.000000000               0.000000000               0.000005785               0.003862096              -0.000000976              -0.000480591               0.001447550               0.000966958               0.000000000               0.000000000               0.000000000               0.000000000               0.000153607               0.007472891               0.002561883              -0.000876508               0.002783107               0.001906599               0.000000000               0.000000000               0.000000000               0.000000000              -0.001690044               0.007945673               0.001501348              -0.001626972               0.003190855               0.001563883               0.000000000               0.000000000               0.000000000               0.000000000              -0.003118385               0.008601808               0.000498437              -0.002244615               0.003615445               0.001370831               0.000000000               0.000000000               0.000000000               0.000000000              -0.003290343               0.008238475               0.000168768              -0.002263682               0.003500692               0.001237009               0.000000000               0.000000000               0.000000000               0.000000000              -0.003067933               0.007662661               0.000033912              -0.002108302               0.003256962               0.001148660               0.000000000               0.000000000               0.000000000               0.000000000              -0.002710183               0.007084026              -0.000039213              -0.001901817               0.002995257               0.001093440               0.000000000               0.000000000               0.000000000               0.000000000              -0.002299960               0.006540323              -0.000084404              -0.001680021               0.002740093               0.001060072               0.000000000               0.000000000               0.000000000               0.000000000              -0.001870711               0.006035903              -0.000099767              -0.001456001               0.002497281               0.001041280               0.000000000               0.000000000               0.000000000               0.000000000              -0.001455510               0.005574034              -0.000104962              -0.001242568               0.002272182               0.001029615               0.000000000               0.000000000               0.000000000               0.000000000              -0.001065014               0.005166514              -0.000104059              -0.001045192               0.002070551               0.001025360               0.000000000               0.000000000               0.000000000               0.000000000              -0.000707171               0.004827634              -0.000097369              -0.000868641               0.001898742               0.001030101               0.000000000               0.000000000               0.000000000               0.000000000              -0.000399353               0.004567321              -0.000084804              -0.000720671               0.001762649               0.001041978               0.000000000               0.000000000               0.000000000               0.000000000              -0.000163361               0.004386885              -0.000058434              -0.000609619               0.001665487               0.001055867               0.000000000               0.000000000               0.000000000               0.000000000              -0.000009180               0.004288013              -0.000023265              -0.000539443               0.001609138               0.001069695               0.000000000               0.000000000               0.000000000               0.000000000               0.000063798               0.004268343               0.000005021              -0.000509618               0.001592639               0.001083022               0.000000000               0.000000000               0.000000000               0.000000000               0.000058689               0.004305094               0.000012944              -0.000516127               0.001607059               0.001090932               0.000000000               0.000000000               0.000000000               0.000000000               0.000043136               0.004351561               0.000015643              -0.000527768               0.001626428               0.001098660               0.000000000               0.000000000               0.000000000               0.000000000              -0.001018542               0.005519433               0.001752414              -0.001071881               0.002197086               0.001125205               0.000000000               0.000000000               0.000000000               0.000000000              -0.002593185               0.006741935               0.001376211              -0.001815182               0.002852350               0.001037167               0.000000000               0.000000000               0.000000000               0.000000000              -0.003813268               0.007912363               0.000940841              -0.002419015               0.003443766               0.001024751               0.000000000               0.000000000               0.000000000               0.000000000              -0.003733124               0.007779564               0.000681905              -0.002372361               0.003383949               0.001011588               0.000000000               0.000000000               0.000000000               0.000000000              -0.003320136               0.007347411               0.000516285              -0.002163472               0.003170270               0.001006798               0.000000000               0.000000000               0.000000000               0.000000000              -0.002814267               0.006871116               0.000399139              -0.001914235               0.002928428               0.001014193               0.000000000               0.000000000               0.000000000               0.000000000              -0.002289239               0.006397189               0.000303270              -0.001658109               0.002685078               0.001026969               0.000000000               0.000000000               0.000000000               0.000000000              -0.001767245               0.005940514               0.000228738              -0.001405278               0.002448578               0.001043300               0.000000000               0.000000000               0.000000000               0.000000000              -0.001275081               0.005527707               0.000173553              -0.001169116               0.002232256               0.001063140               0.000000000               0.000000000               0.000000000               0.000000000              -0.000829971               0.005169895               0.000129493              -0.000957473               0.002042439               0.001084965               0.000000000               0.000000000               0.000000000               0.000000000              -0.000445305               0.004883422               0.000089717              -0.000777415               0.001886929               0.001109514               0.000000000               0.000000000               0.000000000               0.000000000              -0.000140018               0.004676387               0.000053537              -0.000637054               0.001771131               0.001134078               0.000000000               0.000000000               0.000000000               0.000000000               0.000077633               0.004555176               0.000030900              -0.000540283               0.001698471               0.001158188               0.000000000               0.000000000               0.000000000               0.000000000               0.000202020               0.004522455               0.000019898              -0.000489548               0.001670652               0.001181104               0.000000000               0.000000000               0.000000000               0.000000000               0.000243020               0.004570468               0.000015417              -0.000480175               0.001683532               0.001203357               0.000000000               0.000000000               0.000000000               0.000000000               0.000220615               0.004674422               0.000011117              -0.000501571               0.001725315               0.001223745               0.000000000               0.000000000               0.000000000               0.000000000               0.000190279               0.004746527               0.000008973              -0.000521960               0.001756147               0.001234186               0.000000000               0.000000000               0.000000000               0.000000000              -0.002378209               0.003713791               0.000903931              -0.001356049               0.001689934               0.000333885               0.000000000               0.000000000               0.000000000               0.000000000              -0.003363040               0.005349611               0.001241378              -0.001929837               0.002426464               0.000496628               0.000000000               0.000000000               0.000000000               0.000000000              -0.004242093               0.006898331               0.001406577              -0.002453070               0.003117110               0.000664040               0.000000000               0.000000000               0.000000000               0.000000000              -0.004015738               0.007118957               0.001227953              -0.002395766               0.003171550               0.000775785               0.000000000               0.000000000               0.000000000               0.000000000              -0.003522420               0.006932396               0.001035635              -0.002187452               0.003039926               0.000852474               0.000000000               0.000000000               0.000000000               0.000000000              -0.002965035               0.006633665               0.000869844              -0.001941092               0.002858230               0.000917138               0.000000000               0.000000000               0.000000000               0.000000000              -0.002403937               0.006305148               0.000724693              -0.001689616               0.002664900               0.000975284               0.000000000               0.000000000               0.000000000               0.000000000              -0.001856379               0.005966109               0.000597693              -0.001441902               0.002469317               0.001027415               0.000000000               0.000000000               0.000000000               0.000000000              -0.001334611               0.005639489               0.000492286              -0.001205412               0.002281615               0.001076202               0.000000000               0.000000000               0.000000000               0.000000000              -0.000858684               0.005340909               0.000399826              -0.000989618               0.002110158               0.001120540               0.000000000               0.000000000               0.000000000               0.000000000              -0.000438616               0.005089547               0.000309614              -0.000800672               0.001963389               0.001162717               0.000000000               0.000000000               0.000000000               0.000000000              -0.000092393               0.004898914               0.000224693              -0.000647010               0.001848625               0.001201615               0.000000000               0.000000000               0.000000000               0.000000000               0.000171072               0.004780401               0.000149001              -0.000533397               0.001771250               0.001237853               0.000000000               0.000000000               0.000000000               0.000000000               0.000345854               0.004733455               0.000084301              -0.000461986               0.001731798               0.001269812               0.000000000               0.000000000               0.000000000               0.000000000               0.000440518               0.004760685               0.000038518              -0.000429890               0.001730176               0.001300286               0.000000000               0.000000000               0.000000000               0.000000000               0.000474971               0.004859376               0.000013279              -0.000429307               0.001762878               0.001333571               0.000000000               0.000000000               0.000000000               0.000000000               0.000466976               0.004921705               0.000002209              -0.000440096               0.001787251               0.001347155               0.000000000               0.000000000               0.000000000               0.000000000              -0.004094073               0.002078798               0.000086797              -0.001795124               0.001291299              -0.000503825               0.000000000               0.000000000               0.000000000               0.000000000              -0.004221334               0.003946275               0.001052172              -0.002076280               0.002007504              -0.000068776               0.000000000               0.000000000               0.000000000               0.000000000              -0.004589442               0.005694366               0.001784577              -0.002432831               0.002709046               0.000276215               0.000000000               0.000000000               0.000000000               0.000000000              -0.004228282               0.006248630               0.001754164              -0.002366679               0.002871749               0.000505069               0.000000000               0.000000000               0.000000000               0.000000000              -0.003688978               0.006345811               0.001565234              -0.002176588               0.002840778               0.000664190               0.000000000               0.000000000               0.000000000               0.000000000              -0.003116922               0.006262605               0.001367729              -0.001951667               0.002738070               0.000786403               0.000000000               0.000000000               0.000000000               0.000000000              -0.002540743               0.006103898               0.001186676              -0.001715762               0.002606533               0.000890771               0.000000000               0.000000000               0.000000000               0.000000000              -0.001979985               0.005902104               0.001021205              -0.001480254               0.002460766               0.000980512               0.000000000               0.000000000               0.000000000               0.000000000              -0.001442471               0.005685638               0.000871467              -0.001251629               0.002312403               0.001060774               0.000000000               0.000000000               0.000000000               0.000000000              -0.000944243               0.005466962               0.000734985              -0.001037459               0.002168122               0.001130663               0.000000000               0.000000000               0.000000000               0.000000000              -0.000485200               0.005261879               0.000604692              -0.000839683               0.002033836               0.001194153               0.000000000               0.000000000               0.000000000               0.000000000              -0.000078128               0.005084886               0.000476901              -0.000664907               0.001916581               0.001251674               0.000000000               0.000000000               0.000000000               0.000000000               0.000261546               0.004953166               0.000350773              -0.000521065               0.001824727               0.001303662               0.000000000               0.000000000               0.000000000               0.000000000               0.000519254               0.004873765               0.000229327              -0.000414499               0.001762739               0.001348239               0.000000000               0.000000000               0.000000000               0.000000000               0.000690741               0.004857005               0.000126123              -0.000348097               0.001735018               0.001386921               0.000000000               0.000000000               0.000000000               0.000000000               0.000783715               0.004907213               0.000049400              -0.000319508               0.001742224               0.001422716               0.000000000               0.000000000               0.000000000               0.000000000               0.000802540               0.004941269               0.000016214              -0.000316705               0.001752642               0.001435936               0.000000000               0.000000000               0.000000000               0.000000000              -0.006040677               0.000750514              -0.000622417              -0.002359066               0.001036520              -0.001322546               0.000000000               0.000000000               0.000000000               0.000000000              -0.005204548               0.002615006               0.000799229              -0.002278577               0.001631183              -0.000647394               0.000000000               0.000000000               0.000000000               0.000000000              -0.004874840               0.004305415               0.001973128              -0.002366237               0.002223868              -0.000142369               0.000000000               0.000000000               0.000000000               0.000000000              -0.004309779               0.005094079               0.002121978              -0.002252922               0.002448983               0.000196061               0.000000000               0.000000000               0.000000000               0.000000000              -0.003709593               0.005453805               0.001986184              -0.002072818               0.002508856               0.000436037               0.000000000               0.000000000               0.000000000               0.000000000              -0.003118691               0.005600102               0.001794504              -0.001869518               0.002489854               0.000620336               0.000000000               0.000000000               0.000000000               0.000000000              -0.002540888               0.005627684               0.001603319              -0.001656290               0.002427972               0.000771682               0.000000000               0.000000000               0.000000000               0.000000000              -0.001979133               0.005588508               0.001418485              -0.001440735               0.002343062               0.000902327               0.000000000               0.000000000               0.000000000               0.000000000              -0.001438802               0.005513379               0.001243299              -0.001228720               0.002247348               0.001018627               0.000000000               0.000000000               0.000000000               0.000000000              -0.000925675               0.005406853               0.001081358              -0.001022983               0.002143260               0.001120278               0.000000000               0.000000000               0.000000000               0.000000000              -0.000443810               0.005281976               0.000928023              -0.000826674               0.002036199               0.001209525               0.000000000               0.000000000               0.000000000               0.000000000               0.000007498               0.005153182               0.000777778              -0.000641335               0.001931488               0.001290154               0.000000000               0.000000000               0.000000000               0.000000000               0.000411848               0.005038924               0.000622651              -0.000475421               0.001838098               0.001362677               0.000000000               0.000000000               0.000000000               0.000000000               0.000748382               0.004955140               0.000455221              -0.000338749               0.001764613               0.001425864               0.000000000               0.000000000               0.000000000               0.000000000               0.000996771               0.004921426               0.000287898              -0.000241388               0.001720922               0.001479533               0.000000000               0.000000000               0.000000000               0.000000000               0.001143611               0.004940602               0.000133990              -0.000188721               0.001709758               0.001521037               0.000000000               0.000000000               0.000000000               0.000000000               0.001182793               0.004956955               0.000060865              -0.000176072               0.001710992               0.001534921               0.000000000               0.000000000               0.000000000               0.000000000              -0.008089635              -0.000193304              -0.001116051              -0.003009448               0.000938708              -0.002070740               0.000000000               0.000000000               0.000000000               0.000000000              -0.006258292               0.001434027               0.000521971              -0.002526110               0.001320037              -0.001206073               0.000000000               0.000000000               0.000000000               0.000000000              -0.005128374               0.002861402               0.001941384              -0.002280812               0.001714059              -0.000566753               0.000000000               0.000000000               0.000000000               0.000000000              -0.004286116               0.003759779               0.002243119              -0.002077262               0.001945666              -0.000131596               0.000000000               0.000000000               0.000000000               0.000000000              -0.003586550               0.004317050               0.002191099              -0.001884583               0.002067196               0.000182612               0.000000000               0.000000000               0.000000000               0.000000000              -0.002963013               0.004668521               0.002039707              -0.001694692               0.002121055               0.000426363               0.000000000               0.000000000               0.000000000               0.000000000              -0.002386877               0.004885191               0.001862310              -0.001505725               0.002130288               0.000624564               0.000000000               0.000000000               0.000000000               0.000000000              -0.001836417               0.005021661               0.001680703              -0.001316361               0.002112657               0.000796296               0.000000000               0.000000000               0.000000000               0.000000000              -0.001301540               0.005099106               0.001507606              -0.001125464               0.002074839               0.000949375               0.000000000               0.000000000               0.000000000               0.000000000              -0.000780990               0.005120873               0.001344720              -0.000932979               0.002017933               0.001084954               0.000000000               0.000000000               0.000000000               0.000000000              -0.000278799               0.005107612               0.001191331              -0.000743000               0.001950187               0.001207187               0.000000000               0.000000000               0.000000000               0.000000000               0.000208463               0.005073434               0.001040226              -0.000556005               0.001876462               0.001320458               0.000000000               0.000000000               0.000000000               0.000000000               0.000664354               0.005023139               0.000873562              -0.000378759               0.001800616               0.001421857               0.000000000               0.000000000               0.000000000               0.000000000               0.001070922               0.004975727               0.000681153              -0.000220370               0.001732016               0.001511646               0.000000000               0.000000000               0.000000000               0.000000000               0.001406337               0.004952418               0.000466412              -0.000091676               0.001681348               0.001589672               0.000000000               0.000000000               0.000000000               0.000000000               0.001645519               0.004964740               0.000239240              -0.000003523               0.001656071               0.001652548               0.000000000               0.000000000               0.000000000               0.000000000               0.001742725               0.004982376               0.000126125               0.000030724               0.001650534               0.001681258               0.000000000               0.000000000               0.000000000               0.000000000              -0.010061164              -0.000780326              -0.001294483              -0.003675393               0.000965015              -0.002710378               0.000000000               0.000000000               0.000000000               0.000000000              -0.007301164               0.000473043               0.000274886              -0.002797064               0.001090028              -0.001707036               0.000000000               0.000000000               0.000000000               0.000000000              -0.005356032               0.001507370               0.001684394              -0.002196930               0.001234758              -0.000962173               0.000000000               0.000000000               0.000000000               0.000000000              -0.004187141               0.002396666               0.002066903              -0.001869758               0.001422131              -0.000447627               0.000000000               0.000000000               0.000000000               0.000000000              -0.003351788               0.003073837               0.002091231              -0.001641147               0.001571650              -0.000069497               0.000000000               0.000000000               0.000000000               0.000000000              -0.002681103               0.003583389               0.001993807              -0.001453335               0.001678895               0.000225560               0.000000000               0.000000000               0.000000000               0.000000000              -0.002098739               0.003971408               0.001851234              -0.001283451               0.001751606               0.000468155               0.000000000               0.000000000               0.000000000               0.000000000              -0.001555058               0.004274981               0.001697075              -0.001117517               0.001797485               0.000679967               0.000000000               0.000000000               0.000000000               0.000000000              -0.001031449               0.004498551               0.001548928              -0.000949111               0.001815872               0.000866761               0.000000000               0.000000000               0.000000000               0.000000000              -0.000517284               0.004653003               0.001408482              -0.000775606               0.001809520               0.001033915               0.000000000               0.000000000               0.000000000               0.000000000              -0.000004774               0.004762692               0.001277373              -0.000597126               0.001786590               0.001189464               0.000000000               0.000000000               0.000000000               0.000000000               0.000506791               0.004840803               0.001146240              -0.000415053               0.001751936               0.001336882               0.000000000               0.000000000               0.000000000               0.000000000               0.001011169               0.004889473               0.000992152              -0.000231996               0.001707140               0.001475144               0.000000000               0.000000000               0.000000000               0.000000000               0.001495900               0.004918249               0.000802554              -0.000053819               0.001657340               0.001603520               0.000000000               0.000000000               0.000000000               0.000000000               0.001948282               0.004940240               0.000576323               0.000113074               0.001609039               0.001722113               0.000000000               0.000000000               0.000000000               0.000000000               0.002342266               0.004967313               0.000309895               0.000257433               0.001569944               0.001827377               0.000000000               0.000000000               0.000000000               0.000000000               0.002565119               0.005000879               0.000175059               0.000336806               0.001554674               0.001891481               0.000000000               0.000000000               0.000000000               0.000000000              -0.011714964              -0.001087346              -0.001124669              -0.004257190               0.001056607              -0.003200583               0.000000000               0.000000000               0.000000000               0.000000000              -0.008203986              -0.000225104               0.000103652              -0.003048354               0.000941077              -0.002107277               0.000000000               0.000000000               0.000000000               0.000000000              -0.005546900               0.000397241               0.001235095              -0.002129740               0.000842321              -0.001287420               0.000000000               0.000000000               0.000000000               0.000000000              -0.004058808               0.001204651               0.001588709              -0.001672632               0.000959087              -0.000713545               0.000000000               0.000000000               0.000000000               0.000000000              -0.003080336               0.001935038               0.001651581              -0.001397003               0.001110672              -0.000286331               0.000000000               0.000000000               0.000000000               0.000000000              -0.002353800               0.002551390               0.001601977              -0.001201596               0.001250986               0.000049390               0.000000000               0.000000000               0.000000000               0.000000000              -0.001754362               0.003065311               0.001507250              -0.001041048               0.001368775               0.000327727               0.000000000               0.000000000               0.000000000               0.000000000              -0.001210866               0.003495212               0.001396771              -0.000890975               0.001462050               0.000571075               0.000000000               0.000000000               0.000000000               0.000000000              -0.000695991               0.003844712               0.001287217              -0.000741584               0.001528752               0.000787168               0.000000000               0.000000000               0.000000000               0.000000000              -0.000191585               0.004122703               0.001184473              -0.000587181               0.001569947               0.000982766               0.000000000               0.000000000               0.000000000               0.000000000               0.000320826               0.004348541               0.001091215              -0.000423258               0.001590585               0.001167327               0.000000000               0.000000000               0.000000000               0.000000000               0.000846490               0.004536355               0.000997736              -0.000249611               0.001595307               0.001345696               0.000000000               0.000000000               0.000000000               0.000000000               0.001389797               0.004688551               0.000881147              -0.000064896               0.001584466               0.001519571               0.000000000               0.000000000               0.000000000               0.000000000               0.001952543               0.004803768               0.000731602               0.000131731               0.001557330               0.001689061               0.000000000               0.000000000               0.000000000               0.000000000               0.002535000               0.004889355               0.000541274               0.000339452               0.001516618               0.001856070               0.000000000               0.000000000               0.000000000               0.000000000               0.003128927               0.004952570               0.000297709               0.000554271               0.001466083               0.002020354               0.000000000               0.000000000               0.000000000               0.000000000               0.003532411               0.005017350               0.000176261               0.000697479               0.001439940               0.002137419               0.000000000               0.000000000               0.000000000               0.000000000              -0.012816220              -0.001210085              -0.000652301              -0.004654819               0.001148237              -0.003506582               0.000000000               0.000000000               0.000000000               0.000000000              -0.008818795              -0.000640693               0.000020771              -0.003226959               0.000862083              -0.002364876               0.000000000               0.000000000               0.000000000               0.000000000              -0.005676937              -0.000330819               0.000651808              -0.002087498               0.000585555              -0.001501942               0.000000000               0.000000000               0.000000000               0.000000000              -0.003954172               0.000388938               0.000865868              -0.001531430               0.000640118              -0.000891312               0.000000000               0.000000000               0.000000000               0.000000000              -0.002867849               0.001133828               0.000914546              -0.001217170               0.000783660              -0.000433510               0.000000000               0.000000000               0.000000000               0.000000000              -0.002094600               0.001803724               0.000895249              -0.001010938               0.000938214              -0.000072724               0.000000000               0.000000000               0.000000000               0.000000000              -0.001477984               0.002386504               0.000849586              -0.000852555               0.001079678               0.000227123               0.000000000               0.000000000               0.000000000               0.000000000              -0.000934507               0.002894848               0.000792445              -0.000712295               0.001202371               0.000490076               0.000000000               0.000000000               0.000000000               0.000000000              -0.000422718               0.003329587               0.000732577              -0.000574716               0.001301423               0.000726707               0.000000000               0.000000000               0.000000000               0.000000000               0.000078552               0.003694031               0.000677765              -0.000432296               0.001375430               0.000943134               0.000000000               0.000000000               0.000000000               0.000000000               0.000588336               0.004006846               0.000629540              -0.000280230               0.001429012               0.001148782               0.000000000               0.000000000               0.000000000               0.000000000               0.001118120               0.004282649               0.000581992              -0.000116036               0.001466214               0.001350178               0.000000000               0.000000000               0.000000000               0.000000000               0.001682921               0.004518252               0.000522519               0.000066313               0.001483965               0.001550278               0.000000000               0.000000000               0.000000000               0.000000000               0.002299401               0.004702616               0.000441943               0.000274445               0.001476041               0.001750487               0.000000000               0.000000000               0.000000000               0.000000000               0.002984047               0.004839947               0.000334790               0.000514019               0.001441960               0.001955979               0.000000000               0.000000000               0.000000000               0.000000000               0.003755008               0.004935264               0.000188487               0.000791212               0.001381334               0.002172546               0.000000000               0.000000000               0.000000000               0.000000000               0.004329702               0.005029766               0.000114899               0.000994908               0.001344936               0.002339844               0.000000000               0.000000000               0.000000000               0.000000000               0.000000000               0.000000000               0.000000000               0.000000000               0.000000000               0.000000000               0.000000000               0.000000000               0.000000000               0.000000000               0.000000000               0.000000000               0.000000000               0.000000000               0.000000000               0.000000000               0.000000000               0.000000000               0.000000000               0.000000000               0.000000000               0.000000000               0.000000000               0.000000000               0.000000000               0.000000000               0.000000000               0.000000000               0.000000000               0.000000000               0.000000000               0.000000000               0.000000000               0.000000000               0.000000000               0.000000000               0.000000000               0.000000000               0.000000000               0.000000000               0.000000000               0.000000000               0.000000000               0.000000000               0.000000000               0.000000000               0.000000000               0.000000000               0.000000000               0.000000000               0.000000000               0.000000000               0.000000000               0.000000000               0.000000000               0.000000000               0.000000000               0.000000000               0.000000000               0.000000000               0.000000000               0.000000000               0.000000000               0.000000000               0.000000000               0.000000000               0.000000000               0.000000000               0.000000000               0.000000000               0.000000000               0.000000000               0.000000000               0.000000000               0.000000000               0.000000000               0.000000000               0.000000000               0.000000000               0.000000000               0.000000000               0.000000000               0.000000000               0.000000000               0.000000000               0.000000000               0.000000000               0.000000000               0.000000000               0.000000000               0.000000000               0.000000000               0.000000000               0.000000000               0.000000000               0.000000000               0.000000000               0.000000000               0.000000000               0.000000000               0.000000000               0.000000000               0.000000000               0.000000000               0.000000000               0.000000000               0.000000000               0.000000000               0.000000000               0.000000000               0.000000000               0.000000000               0.000000000               0.000000000               0.000000000               0.000000000               0.000000000               0.000000000               0.000000000               0.000000000               0.000000000               0.000000000               0.000000000               0.000000000               0.000000000               0.000000000               0.000000000               0.000000000               0.000000000               0.000000000               0.000000000               0.000000000               0.000000000               0.000000000               0.000000000               0.000000000               0.000000000               0.000000000               0.000000000               0.000000000               0.000000000               0.000000000               0.000000000               0.000000000               0.000000000               0.000000000               0.000000000               0.000000000               0.000000000               0.000000000               0.000000000               0.000000000               0.000000000               0.000000000               0.000000000               0.000000000               0.000000000               0.000000000               0.000000000               0.000000000               0.000000000               0.000000000               0.000000000               0.000000000               0.000000000               0.000000000               0.000000000               0.000000000               0.000000000               0.000000000 </DataArray>
</PointData>
</Piece>
</UnstructuredGrid> </VTKFile>
