<?xml version="1.0"?>
<VTKFile type="UnstructuredGrid" version="0.1">
<UnstructuredGrid>
<Piece NumberOfPoints="      1156" NumberOfCells="      1024">
<Points>
<DataArray type="Float64"                                    Name="coordinates"                                                      NumberOfComponents=" 3" format="ascii">
              0.133000000               0.000000000               0.000000000               0.155937500               0.000000000               0.000000000               0.178875000               0.000000000               0.000000000               0.201812500               0.000000000               0.000000000               0.224750000               0.000000000               0.000000000               0.247687500               0.000000000               0.000000000               0.270625000               0.000000000               0.000000000               0.293562500               0.000000000               0.000000000               0.316500000               0.000000000               0.000000000               0.339437500               0.000000000               0.000000000               0.362375000               0.000000000               0.000000000               0.385312500               0.000000000               0.000000000               0.408250000               0.000000000               0.000000000               0.431187500               0.000000000               0.000000000               0.454125000               0.000000000               0.000000000               0.477062500               0.000000000               0.000000000               0.500000000               0.000000000               0.000000000               0.132359569               0.013036280               0.000000000               0.155337096               0.016127762               0.000000000               0.178314623               0.019219245               0.000000000               0.201292150               0.022310727               0.000000000               0.224269676               0.025402210               0.000000000               0.247247203               0.028493692               0.000000000               0.270224730               0.031585175               0.000000000               0.293202257               0.034676657               0.000000000               0.316179784               0.037768140               0.000000000               0.339157311               0.040859622               0.000000000               0.362134838               0.043951105               0.000000000               0.385112365               0.047042587               0.000000000               0.408089892               0.050134070               0.000000000               0.431067419               0.053225552               0.000000000               0.454044946               0.056317035               0.000000000               0.477022473               0.059408517               0.000000000               0.500000000               0.062500000               0.000000000               0.130444442               0.025947013               0.000000000               0.153541665               0.032137825               0.000000000               0.176638887               0.038328636               0.000000000               0.199736109               0.044519448               0.000000000               0.222833332               0.050710260               0.000000000               0.245930554               0.056901071               0.000000000               0.269027776               0.063091883               0.000000000               0.292124999               0.069282695               0.000000000               0.315222221               0.075473506               0.000000000               0.338319444               0.081664318               0.000000000               0.361416666               0.087855130               0.000000000               0.384513888               0.094045942               0.000000000               0.407611111               0.100236753               0.000000000               0.430708333               0.106427565               0.000000000               0.453805555               0.112618377               0.000000000               0.476902778               0.118809188               0.000000000               0.500000000               0.125000000               0.000000000               0.127273065               0.038607862               0.000000000               0.150568498               0.047913621               0.000000000               0.173863932               0.057219379               0.000000000               0.197159365               0.066525138               0.000000000               0.220454798               0.075830897               0.000000000               0.243750232               0.085136655               0.000000000               0.267045665               0.094442414               0.000000000               0.290341099               0.103748172               0.000000000               0.313636532               0.113053931               0.000000000               0.336931966               0.122359690               0.000000000               0.360227399               0.131665448               0.000000000               0.383522833               0.140971207               0.000000000               0.406818266               0.150276966               0.000000000               0.430113700               0.159582724               0.000000000               0.453409133               0.168888483               0.000000000               0.476704567               0.178194241               0.000000000               0.500000000               0.187500000               0.000000000               0.122875978               0.050896897               0.000000000               0.146446229               0.063340840               0.000000000               0.170016481               0.075784784               0.000000000               0.193586732               0.088228728               0.000000000               0.217156983               0.100672672               0.000000000               0.240727235               0.113116616               0.000000000               0.264297486               0.125560560               0.000000000               0.287867738               0.138004504               0.000000000               0.311437989               0.150448448               0.000000000               0.335008240               0.162892392               0.000000000               0.358578492               0.175336336               0.000000000               0.382148743               0.187780280               0.000000000               0.405718994               0.200224224               0.000000000               0.429289246               0.212668168               0.000000000               0.452859497               0.225112112               0.000000000               0.476429749               0.237556056               0.000000000               0.500000000               0.250000000               0.000000000               0.117295528               0.062695766               0.000000000               0.141214558               0.078308531               0.000000000               0.165133587               0.093921295               0.000000000               0.189052617               0.109534060               0.000000000               0.212971646               0.125146824               0.000000000               0.236890676               0.140759589               0.000000000               0.260809705               0.156372354               0.000000000               0.284728735               0.171985118               0.000000000               0.308647764               0.187597883               0.000000000               0.332566794               0.203210648               0.000000000               0.356485823               0.218823412               0.000000000               0.380404853               0.234436177               0.000000000               0.404323882               0.250048941               0.000000000               0.428242912               0.265661706               0.000000000               0.452161941               0.281274471               0.000000000               0.476080971               0.296887235               0.000000000               0.500000000               0.312500000               0.000000000               0.110585458               0.073890841               0.000000000               0.134923867               0.092710163               0.000000000               0.159262276               0.111529486               0.000000000               0.183600685               0.130348808               0.000000000               0.207939094               0.149168131               0.000000000               0.232277503               0.167987453               0.000000000               0.256615912               0.186806776               0.000000000               0.280954320               0.205626098               0.000000000               0.305292729               0.224445420               0.000000000               0.329631138               0.243264743               0.000000000               0.353969547               0.262084065               0.000000000               0.378307956               0.280903388               0.000000000               0.402646365               0.299722710               0.000000000               0.426984773               0.318542033               0.000000000               0.451323182               0.337361355               0.000000000               0.475661591               0.356180678               0.000000000               0.500000000               0.375000000               0.000000000               0.102810390               0.084374307               0.000000000               0.127634741               0.106444663               0.000000000               0.152459092               0.128515018               0.000000000               0.177283442               0.150585374               0.000000000               0.202107793               0.172655730               0.000000000               0.226932143               0.194726086               0.000000000               0.251756494               0.216796442               0.000000000               0.276580845               0.238866798               0.000000000               0.301405195               0.260937153               0.000000000               0.326229546               0.283007509               0.000000000               0.351053896               0.305077865               0.000000000               0.375878247               0.327148221               0.000000000               0.400702598               0.349218577               0.000000000               0.425526948               0.371288933               0.000000000               0.450351299               0.393359288               0.000000000               0.475175649               0.415429644               0.000000000               0.500000000               0.437500000               0.000000000               0.094045202               0.094045202               0.000000000               0.119417377               0.119417377               0.000000000               0.144789552               0.144789552               0.000000000               0.170161727               0.170161727               0.000000000               0.195533901               0.195533901               0.000000000               0.220906076               0.220906076               0.000000000               0.246278251               0.246278251               0.000000000               0.271650426               0.271650426               0.000000000               0.297022601               0.297022601               0.000000000               0.322394776               0.322394776               0.000000000               0.347766951               0.347766951               0.000000000               0.373139126               0.373139126               0.000000000               0.398511300               0.398511300               0.000000000               0.423883475               0.423883475               0.000000000               0.449255650               0.449255650               0.000000000               0.474627825               0.474627825               0.000000000               0.500000000               0.500000000               0.000000000               0.084374307               0.102810390               0.000000000               0.106444663               0.127634741               0.000000000               0.128515018               0.152459092               0.000000000               0.150585374               0.177283442               0.000000000               0.172655730               0.202107793               0.000000000               0.194726086               0.226932143               0.000000000               0.216796442               0.251756494               0.000000000               0.238866798               0.276580845               0.000000000               0.260937153               0.301405195               0.000000000               0.283007509               0.326229546               0.000000000               0.305077865               0.351053896               0.000000000               0.327148221               0.375878247               0.000000000               0.349218577               0.400702598               0.000000000               0.371288933               0.425526948               0.000000000               0.393359288               0.450351299               0.000000000               0.415429644               0.475175649               0.000000000               0.437500000               0.500000000               0.000000000               0.073890841               0.110585458               0.000000000               0.092710163               0.134923867               0.000000000               0.111529486               0.159262276               0.000000000               0.130348808               0.183600685               0.000000000               0.149168131               0.207939094               0.000000000               0.167987453               0.232277503               0.000000000               0.186806776               0.256615912               0.000000000               0.205626098               0.280954320               0.000000000               0.224445420               0.305292729               0.000000000               0.243264743               0.329631138               0.000000000               0.262084065               0.353969547               0.000000000               0.280903388               0.378307956               0.000000000               0.299722710               0.402646365               0.000000000               0.318542033               0.426984773               0.000000000               0.337361355               0.451323182               0.000000000               0.356180678               0.475661591               0.000000000               0.375000000               0.500000000               0.000000000               0.062695766               0.117295528               0.000000000               0.078308531               0.141214558               0.000000000               0.093921295               0.165133587               0.000000000               0.109534060               0.189052617               0.000000000               0.125146824               0.212971646               0.000000000               0.140759589               0.236890676               0.000000000               0.156372354               0.260809705               0.000000000               0.171985118               0.284728735               0.000000000               0.187597883               0.308647764               0.000000000               0.203210648               0.332566794               0.000000000               0.218823412               0.356485823               0.000000000               0.234436177               0.380404853               0.000000000               0.250048941               0.404323882               0.000000000               0.265661706               0.428242912               0.000000000               0.281274471               0.452161941               0.000000000               0.296887235               0.476080971               0.000000000               0.312500000               0.500000000               0.000000000               0.050896897               0.122875978               0.000000000               0.063340840               0.146446229               0.000000000               0.075784784               0.170016481               0.000000000               0.088228728               0.193586732               0.000000000               0.100672672               0.217156983               0.000000000               0.113116616               0.240727235               0.000000000               0.125560560               0.264297486               0.000000000               0.138004504               0.287867738               0.000000000               0.150448448               0.311437989               0.000000000               0.162892392               0.335008240               0.000000000               0.175336336               0.358578492               0.000000000               0.187780280               0.382148743               0.000000000               0.200224224               0.405718994               0.000000000               0.212668168               0.429289246               0.000000000               0.225112112               0.452859497               0.000000000               0.237556056               0.476429749               0.000000000               0.250000000               0.500000000               0.000000000               0.038607862               0.127273065               0.000000000               0.047913621               0.150568498               0.000000000               0.057219379               0.173863932               0.000000000               0.066525138               0.197159365               0.000000000               0.075830897               0.220454798               0.000000000               0.085136655               0.243750232               0.000000000               0.094442414               0.267045665               0.000000000               0.103748172               0.290341099               0.000000000               0.113053931               0.313636532               0.000000000               0.122359690               0.336931966               0.000000000               0.131665448               0.360227399               0.000000000               0.140971207               0.383522833               0.000000000               0.150276966               0.406818266               0.000000000               0.159582724               0.430113700               0.000000000               0.168888483               0.453409133               0.000000000               0.178194241               0.476704567               0.000000000               0.187500000               0.500000000               0.000000000               0.025947013               0.130444442               0.000000000               0.032137825               0.153541665               0.000000000               0.038328636               0.176638887               0.000000000               0.044519448               0.199736109               0.000000000               0.050710260               0.222833332               0.000000000               0.056901071               0.245930554               0.000000000               0.063091883               0.269027776               0.000000000               0.069282695               0.292124999               0.000000000               0.075473506               0.315222221               0.000000000               0.081664318               0.338319444               0.000000000               0.087855130               0.361416666               0.000000000               0.094045942               0.384513888               0.000000000               0.100236753               0.407611111               0.000000000               0.106427565               0.430708333               0.000000000               0.112618377               0.453805555               0.000000000               0.118809188               0.476902778               0.000000000               0.125000000               0.500000000               0.000000000               0.013036280               0.132359569               0.000000000               0.016127762               0.155337096               0.000000000               0.019219245               0.178314623               0.000000000               0.022310727               0.201292150               0.000000000               0.025402210               0.224269676               0.000000000               0.028493692               0.247247203               0.000000000               0.031585175               0.270224730               0.000000000               0.034676657               0.293202257               0.000000000               0.037768140               0.316179784               0.000000000               0.040859622               0.339157311               0.000000000               0.043951105               0.362134838               0.000000000               0.047042587               0.385112365               0.000000000               0.050134070               0.408089892               0.000000000               0.053225552               0.431067419               0.000000000               0.056317035               0.454044946               0.000000000               0.059408517               0.477022473               0.000000000               0.062500000               0.500000000               0.000000000               0.000000000               0.133000000               0.000000000               0.000000000               0.155937500               0.000000000               0.000000000               0.178875000               0.000000000               0.000000000               0.201812500               0.000000000               0.000000000               0.224750000               0.000000000               0.000000000               0.247687500               0.000000000               0.000000000               0.270625000               0.000000000               0.000000000               0.293562500               0.000000000               0.000000000               0.316500000               0.000000000               0.000000000               0.339437500               0.000000000               0.000000000               0.362375000               0.000000000               0.000000000               0.385312500               0.000000000               0.000000000               0.408250000               0.000000000               0.000000000               0.431187500               0.000000000               0.000000000               0.454125000               0.000000000               0.000000000               0.477062500               0.000000000               0.000000000               0.500000000               0.000000000               0.133000000               0.000000000               0.000000000               0.155937500               0.000000000               0.000000000               0.178875000               0.000000000               0.000000000               0.201812500               0.000000000               0.000000000               0.224750000               0.000000000               0.000000000               0.247687500               0.000000000               0.000000000               0.270625000               0.000000000               0.000000000               0.293562500               0.000000000               0.000000000               0.316500000               0.000000000               0.000000000               0.339437500               0.000000000               0.000000000               0.362375000               0.000000000               0.000000000               0.385312500               0.000000000               0.000000000               0.408250000               0.000000000               0.000000000               0.431187500               0.000000000               0.000000000               0.454125000               0.000000000               0.000000000               0.477062500               0.000000000               0.000000000               0.500000000               0.000000000               0.000000000               0.132359569              -0.013036280               0.000000000               0.155337096              -0.016127762               0.000000000               0.178314623              -0.019219245               0.000000000               0.201292150              -0.022310727               0.000000000               0.224269676              -0.025402210               0.000000000               0.247247203              -0.028493692               0.000000000               0.270224730              -0.031585175               0.000000000               0.293202257              -0.034676657               0.000000000               0.316179784              -0.037768140               0.000000000               0.339157311              -0.040859622               0.000000000               0.362134838              -0.043951105               0.000000000               0.385112365              -0.047042587               0.000000000               0.408089892              -0.050134070               0.000000000               0.431067419              -0.053225552               0.000000000               0.454044946              -0.056317035               0.000000000               0.477022473              -0.059408517               0.000000000               0.500000000              -0.062500000               0.000000000               0.130444442              -0.025947013               0.000000000               0.153541665              -0.032137825               0.000000000               0.176638887              -0.038328636               0.000000000               0.199736109              -0.044519448               0.000000000               0.222833332              -0.050710260               0.000000000               0.245930554              -0.056901071               0.000000000               0.269027776              -0.063091883               0.000000000               0.292124999              -0.069282695               0.000000000               0.315222221              -0.075473506               0.000000000               0.338319444              -0.081664318               0.000000000               0.361416666              -0.087855130               0.000000000               0.384513888              -0.094045942               0.000000000               0.407611111              -0.100236753               0.000000000               0.430708333              -0.106427565               0.000000000               0.453805555              -0.112618377               0.000000000               0.476902778              -0.118809188               0.000000000               0.500000000              -0.125000000               0.000000000               0.127273065              -0.038607862               0.000000000               0.150568498              -0.047913621               0.000000000               0.173863932              -0.057219379               0.000000000               0.197159365              -0.066525138               0.000000000               0.220454798              -0.075830897               0.000000000               0.243750232              -0.085136655               0.000000000               0.267045665              -0.094442414               0.000000000               0.290341099              -0.103748172               0.000000000               0.313636532              -0.113053931               0.000000000               0.336931966              -0.122359690               0.000000000               0.360227399              -0.131665448               0.000000000               0.383522833              -0.140971207               0.000000000               0.406818266              -0.150276966               0.000000000               0.430113700              -0.159582724               0.000000000               0.453409133              -0.168888483               0.000000000               0.476704567              -0.178194241               0.000000000               0.500000000              -0.187500000               0.000000000               0.122875978              -0.050896897               0.000000000               0.146446229              -0.063340840               0.000000000               0.170016481              -0.075784784               0.000000000               0.193586732              -0.088228728               0.000000000               0.217156983              -0.100672672               0.000000000               0.240727235              -0.113116616               0.000000000               0.264297486              -0.125560560               0.000000000               0.287867738              -0.138004504               0.000000000               0.311437989              -0.150448448               0.000000000               0.335008240              -0.162892392               0.000000000               0.358578492              -0.175336336               0.000000000               0.382148743              -0.187780280               0.000000000               0.405718994              -0.200224224               0.000000000               0.429289246              -0.212668168               0.000000000               0.452859497              -0.225112112               0.000000000               0.476429749              -0.237556056               0.000000000               0.500000000              -0.250000000               0.000000000               0.117295528              -0.062695766               0.000000000               0.141214558              -0.078308531               0.000000000               0.165133587              -0.093921295               0.000000000               0.189052617              -0.109534060               0.000000000               0.212971646              -0.125146824               0.000000000               0.236890676              -0.140759589               0.000000000               0.260809705              -0.156372354               0.000000000               0.284728735              -0.171985118               0.000000000               0.308647764              -0.187597883               0.000000000               0.332566794              -0.203210648               0.000000000               0.356485823              -0.218823412               0.000000000               0.380404853              -0.234436177               0.000000000               0.404323882              -0.250048941               0.000000000               0.428242912              -0.265661706               0.000000000               0.452161941              -0.281274471               0.000000000               0.476080971              -0.296887235               0.000000000               0.500000000              -0.312500000               0.000000000               0.110585458              -0.073890841               0.000000000               0.134923867              -0.092710163               0.000000000               0.159262276              -0.111529486               0.000000000               0.183600685              -0.130348808               0.000000000               0.207939094              -0.149168131               0.000000000               0.232277503              -0.167987453               0.000000000               0.256615912              -0.186806776               0.000000000               0.280954320              -0.205626098               0.000000000               0.305292729              -0.224445420               0.000000000               0.329631138              -0.243264743               0.000000000               0.353969547              -0.262084065               0.000000000               0.378307956              -0.280903388               0.000000000               0.402646365              -0.299722710               0.000000000               0.426984773              -0.318542033               0.000000000               0.451323182              -0.337361355               0.000000000               0.475661591              -0.356180678               0.000000000               0.500000000              -0.375000000               0.000000000               0.102810390              -0.084374307               0.000000000               0.127634741              -0.106444663               0.000000000               0.152459092              -0.128515018               0.000000000               0.177283442              -0.150585374               0.000000000               0.202107793              -0.172655730               0.000000000               0.226932143              -0.194726086               0.000000000               0.251756494              -0.216796442               0.000000000               0.276580845              -0.238866798               0.000000000               0.301405195              -0.260937153               0.000000000               0.326229546              -0.283007509               0.000000000               0.351053896              -0.305077865               0.000000000               0.375878247              -0.327148221               0.000000000               0.400702598              -0.349218577               0.000000000               0.425526948              -0.371288933               0.000000000               0.450351299              -0.393359288               0.000000000               0.475175649              -0.415429644               0.000000000               0.500000000              -0.437500000               0.000000000               0.094045202              -0.094045202               0.000000000               0.119417377              -0.119417377               0.000000000               0.144789552              -0.144789552               0.000000000               0.170161727              -0.170161727               0.000000000               0.195533901              -0.195533901               0.000000000               0.220906076              -0.220906076               0.000000000               0.246278251              -0.246278251               0.000000000               0.271650426              -0.271650426               0.000000000               0.297022601              -0.297022601               0.000000000               0.322394776              -0.322394776               0.000000000               0.347766951              -0.347766951               0.000000000               0.373139126              -0.373139126               0.000000000               0.398511300              -0.398511300               0.000000000               0.423883475              -0.423883475               0.000000000               0.449255650              -0.449255650               0.000000000               0.474627825              -0.474627825               0.000000000               0.500000000              -0.500000000               0.000000000               0.084374307              -0.102810390               0.000000000               0.106444663              -0.127634741               0.000000000               0.128515018              -0.152459092               0.000000000               0.150585374              -0.177283442               0.000000000               0.172655730              -0.202107793               0.000000000               0.194726086              -0.226932143               0.000000000               0.216796442              -0.251756494               0.000000000               0.238866798              -0.276580845               0.000000000               0.260937153              -0.301405195               0.000000000               0.283007509              -0.326229546               0.000000000               0.305077865              -0.351053896               0.000000000               0.327148221              -0.375878247               0.000000000               0.349218577              -0.400702598               0.000000000               0.371288933              -0.425526948               0.000000000               0.393359288              -0.450351299               0.000000000               0.415429644              -0.475175649               0.000000000               0.437500000              -0.500000000               0.000000000               0.073890841              -0.110585458               0.000000000               0.092710163              -0.134923867               0.000000000               0.111529486              -0.159262276               0.000000000               0.130348808              -0.183600685               0.000000000               0.149168131              -0.207939094               0.000000000               0.167987453              -0.232277503               0.000000000               0.186806776              -0.256615912               0.000000000               0.205626098              -0.280954320               0.000000000               0.224445420              -0.305292729               0.000000000               0.243264743              -0.329631138               0.000000000               0.262084065              -0.353969547               0.000000000               0.280903388              -0.378307956               0.000000000               0.299722710              -0.402646365               0.000000000               0.318542033              -0.426984773               0.000000000               0.337361355              -0.451323182               0.000000000               0.356180678              -0.475661591               0.000000000               0.375000000              -0.500000000               0.000000000               0.062695766              -0.117295528               0.000000000               0.078308531              -0.141214558               0.000000000               0.093921295              -0.165133587               0.000000000               0.109534060              -0.189052617               0.000000000               0.125146824              -0.212971646               0.000000000               0.140759589              -0.236890676               0.000000000               0.156372354              -0.260809705               0.000000000               0.171985118              -0.284728735               0.000000000               0.187597883              -0.308647764               0.000000000               0.203210648              -0.332566794               0.000000000               0.218823412              -0.356485823               0.000000000               0.234436177              -0.380404853               0.000000000               0.250048941              -0.404323882               0.000000000               0.265661706              -0.428242912               0.000000000               0.281274471              -0.452161941               0.000000000               0.296887235              -0.476080971               0.000000000               0.312500000              -0.500000000               0.000000000               0.050896897              -0.122875978               0.000000000               0.063340840              -0.146446229               0.000000000               0.075784784              -0.170016481               0.000000000               0.088228728              -0.193586732               0.000000000               0.100672672              -0.217156983               0.000000000               0.113116616              -0.240727235               0.000000000               0.125560560              -0.264297486               0.000000000               0.138004504              -0.287867738               0.000000000               0.150448448              -0.311437989               0.000000000               0.162892392              -0.335008240               0.000000000               0.175336336              -0.358578492               0.000000000               0.187780280              -0.382148743               0.000000000               0.200224224              -0.405718994               0.000000000               0.212668168              -0.429289246               0.000000000               0.225112112              -0.452859497               0.000000000               0.237556056              -0.476429749               0.000000000               0.250000000              -0.500000000               0.000000000               0.038607862              -0.127273065               0.000000000               0.047913621              -0.150568498               0.000000000               0.057219379              -0.173863932               0.000000000               0.066525138              -0.197159365               0.000000000               0.075830897              -0.220454798               0.000000000               0.085136655              -0.243750232               0.000000000               0.094442414              -0.267045665               0.000000000               0.103748172              -0.290341099               0.000000000               0.113053931              -0.313636532               0.000000000               0.122359690              -0.336931966               0.000000000               0.131665448              -0.360227399               0.000000000               0.140971207              -0.383522833               0.000000000               0.150276966              -0.406818266               0.000000000               0.159582724              -0.430113700               0.000000000               0.168888483              -0.453409133               0.000000000               0.178194241              -0.476704567               0.000000000               0.187500000              -0.500000000               0.000000000               0.025947013              -0.130444442               0.000000000               0.032137825              -0.153541665               0.000000000               0.038328636              -0.176638887               0.000000000               0.044519448              -0.199736109               0.000000000               0.050710260              -0.222833332               0.000000000               0.056901071              -0.245930554               0.000000000               0.063091883              -0.269027776               0.000000000               0.069282695              -0.292124999               0.000000000               0.075473506              -0.315222221               0.000000000               0.081664318              -0.338319444               0.000000000               0.087855130              -0.361416666               0.000000000               0.094045942              -0.384513888               0.000000000               0.100236753              -0.407611111               0.000000000               0.106427565              -0.430708333               0.000000000               0.112618377              -0.453805555               0.000000000               0.118809188              -0.476902778               0.000000000               0.125000000              -0.500000000               0.000000000               0.013036280              -0.132359569               0.000000000               0.016127762              -0.155337096               0.000000000               0.019219245              -0.178314623               0.000000000               0.022310727              -0.201292150               0.000000000               0.025402210              -0.224269676               0.000000000               0.028493692              -0.247247203               0.000000000               0.031585175              -0.270224730               0.000000000               0.034676657              -0.293202257               0.000000000               0.037768140              -0.316179784               0.000000000               0.040859622              -0.339157311               0.000000000               0.043951105              -0.362134838               0.000000000               0.047042587              -0.385112365               0.000000000               0.050134070              -0.408089892               0.000000000               0.053225552              -0.431067419               0.000000000               0.056317035              -0.454044946               0.000000000               0.059408517              -0.477022473               0.000000000               0.062500000              -0.500000000               0.000000000               0.000000000              -0.133000000               0.000000000               0.000000000              -0.155937500               0.000000000               0.000000000              -0.178875000               0.000000000               0.000000000              -0.201812500               0.000000000               0.000000000              -0.224750000               0.000000000               0.000000000              -0.247687500               0.000000000               0.000000000              -0.270625000               0.000000000               0.000000000              -0.293562500               0.000000000               0.000000000              -0.316500000               0.000000000               0.000000000              -0.339437500               0.000000000               0.000000000              -0.362375000               0.000000000               0.000000000              -0.385312500               0.000000000               0.000000000              -0.408250000               0.000000000               0.000000000              -0.431187500               0.000000000               0.000000000              -0.454125000               0.000000000               0.000000000              -0.477062500               0.000000000               0.000000000              -0.500000000               0.000000000              -0.133000000               0.000000000               0.000000000              -0.155937500               0.000000000               0.000000000              -0.178875000               0.000000000               0.000000000              -0.201812500               0.000000000               0.000000000              -0.224750000               0.000000000               0.000000000              -0.247687500               0.000000000               0.000000000              -0.270625000               0.000000000               0.000000000              -0.293562500               0.000000000               0.000000000              -0.316500000               0.000000000               0.000000000              -0.339437500               0.000000000               0.000000000              -0.362375000               0.000000000               0.000000000              -0.385312500               0.000000000               0.000000000              -0.408250000               0.000000000               0.000000000              -0.431187500               0.000000000               0.000000000              -0.454125000               0.000000000               0.000000000              -0.477062500               0.000000000               0.000000000              -0.500000000               0.000000000               0.000000000              -0.132359569              -0.013036280               0.000000000              -0.155337096              -0.016127762               0.000000000              -0.178314623              -0.019219245               0.000000000              -0.201292150              -0.022310727               0.000000000              -0.224269676              -0.025402210               0.000000000              -0.247247203              -0.028493692               0.000000000              -0.270224730              -0.031585175               0.000000000              -0.293202257              -0.034676657               0.000000000              -0.316179784              -0.037768140               0.000000000              -0.339157311              -0.040859622               0.000000000              -0.362134838              -0.043951105               0.000000000              -0.385112365              -0.047042587               0.000000000              -0.408089892              -0.050134070               0.000000000              -0.431067419              -0.053225552               0.000000000              -0.454044946              -0.056317035               0.000000000              -0.477022473              -0.059408517               0.000000000              -0.500000000              -0.062500000               0.000000000              -0.130444442              -0.025947013               0.000000000              -0.153541665              -0.032137825               0.000000000              -0.176638887              -0.038328636               0.000000000              -0.199736109              -0.044519448               0.000000000              -0.222833332              -0.050710260               0.000000000              -0.245930554              -0.056901071               0.000000000              -0.269027776              -0.063091883               0.000000000              -0.292124999              -0.069282695               0.000000000              -0.315222221              -0.075473506               0.000000000              -0.338319444              -0.081664318               0.000000000              -0.361416666              -0.087855130               0.000000000              -0.384513888              -0.094045942               0.000000000              -0.407611111              -0.100236753               0.000000000              -0.430708333              -0.106427565               0.000000000              -0.453805555              -0.112618377               0.000000000              -0.476902778              -0.118809188               0.000000000              -0.500000000              -0.125000000               0.000000000              -0.127273065              -0.038607862               0.000000000              -0.150568498              -0.047913621               0.000000000              -0.173863932              -0.057219379               0.000000000              -0.197159365              -0.066525138               0.000000000              -0.220454798              -0.075830897               0.000000000              -0.243750232              -0.085136655               0.000000000              -0.267045665              -0.094442414               0.000000000              -0.290341099              -0.103748172               0.000000000              -0.313636532              -0.113053931               0.000000000              -0.336931966              -0.122359690               0.000000000              -0.360227399              -0.131665448               0.000000000              -0.383522833              -0.140971207               0.000000000              -0.406818266              -0.150276966               0.000000000              -0.430113700              -0.159582724               0.000000000              -0.453409133              -0.168888483               0.000000000              -0.476704567              -0.178194241               0.000000000              -0.500000000              -0.187500000               0.000000000              -0.122875978              -0.050896897               0.000000000              -0.146446229              -0.063340840               0.000000000              -0.170016481              -0.075784784               0.000000000              -0.193586732              -0.088228728               0.000000000              -0.217156983              -0.100672672               0.000000000              -0.240727235              -0.113116616               0.000000000              -0.264297486              -0.125560560               0.000000000              -0.287867738              -0.138004504               0.000000000              -0.311437989              -0.150448448               0.000000000              -0.335008240              -0.162892392               0.000000000              -0.358578492              -0.175336336               0.000000000              -0.382148743              -0.187780280               0.000000000              -0.405718994              -0.200224224               0.000000000              -0.429289246              -0.212668168               0.000000000              -0.452859497              -0.225112112               0.000000000              -0.476429749              -0.237556056               0.000000000              -0.500000000              -0.250000000               0.000000000              -0.117295528              -0.062695766               0.000000000              -0.141214558              -0.078308531               0.000000000              -0.165133587              -0.093921295               0.000000000              -0.189052617              -0.109534060               0.000000000              -0.212971646              -0.125146824               0.000000000              -0.236890676              -0.140759589               0.000000000              -0.260809705              -0.156372354               0.000000000              -0.284728735              -0.171985118               0.000000000              -0.308647764              -0.187597883               0.000000000              -0.332566794              -0.203210648               0.000000000              -0.356485823              -0.218823412               0.000000000              -0.380404853              -0.234436177               0.000000000              -0.404323882              -0.250048941               0.000000000              -0.428242912              -0.265661706               0.000000000              -0.452161941              -0.281274471               0.000000000              -0.476080971              -0.296887235               0.000000000              -0.500000000              -0.312500000               0.000000000              -0.110585458              -0.073890841               0.000000000              -0.134923867              -0.092710163               0.000000000              -0.159262276              -0.111529486               0.000000000              -0.183600685              -0.130348808               0.000000000              -0.207939094              -0.149168131               0.000000000              -0.232277503              -0.167987453               0.000000000              -0.256615912              -0.186806776               0.000000000              -0.280954320              -0.205626098               0.000000000              -0.305292729              -0.224445420               0.000000000              -0.329631138              -0.243264743               0.000000000              -0.353969547              -0.262084065               0.000000000              -0.378307956              -0.280903388               0.000000000              -0.402646365              -0.299722710               0.000000000              -0.426984773              -0.318542033               0.000000000              -0.451323182              -0.337361355               0.000000000              -0.475661591              -0.356180678               0.000000000              -0.500000000              -0.375000000               0.000000000              -0.102810390              -0.084374307               0.000000000              -0.127634741              -0.106444663               0.000000000              -0.152459092              -0.128515018               0.000000000              -0.177283442              -0.150585374               0.000000000              -0.202107793              -0.172655730               0.000000000              -0.226932143              -0.194726086               0.000000000              -0.251756494              -0.216796442               0.000000000              -0.276580845              -0.238866798               0.000000000              -0.301405195              -0.260937153               0.000000000              -0.326229546              -0.283007509               0.000000000              -0.351053896              -0.305077865               0.000000000              -0.375878247              -0.327148221               0.000000000              -0.400702598              -0.349218577               0.000000000              -0.425526948              -0.371288933               0.000000000              -0.450351299              -0.393359288               0.000000000              -0.475175649              -0.415429644               0.000000000              -0.500000000              -0.437500000               0.000000000              -0.094045202              -0.094045202               0.000000000              -0.119417377              -0.119417377               0.000000000              -0.144789552              -0.144789552               0.000000000              -0.170161727              -0.170161727               0.000000000              -0.195533901              -0.195533901               0.000000000              -0.220906076              -0.220906076               0.000000000              -0.246278251              -0.246278251               0.000000000              -0.271650426              -0.271650426               0.000000000              -0.297022601              -0.297022601               0.000000000              -0.322394776              -0.322394776               0.000000000              -0.347766951              -0.347766951               0.000000000              -0.373139126              -0.373139126               0.000000000              -0.398511300              -0.398511300               0.000000000              -0.423883475              -0.423883475               0.000000000              -0.449255650              -0.449255650               0.000000000              -0.474627825              -0.474627825               0.000000000              -0.500000000              -0.500000000               0.000000000              -0.084374307              -0.102810390               0.000000000              -0.106444663              -0.127634741               0.000000000              -0.128515018              -0.152459092               0.000000000              -0.150585374              -0.177283442               0.000000000              -0.172655730              -0.202107793               0.000000000              -0.194726086              -0.226932143               0.000000000              -0.216796442              -0.251756494               0.000000000              -0.238866798              -0.276580845               0.000000000              -0.260937153              -0.301405195               0.000000000              -0.283007509              -0.326229546               0.000000000              -0.305077865              -0.351053896               0.000000000              -0.327148221              -0.375878247               0.000000000              -0.349218577              -0.400702598               0.000000000              -0.371288933              -0.425526948               0.000000000              -0.393359288              -0.450351299               0.000000000              -0.415429644              -0.475175649               0.000000000              -0.437500000              -0.500000000               0.000000000              -0.073890841              -0.110585458               0.000000000              -0.092710163              -0.134923867               0.000000000              -0.111529486              -0.159262276               0.000000000              -0.130348808              -0.183600685               0.000000000              -0.149168131              -0.207939094               0.000000000              -0.167987453              -0.232277503               0.000000000              -0.186806776              -0.256615912               0.000000000              -0.205626098              -0.280954320               0.000000000              -0.224445420              -0.305292729               0.000000000              -0.243264743              -0.329631138               0.000000000              -0.262084065              -0.353969547               0.000000000              -0.280903388              -0.378307956               0.000000000              -0.299722710              -0.402646365               0.000000000              -0.318542033              -0.426984773               0.000000000              -0.337361355              -0.451323182               0.000000000              -0.356180678              -0.475661591               0.000000000              -0.375000000              -0.500000000               0.000000000              -0.062695766              -0.117295528               0.000000000              -0.078308531              -0.141214558               0.000000000              -0.093921295              -0.165133587               0.000000000              -0.109534060              -0.189052617               0.000000000              -0.125146824              -0.212971646               0.000000000              -0.140759589              -0.236890676               0.000000000              -0.156372354              -0.260809705               0.000000000              -0.171985118              -0.284728735               0.000000000              -0.187597883              -0.308647764               0.000000000              -0.203210648              -0.332566794               0.000000000              -0.218823412              -0.356485823               0.000000000              -0.234436177              -0.380404853               0.000000000              -0.250048941              -0.404323882               0.000000000              -0.265661706              -0.428242912               0.000000000              -0.281274471              -0.452161941               0.000000000              -0.296887235              -0.476080971               0.000000000              -0.312500000              -0.500000000               0.000000000              -0.050896897              -0.122875978               0.000000000              -0.063340840              -0.146446229               0.000000000              -0.075784784              -0.170016481               0.000000000              -0.088228728              -0.193586732               0.000000000              -0.100672672              -0.217156983               0.000000000              -0.113116616              -0.240727235               0.000000000              -0.125560560              -0.264297486               0.000000000              -0.138004504              -0.287867738               0.000000000              -0.150448448              -0.311437989               0.000000000              -0.162892392              -0.335008240               0.000000000              -0.175336336              -0.358578492               0.000000000              -0.187780280              -0.382148743               0.000000000              -0.200224224              -0.405718994               0.000000000              -0.212668168              -0.429289246               0.000000000              -0.225112112              -0.452859497               0.000000000              -0.237556056              -0.476429749               0.000000000              -0.250000000              -0.500000000               0.000000000              -0.038607862              -0.127273065               0.000000000              -0.047913621              -0.150568498               0.000000000              -0.057219379              -0.173863932               0.000000000              -0.066525138              -0.197159365               0.000000000              -0.075830897              -0.220454798               0.000000000              -0.085136655              -0.243750232               0.000000000              -0.094442414              -0.267045665               0.000000000              -0.103748172              -0.290341099               0.000000000              -0.113053931              -0.313636532               0.000000000              -0.122359690              -0.336931966               0.000000000              -0.131665448              -0.360227399               0.000000000              -0.140971207              -0.383522833               0.000000000              -0.150276966              -0.406818266               0.000000000              -0.159582724              -0.430113700               0.000000000              -0.168888483              -0.453409133               0.000000000              -0.178194241              -0.476704567               0.000000000              -0.187500000              -0.500000000               0.000000000              -0.025947013              -0.130444442               0.000000000              -0.032137825              -0.153541665               0.000000000              -0.038328636              -0.176638887               0.000000000              -0.044519448              -0.199736109               0.000000000              -0.050710260              -0.222833332               0.000000000              -0.056901071              -0.245930554               0.000000000              -0.063091883              -0.269027776               0.000000000              -0.069282695              -0.292124999               0.000000000              -0.075473506              -0.315222221               0.000000000              -0.081664318              -0.338319444               0.000000000              -0.087855130              -0.361416666               0.000000000              -0.094045942              -0.384513888               0.000000000              -0.100236753              -0.407611111               0.000000000              -0.106427565              -0.430708333               0.000000000              -0.112618377              -0.453805555               0.000000000              -0.118809188              -0.476902778               0.000000000              -0.125000000              -0.500000000               0.000000000              -0.013036280              -0.132359569               0.000000000              -0.016127762              -0.155337096               0.000000000              -0.019219245              -0.178314623               0.000000000              -0.022310727              -0.201292150               0.000000000              -0.025402210              -0.224269676               0.000000000              -0.028493692              -0.247247203               0.000000000              -0.031585175              -0.270224730               0.000000000              -0.034676657              -0.293202257               0.000000000              -0.037768140              -0.316179784               0.000000000              -0.040859622              -0.339157311               0.000000000              -0.043951105              -0.362134838               0.000000000              -0.047042587              -0.385112365               0.000000000              -0.050134070              -0.408089892               0.000000000              -0.053225552              -0.431067419               0.000000000              -0.056317035              -0.454044946               0.000000000              -0.059408517              -0.477022473               0.000000000              -0.062500000              -0.500000000               0.000000000               0.000000000              -0.133000000               0.000000000               0.000000000              -0.155937500               0.000000000               0.000000000              -0.178875000               0.000000000               0.000000000              -0.201812500               0.000000000               0.000000000              -0.224750000               0.000000000               0.000000000              -0.247687500               0.000000000               0.000000000              -0.270625000               0.000000000               0.000000000              -0.293562500               0.000000000               0.000000000              -0.316500000               0.000000000               0.000000000              -0.339437500               0.000000000               0.000000000              -0.362375000               0.000000000               0.000000000              -0.385312500               0.000000000               0.000000000              -0.408250000               0.000000000               0.000000000              -0.431187500               0.000000000               0.000000000              -0.454125000               0.000000000               0.000000000              -0.477062500               0.000000000               0.000000000              -0.500000000               0.000000000              -0.133000000               0.000000000               0.000000000              -0.155937500               0.000000000               0.000000000              -0.178875000               0.000000000               0.000000000              -0.201812500               0.000000000               0.000000000              -0.224750000               0.000000000               0.000000000              -0.247687500               0.000000000               0.000000000              -0.270625000               0.000000000               0.000000000              -0.293562500               0.000000000               0.000000000              -0.316500000               0.000000000               0.000000000              -0.339437500               0.000000000               0.000000000              -0.362375000               0.000000000               0.000000000              -0.385312500               0.000000000               0.000000000              -0.408250000               0.000000000               0.000000000              -0.431187500               0.000000000               0.000000000              -0.454125000               0.000000000               0.000000000              -0.477062500               0.000000000               0.000000000              -0.500000000               0.000000000               0.000000000              -0.132359569               0.013036280               0.000000000              -0.155337096               0.016127762               0.000000000              -0.178314623               0.019219245               0.000000000              -0.201292150               0.022310727               0.000000000              -0.224269676               0.025402210               0.000000000              -0.247247203               0.028493692               0.000000000              -0.270224730               0.031585175               0.000000000              -0.293202257               0.034676657               0.000000000              -0.316179784               0.037768140               0.000000000              -0.339157311               0.040859622               0.000000000              -0.362134838               0.043951105               0.000000000              -0.385112365               0.047042587               0.000000000              -0.408089892               0.050134070               0.000000000              -0.431067419               0.053225552               0.000000000              -0.454044946               0.056317035               0.000000000              -0.477022473               0.059408517               0.000000000              -0.500000000               0.062500000               0.000000000              -0.130444442               0.025947013               0.000000000              -0.153541665               0.032137825               0.000000000              -0.176638887               0.038328636               0.000000000              -0.199736109               0.044519448               0.000000000              -0.222833332               0.050710260               0.000000000              -0.245930554               0.056901071               0.000000000              -0.269027776               0.063091883               0.000000000              -0.292124999               0.069282695               0.000000000              -0.315222221               0.075473506               0.000000000              -0.338319444               0.081664318               0.000000000              -0.361416666               0.087855130               0.000000000              -0.384513888               0.094045942               0.000000000              -0.407611111               0.100236753               0.000000000              -0.430708333               0.106427565               0.000000000              -0.453805555               0.112618377               0.000000000              -0.476902778               0.118809188               0.000000000              -0.500000000               0.125000000               0.000000000              -0.127273065               0.038607862               0.000000000              -0.150568498               0.047913621               0.000000000              -0.173863932               0.057219379               0.000000000              -0.197159365               0.066525138               0.000000000              -0.220454798               0.075830897               0.000000000              -0.243750232               0.085136655               0.000000000              -0.267045665               0.094442414               0.000000000              -0.290341099               0.103748172               0.000000000              -0.313636532               0.113053931               0.000000000              -0.336931966               0.122359690               0.000000000              -0.360227399               0.131665448               0.000000000              -0.383522833               0.140971207               0.000000000              -0.406818266               0.150276966               0.000000000              -0.430113700               0.159582724               0.000000000              -0.453409133               0.168888483               0.000000000              -0.476704567               0.178194241               0.000000000              -0.500000000               0.187500000               0.000000000              -0.122875978               0.050896897               0.000000000              -0.146446229               0.063340840               0.000000000              -0.170016481               0.075784784               0.000000000              -0.193586732               0.088228728               0.000000000              -0.217156983               0.100672672               0.000000000              -0.240727235               0.113116616               0.000000000              -0.264297486               0.125560560               0.000000000              -0.287867738               0.138004504               0.000000000              -0.311437989               0.150448448               0.000000000              -0.335008240               0.162892392               0.000000000              -0.358578492               0.175336336               0.000000000              -0.382148743               0.187780280               0.000000000              -0.405718994               0.200224224               0.000000000              -0.429289246               0.212668168               0.000000000              -0.452859497               0.225112112               0.000000000              -0.476429749               0.237556056               0.000000000              -0.500000000               0.250000000               0.000000000              -0.117295528               0.062695766               0.000000000              -0.141214558               0.078308531               0.000000000              -0.165133587               0.093921295               0.000000000              -0.189052617               0.109534060               0.000000000              -0.212971646               0.125146824               0.000000000              -0.236890676               0.140759589               0.000000000              -0.260809705               0.156372354               0.000000000              -0.284728735               0.171985118               0.000000000              -0.308647764               0.187597883               0.000000000              -0.332566794               0.203210648               0.000000000              -0.356485823               0.218823412               0.000000000              -0.380404853               0.234436177               0.000000000              -0.404323882               0.250048941               0.000000000              -0.428242912               0.265661706               0.000000000              -0.452161941               0.281274471               0.000000000              -0.476080971               0.296887235               0.000000000              -0.500000000               0.312500000               0.000000000              -0.110585458               0.073890841               0.000000000              -0.134923867               0.092710163               0.000000000              -0.159262276               0.111529486               0.000000000              -0.183600685               0.130348808               0.000000000              -0.207939094               0.149168131               0.000000000              -0.232277503               0.167987453               0.000000000              -0.256615912               0.186806776               0.000000000              -0.280954320               0.205626098               0.000000000              -0.305292729               0.224445420               0.000000000              -0.329631138               0.243264743               0.000000000              -0.353969547               0.262084065               0.000000000              -0.378307956               0.280903388               0.000000000              -0.402646365               0.299722710               0.000000000              -0.426984773               0.318542033               0.000000000              -0.451323182               0.337361355               0.000000000              -0.475661591               0.356180678               0.000000000              -0.500000000               0.375000000               0.000000000              -0.102810390               0.084374307               0.000000000              -0.127634741               0.106444663               0.000000000              -0.152459092               0.128515018               0.000000000              -0.177283442               0.150585374               0.000000000              -0.202107793               0.172655730               0.000000000              -0.226932143               0.194726086               0.000000000              -0.251756494               0.216796442               0.000000000              -0.276580845               0.238866798               0.000000000              -0.301405195               0.260937153               0.000000000              -0.326229546               0.283007509               0.000000000              -0.351053896               0.305077865               0.000000000              -0.375878247               0.327148221               0.000000000              -0.400702598               0.349218577               0.000000000              -0.425526948               0.371288933               0.000000000              -0.450351299               0.393359288               0.000000000              -0.475175649               0.415429644               0.000000000              -0.500000000               0.437500000               0.000000000              -0.094045202               0.094045202               0.000000000              -0.119417377               0.119417377               0.000000000              -0.144789552               0.144789552               0.000000000              -0.170161727               0.170161727               0.000000000              -0.195533901               0.195533901               0.000000000              -0.220906076               0.220906076               0.000000000              -0.246278251               0.246278251               0.000000000              -0.271650426               0.271650426               0.000000000              -0.297022601               0.297022601               0.000000000              -0.322394776               0.322394776               0.000000000              -0.347766951               0.347766951               0.000000000              -0.373139126               0.373139126               0.000000000              -0.398511300               0.398511300               0.000000000              -0.423883475               0.423883475               0.000000000              -0.449255650               0.449255650               0.000000000              -0.474627825               0.474627825               0.000000000              -0.500000000               0.500000000               0.000000000              -0.084374307               0.102810390               0.000000000              -0.106444663               0.127634741               0.000000000              -0.128515018               0.152459092               0.000000000              -0.150585374               0.177283442               0.000000000              -0.172655730               0.202107793               0.000000000              -0.194726086               0.226932143               0.000000000              -0.216796442               0.251756494               0.000000000              -0.238866798               0.276580845               0.000000000              -0.260937153               0.301405195               0.000000000              -0.283007509               0.326229546               0.000000000              -0.305077865               0.351053896               0.000000000              -0.327148221               0.375878247               0.000000000              -0.349218577               0.400702598               0.000000000              -0.371288933               0.425526948               0.000000000              -0.393359288               0.450351299               0.000000000              -0.415429644               0.475175649               0.000000000              -0.437500000               0.500000000               0.000000000              -0.073890841               0.110585458               0.000000000              -0.092710163               0.134923867               0.000000000              -0.111529486               0.159262276               0.000000000              -0.130348808               0.183600685               0.000000000              -0.149168131               0.207939094               0.000000000              -0.167987453               0.232277503               0.000000000              -0.186806776               0.256615912               0.000000000              -0.205626098               0.280954320               0.000000000              -0.224445420               0.305292729               0.000000000              -0.243264743               0.329631138               0.000000000              -0.262084065               0.353969547               0.000000000              -0.280903388               0.378307956               0.000000000              -0.299722710               0.402646365               0.000000000              -0.318542033               0.426984773               0.000000000              -0.337361355               0.451323182               0.000000000              -0.356180678               0.475661591               0.000000000              -0.375000000               0.500000000               0.000000000              -0.062695766               0.117295528               0.000000000              -0.078308531               0.141214558               0.000000000              -0.093921295               0.165133587               0.000000000              -0.109534060               0.189052617               0.000000000              -0.125146824               0.212971646               0.000000000              -0.140759589               0.236890676               0.000000000              -0.156372354               0.260809705               0.000000000              -0.171985118               0.284728735               0.000000000              -0.187597883               0.308647764               0.000000000              -0.203210648               0.332566794               0.000000000              -0.218823412               0.356485823               0.000000000              -0.234436177               0.380404853               0.000000000              -0.250048941               0.404323882               0.000000000              -0.265661706               0.428242912               0.000000000              -0.281274471               0.452161941               0.000000000              -0.296887235               0.476080971               0.000000000              -0.312500000               0.500000000               0.000000000              -0.050896897               0.122875978               0.000000000              -0.063340840               0.146446229               0.000000000              -0.075784784               0.170016481               0.000000000              -0.088228728               0.193586732               0.000000000              -0.100672672               0.217156983               0.000000000              -0.113116616               0.240727235               0.000000000              -0.125560560               0.264297486               0.000000000              -0.138004504               0.287867738               0.000000000              -0.150448448               0.311437989               0.000000000              -0.162892392               0.335008240               0.000000000              -0.175336336               0.358578492               0.000000000              -0.187780280               0.382148743               0.000000000              -0.200224224               0.405718994               0.000000000              -0.212668168               0.429289246               0.000000000              -0.225112112               0.452859497               0.000000000              -0.237556056               0.476429749               0.000000000              -0.250000000               0.500000000               0.000000000              -0.038607862               0.127273065               0.000000000              -0.047913621               0.150568498               0.000000000              -0.057219379               0.173863932               0.000000000              -0.066525138               0.197159365               0.000000000              -0.075830897               0.220454798               0.000000000              -0.085136655               0.243750232               0.000000000              -0.094442414               0.267045665               0.000000000              -0.103748172               0.290341099               0.000000000              -0.113053931               0.313636532               0.000000000              -0.122359690               0.336931966               0.000000000              -0.131665448               0.360227399               0.000000000              -0.140971207               0.383522833               0.000000000              -0.150276966               0.406818266               0.000000000              -0.159582724               0.430113700               0.000000000              -0.168888483               0.453409133               0.000000000              -0.178194241               0.476704567               0.000000000              -0.187500000               0.500000000               0.000000000              -0.025947013               0.130444442               0.000000000              -0.032137825               0.153541665               0.000000000              -0.038328636               0.176638887               0.000000000              -0.044519448               0.199736109               0.000000000              -0.050710260               0.222833332               0.000000000              -0.056901071               0.245930554               0.000000000              -0.063091883               0.269027776               0.000000000              -0.069282695               0.292124999               0.000000000              -0.075473506               0.315222221               0.000000000              -0.081664318               0.338319444               0.000000000              -0.087855130               0.361416666               0.000000000              -0.094045942               0.384513888               0.000000000              -0.100236753               0.407611111               0.000000000              -0.106427565               0.430708333               0.000000000              -0.112618377               0.453805555               0.000000000              -0.118809188               0.476902778               0.000000000              -0.125000000               0.500000000               0.000000000              -0.013036280               0.132359569               0.000000000              -0.016127762               0.155337096               0.000000000              -0.019219245               0.178314623               0.000000000              -0.022310727               0.201292150               0.000000000              -0.025402210               0.224269676               0.000000000              -0.028493692               0.247247203               0.000000000              -0.031585175               0.270224730               0.000000000              -0.034676657               0.293202257               0.000000000              -0.037768140               0.316179784               0.000000000              -0.040859622               0.339157311               0.000000000              -0.043951105               0.362134838               0.000000000              -0.047042587               0.385112365               0.000000000              -0.050134070               0.408089892               0.000000000              -0.053225552               0.431067419               0.000000000              -0.056317035               0.454044946               0.000000000              -0.059408517               0.477022473               0.000000000              -0.062500000               0.500000000               0.000000000               0.000000000               0.133000000               0.000000000               0.000000000               0.155937500               0.000000000               0.000000000               0.178875000               0.000000000               0.000000000               0.201812500               0.000000000               0.000000000               0.224750000               0.000000000               0.000000000               0.247687500               0.000000000               0.000000000               0.270625000               0.000000000               0.000000000               0.293562500               0.000000000               0.000000000               0.316500000               0.000000000               0.000000000               0.339437500               0.000000000               0.000000000               0.362375000               0.000000000               0.000000000               0.385312500               0.000000000               0.000000000               0.408250000               0.000000000               0.000000000               0.431187500               0.000000000               0.000000000               0.454125000               0.000000000               0.000000000               0.477062500               0.000000000               0.000000000               0.500000000               0.000000000 </DataArray>
</Points>
<Cells>
<DataArray type="Int32"                                    Name="connectivity"                                                      NumberOfComponents=" 1" format="ascii">
         0          1         18         17          1          2         19         18          2          3         20         19          3          4         21         20          4          5         22         21          5          6         23         22          6          7         24         23          7          8         25         24          8          9         26         25          9         10         27         26         10         11         28         27         11         12         29         28         12         13         30         29         13         14         31         30         14         15         32         31         15         16         33         32         17         18         35         34         18         19         36         35         19         20         37         36         20         21         38         37         21         22         39         38         22         23         40         39         23         24         41         40         24         25         42         41         25         26         43         42         26         27         44         43         27         28         45         44         28         29         46         45         29         30         47         46         30         31         48         47         31         32         49         48         32         33         50         49         34         35         52         51         35         36         53         52         36         37         54         53         37         38         55         54         38         39         56         55         39         40         57         56         40         41         58         57         41         42         59         58         42         43         60         59         43         44         61         60         44         45         62         61         45         46         63         62         46         47         64         63         47         48         65         64         48         49         66         65         49         50         67         66         51         52         69         68         52         53         70         69         53         54         71         70         54         55         72         71         55         56         73         72         56         57         74         73         57         58         75         74         58         59         76         75         59         60         77         76         60         61         78         77         61         62         79         78         62         63         80         79         63         64         81         80         64         65         82         81         65         66         83         82         66         67         84         83         68         69         86         85         69         70         87         86         70         71         88         87         71         72         89         88         72         73         90         89         73         74         91         90         74         75         92         91         75         76         93         92         76         77         94         93         77         78         95         94         78         79         96         95         79         80         97         96         80         81         98         97         81         82         99         98         82         83        100         99         83         84        101        100         85         86        103        102         86         87        104        103         87         88        105        104         88         89        106        105         89         90        107        106         90         91        108        107         91         92        109        108         92         93        110        109         93         94        111        110         94         95        112        111         95         96        113        112         96         97        114        113         97         98        115        114         98         99        116        115         99        100        117        116        100        101        118        117        102        103        120        119        103        104        121        120        104        105        122        121        105        106        123        122        106        107        124        123        107        108        125        124        108        109        126        125        109        110        127        126        110        111        128        127        111        112        129        128        112        113        130        129        113        114        131        130        114        115        132        131        115        116        133        132        116        117        134        133        117        118        135        134        119        120        137        136        120        121        138        137        121        122        139        138        122        123        140        139        123        124        141        140        124        125        142        141        125        126        143        142        126        127        144        143        127        128        145        144        128        129        146        145        129        130        147        146        130        131        148        147        131        132        149        148        132        133        150        149        133        134        151        150        134        135        152        151        136        137        154        153        137        138        155        154        138        139        156        155        139        140        157        156        140        141        158        157        141        142        159        158        142        143        160        159        143        144        161        160        144        145        162        161        145        146        163        162        146        147        164        163        147        148        165        164        148        149        166        165        149        150        167        166        150        151        168        167        151        152        169        168        153        154        171        170        154        155        172        171        155        156        173        172        156        157        174        173        157        158        175        174        158        159        176        175        159        160        177        176        160        161        178        177        161        162        179        178        162        163        180        179        163        164        181        180        164        165        182        181        165        166        183        182        166        167        184        183        167        168        185        184        168        169        186        185        170        171        188        187        171        172        189        188        172        173        190        189        173        174        191        190        174        175        192        191        175        176        193        192        176        177        194        193        177        178        195        194        178        179        196        195        179        180        197        196        180        181        198        197        181        182        199        198        182        183        200        199        183        184        201        200        184        185        202        201        185        186        203        202        187        188        205        204        188        189        206        205        189        190        207        206        190        191        208        207        191        192        209        208        192        193        210        209        193        194        211        210        194        195        212        211        195        196        213        212        196        197        214        213        197        198        215        214        198        199        216        215        199        200        217        216        200        201        218        217        201        202        219        218        202        203        220        219        204        205        222        221        205        206        223        222        206        207        224        223        207        208        225        224        208        209        226        225        209        210        227        226        210        211        228        227        211        212        229        228        212        213        230        229        213        214        231        230        214        215        232        231        215        216        233        232        216        217        234        233        217        218        235        234        218        219        236        235        219        220        237        236        221        222        239        238        222        223        240        239        223        224        241        240        224        225        242        241        225        226        243        242        226        227        244        243        227        228        245        244        228        229        246        245        229        230        247        246        230        231        248        247        231        232        249        248        232        233        250        249        233        234        251        250        234        235        252        251        235        236        253        252        236        237        254        253        238        239        256        255        239        240        257        256        240        241        258        257        241        242        259        258        242        243        260        259        243        244        261        260        244        245        262        261        245        246        263        262        246        247        264        263        247        248        265        264        248        249        266        265        249        250        267        266        250        251        268        267        251        252        269        268        252        253        270        269        253        254        271        270        255        256        273        272        256        257        274        273        257        258        275        274        258        259        276        275        259        260        277        276        260        261        278        277        261        262        279        278        262        263        280        279        263        264        281        280        264        265        282        281        265        266        283        282        266        267        284        283        267        268        285        284        268        269        286        285        269        270        287        286        270        271        288        287        306        307          1          0        307        308          2          1        308        309          3          2        309        310          4          3        310        311          5          4        311        312          6          5        312        313          7          6        313        314          8          7        314        315          9          8        315        316         10          9        316        317         11         10        317        318         12         11        318        319         13         12        319        320         14         13        320        321         15         14        321        322         16         15        323        324        307        306        324        325        308        307        325        326        309        308        326        327        310        309        327        328        311        310        328        329        312        311        329        330        313        312        330        331        314        313        331        332        315        314        332        333        316        315        333        334        317        316        334        335        318        317        335        336        319        318        336        337        320        319        337        338        321        320        338        339        322        321        340        341        324        323        341        342        325        324        342        343        326        325        343        344        327        326        344        345        328        327        345        346        329        328        346        347        330        329        347        348        331        330        348        349        332        331        349        350        333        332        350        351        334        333        351        352        335        334        352        353        336        335        353        354        337        336        354        355        338        337        355        356        339        338        357        358        341        340        358        359        342        341        359        360        343        342        360        361        344        343        361        362        345        344        362        363        346        345        363        364        347        346        364        365        348        347        365        366        349        348        366        367        350        349        367        368        351        350        368        369        352        351        369        370        353        352        370        371        354        353        371        372        355        354        372        373        356        355        374        375        358        357        375        376        359        358        376        377        360        359        377        378        361        360        378        379        362        361        379        380        363        362        380        381        364        363        381        382        365        364        382        383        366        365        383        384        367        366        384        385        368        367        385        386        369        368        386        387        370        369        387        388        371        370        388        389        372        371        389        390        373        372        391        392        375        374        392        393        376        375        393        394        377        376        394        395        378        377        395        396        379        378        396        397        380        379        397        398        381        380        398        399        382        381        399        400        383        382        400        401        384        383        401        402        385        384        402        403        386        385        403        404        387        386        404        405        388        387        405        406        389        388        406        407        390        389        408        409        392        391        409        410        393        392        410        411        394        393        411        412        395        394        412        413        396        395        413        414        397        396        414        415        398        397        415        416        399        398        416        417        400        399        417        418        401        400        418        419        402        401        419        420        403        402        420        421        404        403        421        422        405        404        422        423        406        405        423        424        407        406        425        426        409        408        426        427        410        409        427        428        411        410        428        429        412        411        429        430        413        412        430        431        414        413        431        432        415        414        432        433        416        415        433        434        417        416        434        435        418        417        435        436        419        418        436        437        420        419        437        438        421        420        438        439        422        421        439        440        423        422        440        441        424        423        442        443        426        425        443        444        427        426        444        445        428        427        445        446        429        428        446        447        430        429        447        448        431        430        448        449        432        431        449        450        433        432        450        451        434        433        451        452        435        434        452        453        436        435        453        454        437        436        454        455        438        437        455        456        439        438        456        457        440        439        457        458        441        440        459        460        443        442        460        461        444        443        461        462        445        444        462        463        446        445        463        464        447        446        464        465        448        447        465        466        449        448        466        467        450        449        467        468        451        450        468        469        452        451        469        470        453        452        470        471        454        453        471        472        455        454        472        473        456        455        473        474        457        456        474        475        458        457        476        477        460        459        477        478        461        460        478        479        462        461        479        480        463        462        480        481        464        463        481        482        465        464        482        483        466        465        483        484        467        466        484        485        468        467        485        486        469        468        486        487        470        469        487        488        471        470        488        489        472        471        489        490        473        472        490        491        474        473        491        492        475        474        493        494        477        476        494        495        478        477        495        496        479        478        496        497        480        479        497        498        481        480        498        499        482        481        499        500        483        482        500        501        484        483        501        502        485        484        502        503        486        485        503        504        487        486        504        505        488        487        505        506        489        488        506        507        490        489        507        508        491        490        508        509        492        491        510        511        494        493        511        512        495        494        512        513        496        495        513        514        497        496        514        515        498        497        515        516        499        498        516        517        500        499        517        518        501        500        518        519        502        501        519        520        503        502        520        521        504        503        521        522        505        504        522        523        506        505        523        524        507        506        524        525        508        507        525        526        509        508        527        528        511        510        528        529        512        511        529        530        513        512        530        531        514        513        531        532        515        514        532        533        516        515        533        534        517        516        534        535        518        517        535        536        519        518        536        537        520        519        537        538        521        520        538        539        522        521        539        540        523        522        540        541        524        523        541        542        525        524        542        543        526        525        544        545        528        527        545        546        529        528        546        547        530        529        547        548        531        530        548        549        532        531        549        550        533        532        550        551        534        533        551        552        535        534        552        553        536        535        553        554        537        536        554        555        538        537        555        556        539        538        556        557        540        539        557        558        541        540        558        559        542        541        559        560        543        542        561        562        545        544        562        563        546        545        563        564        547        546        564        565        548        547        565        566        549        548        566        567        550        549        567        568        551        550        568        569        552        551        569        570        553        552        570        571        554        553        571        572        555        554        572        573        556        555        573        574        557        556        574        575        558        557        575        576        559        558        576        577        560        559        578        579        596        595        579        580        597        596        580        581        598        597        581        582        599        598        582        583        600        599        583        584        601        600        584        585        602        601        585        586        603        602        586        587        604        603        587        588        605        604        588        589        606        605        589        590        607        606        590        591        608        607        591        592        609        608        592        593        610        609        593        594        611        610        595        596        613        612        596        597        614        613        597        598        615        614        598        599        616        615        599        600        617        616        600        601        618        617        601        602        619        618        602        603        620        619        603        604        621        620        604        605        622        621        605        606        623        622        606        607        624        623        607        608        625        624        608        609        626        625        609        610        627        626        610        611        628        627        612        613        630        629        613        614        631        630        614        615        632        631        615        616        633        632        616        617        634        633        617        618        635        634        618        619        636        635        619        620        637        636        620        621        638        637        621        622        639        638        622        623        640        639        623        624        641        640        624        625        642        641        625        626        643        642        626        627        644        643        627        628        645        644        629        630        647        646        630        631        648        647        631        632        649        648        632        633        650        649        633        634        651        650        634        635        652        651        635        636        653        652        636        637        654        653        637        638        655        654        638        639        656        655        639        640        657        656        640        641        658        657        641        642        659        658        642        643        660        659        643        644        661        660        644        645        662        661        646        647        664        663        647        648        665        664        648        649        666        665        649        650        667        666        650        651        668        667        651        652        669        668        652        653        670        669        653        654        671        670        654        655        672        671        655        656        673        672        656        657        674        673        657        658        675        674        658        659        676        675        659        660        677        676        660        661        678        677        661        662        679        678        663        664        681        680        664        665        682        681        665        666        683        682        666        667        684        683        667        668        685        684        668        669        686        685        669        670        687        686        670        671        688        687        671        672        689        688        672        673        690        689        673        674        691        690        674        675        692        691        675        676        693        692        676        677        694        693        677        678        695        694        678        679        696        695        680        681        698        697        681        682        699        698        682        683        700        699        683        684        701        700        684        685        702        701        685        686        703        702        686        687        704        703        687        688        705        704        688        689        706        705        689        690        707        706        690        691        708        707        691        692        709        708        692        693        710        709        693        694        711        710        694        695        712        711        695        696        713        712        697        698        715        714        698        699        716        715        699        700        717        716        700        701        718        717        701        702        719        718        702        703        720        719        703        704        721        720        704        705        722        721        705        706        723        722        706        707        724        723        707        708        725        724        708        709        726        725        709        710        727        726        710        711        728        727        711        712        729        728        712        713        730        729        714        715        732        731        715        716        733        732        716        717        734        733        717        718        735        734        718        719        736        735        719        720        737        736        720        721        738        737        721        722        739        738        722        723        740        739        723        724        741        740        724        725        742        741        725        726        743        742        726        727        744        743        727        728        745        744        728        729        746        745        729        730        747        746        731        732        749        748        732        733        750        749        733        734        751        750        734        735        752        751        735        736        753        752        736        737        754        753        737        738        755        754        738        739        756        755        739        740        757        756        740        741        758        757        741        742        759        758        742        743        760        759        743        744        761        760        744        745        762        761        745        746        763        762        746        747        764        763        748        749        766        765        749        750        767        766        750        751        768        767        751        752        769        768        752        753        770        769        753        754        771        770        754        755        772        771        755        756        773        772        756        757        774        773        757        758        775        774        758        759        776        775        759        760        777        776        760        761        778        777        761        762        779        778        762        763        780        779        763        764        781        780        765        766        783        782        766        767        784        783        767        768        785        784        768        769        786        785        769        770        787        786        770        771        788        787        771        772        789        788        772        773        790        789        773        774        791        790        774        775        792        791        775        776        793        792        776        777        794        793        777        778        795        794        778        779        796        795        779        780        797        796        780        781        798        797        782        783        800        799        783        784        801        800        784        785        802        801        785        786        803        802        786        787        804        803        787        788        805        804        788        789        806        805        789        790        807        806        790        791        808        807        791        792        809        808        792        793        810        809        793        794        811        810        794        795        812        811        795        796        813        812        796        797        814        813        797        798        815        814        799        800        817        816        800        801        818        817        801        802        819        818        802        803        820        819        803        804        821        820        804        805        822        821        805        806        823        822        806        807        824        823        807        808        825        824        808        809        826        825        809        810        827        826        810        811        828        827        811        812        829        828        812        813        830        829        813        814        831        830        814        815        832        831        816        817        834        833        817        818        835        834        818        819        836        835        819        820        837        836        820        821        838        837        821        822        839        838        822        823        840        839        823        824        841        840        824        825        842        841        825        826        843        842        826        827        844        843        827        828        845        844        828        829        846        845        829        830        847        846        830        831        848        847        831        832        849        848        833        834        562        561        834        835        563        562        835        836        564        563        836        837        565        564        837        838        566        565        838        839        567        566        839        840        568        567        840        841        569        568        841        842        570        569        842        843        571        570        843        844        572        571        844        845        573        572        845        846        574        573        846        847        575        574        847        848        576        575        848        849        577        576        884        885        579        578        885        886        580        579        886        887        581        580        887        888        582        581        888        889        583        582        889        890        584        583        890        891        585        584        891        892        586        585        892        893        587        586        893        894        588        587        894        895        589        588        895        896        590        589        896        897        591        590        897        898        592        591        898        899        593        592        899        900        594        593        901        902        885        884        902        903        886        885        903        904        887        886        904        905        888        887        905        906        889        888        906        907        890        889        907        908        891        890        908        909        892        891        909        910        893        892        910        911        894        893        911        912        895        894        912        913        896        895        913        914        897        896        914        915        898        897        915        916        899        898        916        917        900        899        918        919        902        901        919        920        903        902        920        921        904        903        921        922        905        904        922        923        906        905        923        924        907        906        924        925        908        907        925        926        909        908        926        927        910        909        927        928        911        910        928        929        912        911        929        930        913        912        930        931        914        913        931        932        915        914        932        933        916        915        933        934        917        916        935        936        919        918        936        937        920        919        937        938        921        920        938        939        922        921        939        940        923        922        940        941        924        923        941        942        925        924        942        943        926        925        943        944        927        926        944        945        928        927        945        946        929        928        946        947        930        929        947        948        931        930        948        949        932        931        949        950        933        932        950        951        934        933        952        953        936        935        953        954        937        936        954        955        938        937        955        956        939        938        956        957        940        939        957        958        941        940        958        959        942        941        959        960        943        942        960        961        944        943        961        962        945        944        962        963        946        945        963        964        947        946        964        965        948        947        965        966        949        948        966        967        950        949        967        968        951        950        969        970        953        952        970        971        954        953        971        972        955        954        972        973        956        955        973        974        957        956        974        975        958        957        975        976        959        958        976        977        960        959        977        978        961        960        978        979        962        961        979        980        963        962        980        981        964        963        981        982        965        964        982        983        966        965        983        984        967        966        984        985        968        967        986        987        970        969        987        988        971        970        988        989        972        971        989        990        973        972        990        991        974        973        991        992        975        974        992        993        976        975        993        994        977        976        994        995        978        977        995        996        979        978        996        997        980        979        997        998        981        980        998        999        982        981        999       1000        983        982       1000       1001        984        983       1001       1002        985        984       1003       1004        987        986       1004       1005        988        987       1005       1006        989        988       1006       1007        990        989       1007       1008        991        990       1008       1009        992        991       1009       1010        993        992       1010       1011        994        993       1011       1012        995        994       1012       1013        996        995       1013       1014        997        996       1014       1015        998        997       1015       1016        999        998       1016       1017       1000        999       1017       1018       1001       1000       1018       1019       1002       1001       1020       1021       1004       1003       1021       1022       1005       1004       1022       1023       1006       1005       1023       1024       1007       1006       1024       1025       1008       1007       1025       1026       1009       1008       1026       1027       1010       1009       1027       1028       1011       1010       1028       1029       1012       1011       1029       1030       1013       1012       1030       1031       1014       1013       1031       1032       1015       1014       1032       1033       1016       1015       1033       1034       1017       1016       1034       1035       1018       1017       1035       1036       1019       1018       1037       1038       1021       1020       1038       1039       1022       1021       1039       1040       1023       1022       1040       1041       1024       1023       1041       1042       1025       1024       1042       1043       1026       1025       1043       1044       1027       1026       1044       1045       1028       1027       1045       1046       1029       1028       1046       1047       1030       1029       1047       1048       1031       1030       1048       1049       1032       1031       1049       1050       1033       1032       1050       1051       1034       1033       1051       1052       1035       1034       1052       1053       1036       1035       1054       1055       1038       1037       1055       1056       1039       1038       1056       1057       1040       1039       1057       1058       1041       1040       1058       1059       1042       1041       1059       1060       1043       1042       1060       1061       1044       1043       1061       1062       1045       1044       1062       1063       1046       1045       1063       1064       1047       1046       1064       1065       1048       1047       1065       1066       1049       1048       1066       1067       1050       1049       1067       1068       1051       1050       1068       1069       1052       1051       1069       1070       1053       1052       1071       1072       1055       1054       1072       1073       1056       1055       1073       1074       1057       1056       1074       1075       1058       1057       1075       1076       1059       1058       1076       1077       1060       1059       1077       1078       1061       1060       1078       1079       1062       1061       1079       1080       1063       1062       1080       1081       1064       1063       1081       1082       1065       1064       1082       1083       1066       1065       1083       1084       1067       1066       1084       1085       1068       1067       1085       1086       1069       1068       1086       1087       1070       1069       1088       1089       1072       1071       1089       1090       1073       1072       1090       1091       1074       1073       1091       1092       1075       1074       1092       1093       1076       1075       1093       1094       1077       1076       1094       1095       1078       1077       1095       1096       1079       1078       1096       1097       1080       1079       1097       1098       1081       1080       1098       1099       1082       1081       1099       1100       1083       1082       1100       1101       1084       1083       1101       1102       1085       1084       1102       1103       1086       1085       1103       1104       1087       1086       1105       1106       1089       1088       1106       1107       1090       1089       1107       1108       1091       1090       1108       1109       1092       1091       1109       1110       1093       1092       1110       1111       1094       1093       1111       1112       1095       1094       1112       1113       1096       1095       1113       1114       1097       1096       1114       1115       1098       1097       1115       1116       1099       1098       1116       1117       1100       1099       1117       1118       1101       1100       1118       1119       1102       1101       1119       1120       1103       1102       1120       1121       1104       1103       1122       1123       1106       1105       1123       1124       1107       1106       1124       1125       1108       1107       1125       1126       1109       1108       1126       1127       1110       1109       1127       1128       1111       1110       1128       1129       1112       1111       1129       1130       1113       1112       1130       1131       1114       1113       1131       1132       1115       1114       1132       1133       1116       1115       1133       1134       1117       1116       1134       1135       1118       1117       1135       1136       1119       1118       1136       1137       1120       1119       1137       1138       1121       1120        272        273       1123       1122        273        274       1124       1123        274        275       1125       1124        275        276       1126       1125        276        277       1127       1126        277        278       1128       1127        278        279       1129       1128        279        280       1130       1129        280        281       1131       1130        281        282       1132       1131        282        283       1133       1132        283        284       1134       1133        284        285       1135       1134        285        286       1136       1135        286        287       1137       1136        287        288       1138       1137 </DataArray>
<DataArray type="Int32"                                    Name="offsets"                                                      NumberOfComponents=" 1" format="ascii">
         4          8         12         16         20         24         28         32         36         40         44         48         52         56         60         64         68         72         76         80         84         88         92         96        100        104        108        112        116        120        124        128        132        136        140        144        148        152        156        160        164        168        172        176        180        184        188        192        196        200        204        208        212        216        220        224        228        232        236        240        244        248        252        256        260        264        268        272        276        280        284        288        292        296        300        304        308        312        316        320        324        328        332        336        340        344        348        352        356        360        364        368        372        376        380        384        388        392        396        400        404        408        412        416        420        424        428        432        436        440        444        448        452        456        460        464        468        472        476        480        484        488        492        496        500        504        508        512        516        520        524        528        532        536        540        544        548        552        556        560        564        568        572        576        580        584        588        592        596        600        604        608        612        616        620        624        628        632        636        640        644        648        652        656        660        664        668        672        676        680        684        688        692        696        700        704        708        712        716        720        724        728        732        736        740        744        748        752        756        760        764        768        772        776        780        784        788        792        796        800        804        808        812        816        820        824        828        832        836        840        844        848        852        856        860        864        868        872        876        880        884        888        892        896        900        904        908        912        916        920        924        928        932        936        940        944        948        952        956        960        964        968        972        976        980        984        988        992        996       1000       1004       1008       1012       1016       1020       1024       1028       1032       1036       1040       1044       1048       1052       1056       1060       1064       1068       1072       1076       1080       1084       1088       1092       1096       1100       1104       1108       1112       1116       1120       1124       1128       1132       1136       1140       1144       1148       1152       1156       1160       1164       1168       1172       1176       1180       1184       1188       1192       1196       1200       1204       1208       1212       1216       1220       1224       1228       1232       1236       1240       1244       1248       1252       1256       1260       1264       1268       1272       1276       1280       1284       1288       1292       1296       1300       1304       1308       1312       1316       1320       1324       1328       1332       1336       1340       1344       1348       1352       1356       1360       1364       1368       1372       1376       1380       1384       1388       1392       1396       1400       1404       1408       1412       1416       1420       1424       1428       1432       1436       1440       1444       1448       1452       1456       1460       1464       1468       1472       1476       1480       1484       1488       1492       1496       1500       1504       1508       1512       1516       1520       1524       1528       1532       1536       1540       1544       1548       1552       1556       1560       1564       1568       1572       1576       1580       1584       1588       1592       1596       1600       1604       1608       1612       1616       1620       1624       1628       1632       1636       1640       1644       1648       1652       1656       1660       1664       1668       1672       1676       1680       1684       1688       1692       1696       1700       1704       1708       1712       1716       1720       1724       1728       1732       1736       1740       1744       1748       1752       1756       1760       1764       1768       1772       1776       1780       1784       1788       1792       1796       1800       1804       1808       1812       1816       1820       1824       1828       1832       1836       1840       1844       1848       1852       1856       1860       1864       1868       1872       1876       1880       1884       1888       1892       1896       1900       1904       1908       1912       1916       1920       1924       1928       1932       1936       1940       1944       1948       1952       1956       1960       1964       1968       1972       1976       1980       1984       1988       1992       1996       2000       2004       2008       2012       2016       2020       2024       2028       2032       2036       2040       2044       2048       2052       2056       2060       2064       2068       2072       2076       2080       2084       2088       2092       2096       2100       2104       2108       2112       2116       2120       2124       2128       2132       2136       2140       2144       2148       2152       2156       2160       2164       2168       2172       2176       2180       2184       2188       2192       2196       2200       2204       2208       2212       2216       2220       2224       2228       2232       2236       2240       2244       2248       2252       2256       2260       2264       2268       2272       2276       2280       2284       2288       2292       2296       2300       2304       2308       2312       2316       2320       2324       2328       2332       2336       2340       2344       2348       2352       2356       2360       2364       2368       2372       2376       2380       2384       2388       2392       2396       2400       2404       2408       2412       2416       2420       2424       2428       2432       2436       2440       2444       2448       2452       2456       2460       2464       2468       2472       2476       2480       2484       2488       2492       2496       2500       2504       2508       2512       2516       2520       2524       2528       2532       2536       2540       2544       2548       2552       2556       2560       2564       2568       2572       2576       2580       2584       2588       2592       2596       2600       2604       2608       2612       2616       2620       2624       2628       2632       2636       2640       2644       2648       2652       2656       2660       2664       2668       2672       2676       2680       2684       2688       2692       2696       2700       2704       2708       2712       2716       2720       2724       2728       2732       2736       2740       2744       2748       2752       2756       2760       2764       2768       2772       2776       2780       2784       2788       2792       2796       2800       2804       2808       2812       2816       2820       2824       2828       2832       2836       2840       2844       2848       2852       2856       2860       2864       2868       2872       2876       2880       2884       2888       2892       2896       2900       2904       2908       2912       2916       2920       2924       2928       2932       2936       2940       2944       2948       2952       2956       2960       2964       2968       2972       2976       2980       2984       2988       2992       2996       3000       3004       3008       3012       3016       3020       3024       3028       3032       3036       3040       3044       3048       3052       3056       3060       3064       3068       3072       3076       3080       3084       3088       3092       3096       3100       3104       3108       3112       3116       3120       3124       3128       3132       3136       3140       3144       3148       3152       3156       3160       3164       3168       3172       3176       3180       3184       3188       3192       3196       3200       3204       3208       3212       3216       3220       3224       3228       3232       3236       3240       3244       3248       3252       3256       3260       3264       3268       3272       3276       3280       3284       3288       3292       3296       3300       3304       3308       3312       3316       3320       3324       3328       3332       3336       3340       3344       3348       3352       3356       3360       3364       3368       3372       3376       3380       3384       3388       3392       3396       3400       3404       3408       3412       3416       3420       3424       3428       3432       3436       3440       3444       3448       3452       3456       3460       3464       3468       3472       3476       3480       3484       3488       3492       3496       3500       3504       3508       3512       3516       3520       3524       3528       3532       3536       3540       3544       3548       3552       3556       3560       3564       3568       3572       3576       3580       3584       3588       3592       3596       3600       3604       3608       3612       3616       3620       3624       3628       3632       3636       3640       3644       3648       3652       3656       3660       3664       3668       3672       3676       3680       3684       3688       3692       3696       3700       3704       3708       3712       3716       3720       3724       3728       3732       3736       3740       3744       3748       3752       3756       3760       3764       3768       3772       3776       3780       3784       3788       3792       3796       3800       3804       3808       3812       3816       3820       3824       3828       3832       3836       3840       3844       3848       3852       3856       3860       3864       3868       3872       3876       3880       3884       3888       3892       3896       3900       3904       3908       3912       3916       3920       3924       3928       3932       3936       3940       3944       3948       3952       3956       3960       3964       3968       3972       3976       3980       3984       3988       3992       3996       4000       4004       4008       4012       4016       4020       4024       4028       4032       4036       4040       4044       4048       4052       4056       4060       4064       4068       4072       4076       4080       4084       4088       4092       4096 </DataArray>
<DataArray type="UInt8"                                    Name="types"                                                      NumberOfComponents=" 1" format="ascii">
         9          9          9          9          9          9          9          9          9          9          9          9          9          9          9          9          9          9          9          9          9          9          9          9          9          9          9          9          9          9          9          9          9          9          9          9          9          9          9          9          9          9          9          9          9          9          9          9          9          9          9          9          9          9          9          9          9          9          9          9          9          9          9          9          9          9          9          9          9          9          9          9          9          9          9          9          9          9          9          9          9          9          9          9          9          9          9          9          9          9          9          9          9          9          9          9          9          9          9          9          9          9          9          9          9          9          9          9          9          9          9          9          9          9          9          9          9          9          9          9          9          9          9          9          9          9          9          9          9          9          9          9          9          9          9          9          9          9          9          9          9          9          9          9          9          9          9          9          9          9          9          9          9          9          9          9          9          9          9          9          9          9          9          9          9          9          9          9          9          9          9          9          9          9          9          9          9          9          9          9          9          9          9          9          9          9          9          9          9          9          9          9          9          9          9          9          9          9          9          9          9          9          9          9          9          9          9          9          9          9          9          9          9          9          9          9          9          9          9          9          9          9          9          9          9          9          9          9          9          9          9          9          9          9          9          9          9          9          9          9          9          9          9          9          9          9          9          9          9          9          9          9          9          9          9          9          9          9          9          9          9          9          9          9          9          9          9          9          9          9          9          9          9          9          9          9          9          9          9          9          9          9          9          9          9          9          9          9          9          9          9          9          9          9          9          9          9          9          9          9          9          9          9          9          9          9          9          9          9          9          9          9          9          9          9          9          9          9          9          9          9          9          9          9          9          9          9          9          9          9          9          9          9          9          9          9          9          9          9          9          9          9          9          9          9          9          9          9          9          9          9          9          9          9          9          9          9          9          9          9          9          9          9          9          9          9          9          9          9          9          9          9          9          9          9          9          9          9          9          9          9          9          9          9          9          9          9          9          9          9          9          9          9          9          9          9          9          9          9          9          9          9          9          9          9          9          9          9          9          9          9          9          9          9          9          9          9          9          9          9          9          9          9          9          9          9          9          9          9          9          9          9          9          9          9          9          9          9          9          9          9          9          9          9          9          9          9          9          9          9          9          9          9          9          9          9          9          9          9          9          9          9          9          9          9          9          9          9          9          9          9          9          9          9          9          9          9          9          9          9          9          9          9          9          9          9          9          9          9          9          9          9          9          9          9          9          9          9          9          9          9          9          9          9          9          9          9          9          9          9          9          9          9          9          9          9          9          9          9          9          9          9          9          9          9          9          9          9          9          9          9          9          9          9          9          9          9          9          9          9          9          9          9          9          9          9          9          9          9          9          9          9          9          9          9          9          9          9          9          9          9          9          9          9          9          9          9          9          9          9          9          9          9          9          9          9          9          9          9          9          9          9          9          9          9          9          9          9          9          9          9          9          9          9          9          9          9          9          9          9          9          9          9          9          9          9          9          9          9          9          9          9          9          9          9          9          9          9          9          9          9          9          9          9          9          9          9          9          9          9          9          9          9          9          9          9          9          9          9          9          9          9          9          9          9          9          9          9          9          9          9          9          9          9          9          9          9          9          9          9          9          9          9          9          9          9          9          9          9          9          9          9          9          9          9          9          9          9          9          9          9          9          9          9          9          9          9          9          9          9          9          9          9          9          9          9          9          9          9          9          9          9          9          9          9          9          9          9          9          9          9          9          9          9          9          9          9          9          9          9          9          9          9          9          9          9          9          9          9          9          9          9          9          9          9          9          9          9          9          9          9          9          9          9          9          9          9          9          9          9          9          9          9          9          9          9          9          9          9          9          9          9          9          9          9          9          9          9          9          9          9          9          9          9          9          9          9          9          9          9          9          9          9          9          9          9          9          9          9          9          9          9          9          9          9          9          9          9          9          9          9          9          9          9          9          9          9          9          9          9          9          9          9          9          9          9          9          9          9          9          9          9          9          9          9          9          9          9          9          9          9          9          9          9          9          9          9          9          9          9          9          9          9          9          9          9          9          9          9          9          9          9          9          9          9          9          9          9          9          9          9          9          9          9          9          9          9          9          9          9          9          9          9          9          9          9          9          9          9          9          9          9          9          9          9          9          9          9          9          9          9          9          9          9          9          9          9          9          9          9          9          9          9          9          9          9          9          9          9          9          9          9          9          9          9          9          9          9          9          9          9          9          9          9          9          9          9          9          9          9          9          9          9          9          9          9          9          9          9          9          9          9          9          9          9          9          9          9          9          9          9          9          9          9          9          9          9          9          9          9          9          9          9          9          9          9          9          9          9          9          9          9          9          9          9          9          9          9          9          9          9          9          9          9          9          9          9          9          9          9          9          9          9          9          9          9          9          9          9          9          9          9          9          9          9          9          9          9          9          9          9          9          9          9          9          9          9          9          9          9          9          9          9          9 </DataArray>
</Cells>
<CellData>
<DataArray type="Int32"                                    Name="material"                                                      NumberOfComponents=" 1" format="ascii">
         1          1          1          1          1          1          1          1          1          1          1          1          1          1          1          1          1          1          1          1          1          1          1          1          1          1          1          1          1          1          1          1          1          1          1          1          1          1          1          1          1          1          1          1          1          1          1          1          1          1          1          1          1          1          1          1          1          1          1          1          1          1          1          1          1          1          1          1          1          1          1          1          1          1          1          1          1          1          1          1          1          1          1          1          1          1          1          1          1          1          1          1          1          1          1          1          1          1          1          1          1          1          1          1          1          1          1          1          1          1          1          1          1          1          1          1          1          1          1          1          1          1          1          1          1          1          1          1          1          1          1          1          1          1          1          1          1          1          1          1          1          1          1          1          1          1          1          1          1          1          1          1          1          1          1          1          1          1          1          1          1          1          1          1          1          1          1          1          1          1          1          1          1          1          1          1          1          1          1          1          1          1          1          1          1          1          1          1          1          1          1          1          1          1          1          1          1          1          1          1          1          1          1          1          1          1          1          1          1          1          1          1          1          1          1          1          1          1          1          1          1          1          1          1          1          1          1          1          1          1          1          1          1          1          1          1          1          1          1          1          1          1          1          1          1          1          1          1          1          1          1          1          1          1          1          1          1          1          1          1          1          1          1          1          1          1          1          1          1          1          1          1          1          1          1          1          1          1          1          1          1          1          1          1          1          1          1          1          1          1          1          1          1          1          1          1          1          1          1          1          1          1          1          1          1          1          1          1          1          1          1          1          1          1          1          1          1          1          1          1          1          1          1          1          1          1          1          1          1          1          1          1          1          1          1          1          1          1          1          1          1          1          1          1          1          1          1          1          1          1          1          1          1          1          1          1          1          1          1          1          1          1          1          1          1          1          1          1          1          1          1          1          1          1          1          1          1          1          1          1          1          1          1          1          1          1          1          1          1          1          1          1          1          1          1          1          1          1          1          1          1          1          1          1          1          1          1          1          1          1          1          1          1          1          1          1          1          1          1          1          1          1          1          1          1          1          1          1          1          1          1          1          1          1          1          1          1          1          1          1          1          1          1          1          1          1          1          1          1          1          1          1          1          1          1          1          1          1          1          1          1          1          1          1          1          1          1          1          1          1          1          1          1          1          1          1          1          1          1          1          1          1          1          1          1          1          1          1          1          1          1          1          1          1          1          1          1          1          1          1          1          1          1          1          1          1          1          1          1          1          1          1          1          1          1          1          1          1          1          1          1          1          1          1          1          1          1          1          1          1          1          1          1          1          1          1          1          1          1          1          1          1          1          1          1          1          1          1          1          1          1          1          1          1          1          1          1          1          1          1          1          1          1          1          1          1          1          1          1          1          1          1          1          1          1          1          1          1          1          1          1          1          1          1          1          1          1          1          1          1          1          1          1          1          1          1          1          1          1          1          1          1          1          1          1          1          1          1          1          1          1          1          1          1          1          1          1          1          1          1          1          1          1          1          1          1          1          1          1          1          1          1          1          1          1          1          1          1          1          1          1          1          1          1          1          1          1          1          1          1          1          1          1          1          1          1          1          1          1          1          1          1          1          1          1          1          1          1          1          1          1          1          1          1          1          1          1          1          1          1          1          1          1          1          1          1          1          1          1          1          1          1          1          1          1          1          1          1          1          1          1          1          1          1          1          1          1          1          1          1          1          1          1          1          1          1          1          1          1          1          1          1          1          1          1          1          1          1          1          1          1          1          1          1          1          1          1          1          1          1          1          1          1          1          1          1          1          1          1          1          1          1          1          1          1          1          1          1          1          1          1          1          1          1          1          1          1          1          1          1          1          1          1          1          1          1          1          1          1          1          1          1          1          1          1          1          1          1          1          1          1          1          1          1          1          1          1          1          1          1          1          1          1          1          1          1          1          1          1          1          1          1          1          1          1          1          1          1          1          1          1          1          1          1          1          1          1          1          1          1          1          1          1          1          1          1          1          1          1          1          1          1          1          1          1          1          1          1          1          1          1          1          1          1          1          1          1          1          1          1          1          1          1          1          1          1          1          1          1          1          1          1          1          1          1          1          1          1          1          1          1          1          1          1          1          1          1          1          1          1          1          1          1          1          1          1          1          1          1          1          1          1          1          1          1          1          1          1          1          1          1          1          1          1          1          1          1          1          1          1          1          1          1          1          1          1          1          1          1          1          1          1          1          1          1          1          1          1          1          1          1          1          1          1          1          1          1          1          1          1          1          1          1          1          1          1          1          1          1          1          1          1          1          1          1          1          1          1          1          1          1          1          1          1          1          1          1          1          1          1          1          1          1          1          1          1          1          1          1          1          1          1          1          1          1          1          1          1          1          1          1          1          1          1          1          1          1          1          1          1          1          1          1          1          1          1          1          1          1          1          1          1          1          1 </DataArray>
</CellData>
<PointData>
<DataArray type="Float64"                                    Name="u"                                                      NumberOfComponents=" 3" format="ascii">
             -0.000915799              -0.000000000               0.999999987              -0.000963436              -0.000000000               0.999999987              -0.000982730               0.000000000               0.999999987              -0.000992771               0.000000000               0.999999987              -0.001000338               0.000000000               0.999999987              -0.001007910              -0.000000000               0.999999987              -0.001016455              -0.000000000               0.999999987              -0.001026038               0.000000000               0.999999987              -0.001036539              -0.000000000               0.999999987              -0.001047571              -0.000000000               0.999999987              -0.001058741               0.000000000               0.999999987              -0.001069651               0.000000000               0.999999987              -0.001080069               0.000000000               0.999999987              -0.001089402              -0.000000000               0.999999987              -0.001096963              -0.000000000               0.999999987              -0.001102092              -0.000000000               0.999999987              -0.001103855              -0.000000000               0.999999987              -0.000910602               0.000125704               0.999999987              -0.000953983               0.000098808               0.999999987              -0.000970602               0.000086347               0.999999987              -0.000978938               0.000080765               0.999999987              -0.000985377               0.000078517               0.999999987              -0.000992057               0.000078020               0.999999987              -0.000999719               0.000078078               0.999999987              -0.001008415               0.000077869               0.999999987              -0.001017818               0.000077000               0.999999987              -0.001027536               0.000074992               0.999999987              -0.001037153               0.000071584               0.999999987              -0.001046299               0.000066627               0.999999987              -0.001054593               0.000059679               0.999999987              -0.001061557               0.000050125               0.999999987              -0.001066642               0.000037277               0.999999987              -0.001069160               0.000020210               0.999999987              -0.001068452              -0.000002115               0.999999987              -0.000895272               0.000250169               0.999999987              -0.000926331               0.000197351               0.999999987              -0.000935434               0.000173727               0.999999987              -0.000939058               0.000163694               0.999999987              -0.000942307               0.000160157               0.999999987              -0.000946568               0.000159657               0.999999987              -0.000951998               0.000160134               0.999999987              -0.000958157               0.000159970               0.999999987              -0.000964471               0.000158180               0.999999987              -0.000970506               0.000154221               0.999999987              -0.000975777               0.000147465               0.999999987              -0.000979972               0.000137862               0.999999987              -0.000982670               0.000124361               0.999999987              -0.000983332               0.000105981               0.999999987              -0.000981581               0.000081872               0.999999987              -0.000977042               0.000050967               0.999999987              -0.000969590               0.000011784               0.999999987              -0.000870135               0.000372331               0.999999987              -0.000881913               0.000295421               0.999999987              -0.000880062               0.000263019               0.999999987              -0.000877276               0.000250541               0.999999987              -0.000876380               0.000247107               0.999999987              -0.000877372               0.000247548               0.999999987              -0.000879629               0.000248760               0.999999987              -0.000882058               0.000248573               0.999999987              -0.000883873               0.000245899               0.999999987              -0.000884568               0.000239933               0.999999987              -0.000883638               0.000230113               0.999999987              -0.000880591               0.000216025               0.999999987              -0.000875040               0.000196736               0.999999987              -0.000866693               0.000171192               0.999999987              -0.000855418               0.000138734               0.999999987              -0.000841422               0.000098598               0.999999987              -0.000825145               0.000050452               0.999999987              -0.000835524               0.000491179               0.999999987              -0.000822785               0.000393118               0.999999987              -0.000808715               0.000354956               0.999999987              -0.000799549               0.000342197               0.999999987              -0.000794751               0.000340148               0.999999987              -0.000792507               0.000342190               0.999999987              -0.000791039               0.000344406               0.999999987              -0.000788983               0.000344275               0.999999987              -0.000785460               0.000340635               0.999999987              -0.000779682               0.000332701               0.999999987              -0.000771035               0.000319915               0.999999987              -0.000759090               0.000301746               0.999999987              -0.000743671               0.000277709               0.999999987              -0.000724919               0.000247008               0.999999987              -0.000703174               0.000209417               0.999999987              -0.000679061               0.000165422               0.999999987              -0.000653620               0.000115823               0.999999987              -0.000792191               0.000605529               0.999999987              -0.000752001               0.000490623               0.999999987              -0.000726695               0.000449788               0.999999987              -0.000712706               0.000438433               0.999999987              -0.000705096               0.000438641               0.999999987              -0.000700074               0.000442483               0.999999987              -0.000694959               0.000445506               0.999999987              -0.000688148               0.000445413               0.999999987              -0.000678486               0.000440848               0.999999987              -0.000665191               0.000430962               0.999999987              -0.000647786               0.000415299               0.999999987              -0.000626121               0.000393484               0.999999987              -0.000600458               0.000365611               0.999999987              -0.000571295               0.000331797               0.999999987              -0.000539458               0.000292157               0.999999987              -0.000505923               0.000248024               0.999999987              -0.000471742               0.000201219               0.999999987              -0.000741158               0.000714193               0.999999987              -0.000673351               0.000587872               0.999999987              -0.000639565               0.000546980               0.999999987              -0.000623007               0.000538123               0.999999987              -0.000613963               0.000540835               0.999999987              -0.000606781               0.000546200               0.999999987              -0.000598048               0.000549815               0.999999987              -0.000585990               0.000549645               0.999999987              -0.000569514               0.000544000               0.999999987              -0.000547924               0.000532122               0.999999987              -0.000521251               0.000513845               0.999999987              -0.000489677               0.000488982               0.999999987              -0.000453684               0.000458480               0.999999987              -0.000414235               0.000422982               0.999999987              -0.000372340               0.000383363               0.999999987              -0.000329135               0.000341240               0.999999987              -0.000285484               0.000298351               0.999999987              -0.000683524               0.000816105               0.999999987              -0.000590592               0.000684600               0.999999987              -0.000552089               0.000645549               0.999999987              -0.000535669               0.000639251               0.999999987              -0.000526396               0.000644122               0.999999987              -0.000517275               0.000650795               0.999999987              -0.000504610               0.000654919               0.999999987              -0.000486771               0.000654485               0.999999987              -0.000462760               0.000647588               0.999999987              -0.000432204               0.000633796               0.999999987              -0.000395374               0.000613121               0.999999987              -0.000352771               0.000586157               0.999999987              -0.000305527               0.000554201               0.999999987              -0.000254763               0.000518648               0.999999987              -0.000201805               0.000480661               0.999999987              -0.000148014               0.000441920               0.999999987              -0.000094094               0.000403259               0.999999987              -0.000621258               0.000909401               0.999999987              -0.000506545               0.000780629               0.999999987              -0.000468596               0.000743902               0.999999987              -0.000454308               0.000739542               0.999999987              -0.000445540               0.000746041               0.999999987              -0.000434284               0.000753838               0.999999987              -0.000417367               0.000758372               0.999999987              -0.000392982               0.000757291               0.999999987              -0.000360329               0.000749115               0.999999987              -0.000319462               0.000733526               0.999999987              -0.000270936               0.000710922               0.999999987              -0.000216019               0.000682634               0.999999987              -0.000156004               0.000650585               0.999999987              -0.000092741               0.000616581               0.999999987              -0.000028125               0.000582087               0.999999987               0.000036503               0.000548257               0.999999987               0.000100848               0.000515277               0.999999987              -0.000556787               0.000997906               0.999999987              -0.000435806               0.000888805               0.999999987              -0.000395688               0.000849150               0.999999987              -0.000381291               0.000840725               0.999999987              -0.000373774               0.000845157               0.999999987              -0.000365041               0.000853548               0.999999987              -0.000351777               0.000861351               0.999999987              -0.000331894               0.000865933               0.999999987              -0.000304423               0.000865751               0.999999987              -0.000269177               0.000859954               0.999999987              -0.000226427               0.000848143               0.999999987              -0.000176493               0.000830909               0.999999987              -0.000120106               0.000809414               0.999999987              -0.000058711               0.000785237               0.999999987               0.000005931               0.000760008               0.999999987               0.000071963               0.000735149               0.999999987               0.000137781               0.000711406               0.999999987              -0.000486616               0.001078721               0.999999987              -0.000367505               0.000993618               0.999999987              -0.000325425               0.000957209               0.999999987              -0.000310096               0.000946958               0.999999987              -0.000302982               0.000950148               0.999999987              -0.000296143               0.000959149               0.999999987              -0.000285880               0.000969690               0.999999987              -0.000270021               0.000979235               0.999999987              -0.000247278               0.000986038               0.999999987              -0.000217460               0.000989135               0.999999987              -0.000180654               0.000987488               0.999999987              -0.000136596               0.000981048               0.999999987              -0.000085299               0.000970262               0.999999987              -0.000027327               0.000956230               0.999999987               0.000035916               0.000940194               0.999999987               0.000102438               0.000923664               0.999999987               0.000170467               0.000907814               0.999999987              -0.000412143               0.001149773               0.999999987              -0.000301639               0.001091935               0.999999987              -0.000259497               0.001063043               0.999999987              -0.000243014               0.001054198               0.999999987              -0.000235775               0.001057593               0.999999987              -0.000229938               0.001067652               0.999999987              -0.000221970               0.001080838               0.999999987              -0.000209405               0.001094874               0.999999987              -0.000191066               0.001107882               0.999999987              -0.000166478               0.001118707               0.999999987              -0.000135590               0.001126575               0.999999987              -0.000097896               0.001130704               0.999999987              -0.000052958               0.001130903               0.999999987              -0.000000372               0.001127627               0.999999987               0.000059418               0.001121676               0.999999987               0.000125009               0.001114314               0.999999987               0.000194862               0.001106609               0.999999987              -0.000334073               0.001209719               0.999999987              -0.000238245               0.001179621               0.999999987              -0.000198705               0.001161458               0.999999987              -0.000181979               0.001156565               0.999999987              -0.000174283               0.001162040               0.999999987              -0.000168983               0.001174150               0.999999987              -0.000162576               0.001190253               0.999999987              -0.000152939               0.001208312               0.999999987              -0.000138571               0.001226859               0.999999987              -0.000119013               0.001244675               0.999999987              -0.000094043               0.001260896               0.999999987              -0.000063096               0.001274694               0.999999987              -0.000025455               0.001285582               0.999999987               0.000019944               0.001293360               0.999999987               0.000073459               0.001298304               0.999999987               0.000134783               0.001301081               0.999999987               0.000203691               0.001302580               0.999999987              -0.000253058               0.001257480               0.999999987              -0.000177021               0.001252475               0.999999987              -0.000143308               0.001246359               0.999999987              -0.000127891               0.001247472               0.999999987              -0.000120341               0.001256201               0.999999987              -0.000115568               0.001271139               0.999999987              -0.000110417               0.001290365               0.999999987              -0.000103190               0.001312483               0.999999987              -0.000092411               0.001336166               0.999999987              -0.000077656               0.001360157               0.999999987              -0.000058728               0.001383609               0.999999987              -0.000035066               0.001405833               0.999999987              -0.000005620               0.001426326               0.999999987               0.000030674               0.001444456               0.999999987               0.000074860               0.001460120               0.999999987               0.000127781               0.001473406               0.999999987               0.000190104               0.001484694               0.999999987              -0.000169890               0.001291998               0.999999987              -0.000117291               0.001307023               0.999999987              -0.000092643               0.001311919               0.999999987              -0.000080694               0.001319333               0.999999987              -0.000074445               0.001331990               0.999999987              -0.000070520               0.001349909               0.999999987              -0.000066698               0.001372151               0.999999987              -0.000061783               0.001397746               0.999999987              -0.000054661               0.001425525               0.999999987              -0.000044837               0.001454483               0.999999987              -0.000032027               0.001483859               0.999999987              -0.000015848               0.001513001               0.999999987               0.000004301               0.001541272               0.999999987               0.000029527               0.001568071               0.999999987               0.000061296               0.001592980               0.999999987               0.000100827               0.001615747               0.999999987               0.000149427               0.001636219               0.999999987              -0.000085299               0.001312843               0.999999987              -0.000058414               0.001340667               0.999999987              -0.000045432               0.001353330               0.999999987              -0.000038879               0.001365464               0.999999987              -0.000035279               0.001381276               0.999999987              -0.000033027               0.001401608               0.999999987              -0.000030912               0.001426013               0.999999987              -0.000028405               0.001453893               0.999999987              -0.000024919               0.001484358               0.999999987              -0.000020081               0.001516637               0.999999987              -0.000013517               0.001550045               0.999999987              -0.000005255               0.001583933               0.999999987               0.000004789               0.001617628               0.999999987               0.000017758               0.001650607               0.999999987               0.000034551               0.001682244               0.999999987               0.000055943               0.001711985               0.999999987               0.000083173               0.001739205               0.999999987              -0.000000000               0.001319890               0.999999987              -0.000000000               0.001352013               0.999999987              -0.000000000               0.001367391               0.999999987               0.000000000               0.001381334               0.999999987               0.000000000               0.001398355               0.999999987              -0.000000000               0.001419685               0.999999987               0.000000000               0.001444886               0.999999987               0.000000000               0.001473403               0.999999987              -0.000000000               0.001504739               0.999999987              -0.000000000               0.001538274               0.999999987              -0.000000000               0.001573141               0.999999987               0.000000000               0.001608719               0.999999987              -0.000000000               0.001644467               0.999999987              -0.000000000               0.001679844               0.999999987              -0.000000000               0.001714240               0.999999987               0.000000000               0.001746793               0.999999987               0.000000000               0.001776589               0.999999987              -0.000915799              -0.000000000               0.999999987              -0.000963436              -0.000000000               0.999999987              -0.000982730               0.000000000               0.999999987              -0.000992771               0.000000000               0.999999987              -0.001000338               0.000000000               0.999999987              -0.001007910              -0.000000000               0.999999987              -0.001016455              -0.000000000               0.999999987              -0.001026038               0.000000000               0.999999987              -0.001036539              -0.000000000               0.999999987              -0.001047571              -0.000000000               0.999999987              -0.001058741               0.000000000               0.999999987              -0.001069651               0.000000000               0.999999987              -0.001080069               0.000000000               0.999999987              -0.001089402              -0.000000000               0.999999987              -0.001096963              -0.000000000               0.999999987              -0.001102092              -0.000000000               0.999999987              -0.001103855              -0.000000000               0.999999987              -0.000910602              -0.000125704               0.999999987              -0.000953983              -0.000098808               0.999999987              -0.000970602              -0.000086347               0.999999987              -0.000978938              -0.000080765               0.999999987              -0.000985377              -0.000078517               0.999999987              -0.000992057              -0.000078020               0.999999987              -0.000999719              -0.000078078               0.999999987              -0.001008415              -0.000077869               0.999999987              -0.001017818              -0.000077000               0.999999987              -0.001027536              -0.000074992               0.999999987              -0.001037153              -0.000071584               0.999999987              -0.001046299              -0.000066627               0.999999987              -0.001054593              -0.000059679               0.999999987              -0.001061557              -0.000050125               0.999999987              -0.001066642              -0.000037277               0.999999987              -0.001069160              -0.000020210               0.999999987              -0.001068452               0.000002115               0.999999987              -0.000895272              -0.000250169               0.999999987              -0.000926331              -0.000197351               0.999999987              -0.000935434              -0.000173727               0.999999987              -0.000939058              -0.000163694               0.999999987              -0.000942307              -0.000160157               0.999999987              -0.000946568              -0.000159657               0.999999987              -0.000951998              -0.000160134               0.999999987              -0.000958157              -0.000159970               0.999999987              -0.000964471              -0.000158180               0.999999987              -0.000970506              -0.000154221               0.999999987              -0.000975777              -0.000147465               0.999999987              -0.000979972              -0.000137862               0.999999987              -0.000982670              -0.000124361               0.999999987              -0.000983332              -0.000105981               0.999999987              -0.000981581              -0.000081872               0.999999987              -0.000977042              -0.000050967               0.999999987              -0.000969590              -0.000011784               0.999999987              -0.000870135              -0.000372331               0.999999987              -0.000881913              -0.000295421               0.999999987              -0.000880062              -0.000263019               0.999999987              -0.000877276              -0.000250541               0.999999987              -0.000876380              -0.000247107               0.999999987              -0.000877372              -0.000247548               0.999999987              -0.000879629              -0.000248760               0.999999987              -0.000882058              -0.000248573               0.999999987              -0.000883873              -0.000245899               0.999999987              -0.000884568              -0.000239933               0.999999987              -0.000883638              -0.000230113               0.999999987              -0.000880591              -0.000216025               0.999999987              -0.000875040              -0.000196736               0.999999987              -0.000866693              -0.000171192               0.999999987              -0.000855418              -0.000138734               0.999999987              -0.000841422              -0.000098598               0.999999987              -0.000825145              -0.000050452               0.999999987              -0.000835524              -0.000491179               0.999999987              -0.000822785              -0.000393118               0.999999987              -0.000808715              -0.000354956               0.999999987              -0.000799549              -0.000342197               0.999999987              -0.000794751              -0.000340148               0.999999987              -0.000792507              -0.000342190               0.999999987              -0.000791039              -0.000344406               0.999999987              -0.000788983              -0.000344275               0.999999987              -0.000785460              -0.000340635               0.999999987              -0.000779682              -0.000332701               0.999999987              -0.000771035              -0.000319915               0.999999987              -0.000759090              -0.000301746               0.999999987              -0.000743671              -0.000277709               0.999999987              -0.000724919              -0.000247008               0.999999987              -0.000703174              -0.000209417               0.999999987              -0.000679061              -0.000165422               0.999999987              -0.000653620              -0.000115823               0.999999987              -0.000792191              -0.000605529               0.999999987              -0.000752001              -0.000490623               0.999999987              -0.000726695              -0.000449788               0.999999987              -0.000712706              -0.000438433               0.999999987              -0.000705096              -0.000438641               0.999999987              -0.000700074              -0.000442483               0.999999987              -0.000694959              -0.000445506               0.999999987              -0.000688148              -0.000445413               0.999999987              -0.000678486              -0.000440848               0.999999987              -0.000665191              -0.000430962               0.999999987              -0.000647786              -0.000415299               0.999999987              -0.000626121              -0.000393484               0.999999987              -0.000600458              -0.000365611               0.999999987              -0.000571295              -0.000331797               0.999999987              -0.000539458              -0.000292157               0.999999987              -0.000505923              -0.000248024               0.999999987              -0.000471742              -0.000201219               0.999999987              -0.000741158              -0.000714193               0.999999987              -0.000673351              -0.000587872               0.999999987              -0.000639565              -0.000546980               0.999999987              -0.000623007              -0.000538123               0.999999987              -0.000613963              -0.000540835               0.999999987              -0.000606781              -0.000546200               0.999999987              -0.000598048              -0.000549815               0.999999987              -0.000585990              -0.000549645               0.999999987              -0.000569514              -0.000544000               0.999999987              -0.000547924              -0.000532122               0.999999987              -0.000521251              -0.000513845               0.999999987              -0.000489677              -0.000488982               0.999999987              -0.000453684              -0.000458480               0.999999987              -0.000414235              -0.000422982               0.999999987              -0.000372340              -0.000383363               0.999999987              -0.000329135              -0.000341240               0.999999987              -0.000285484              -0.000298351               0.999999987              -0.000683524              -0.000816105               0.999999987              -0.000590592              -0.000684600               0.999999987              -0.000552089              -0.000645549               0.999999987              -0.000535669              -0.000639251               0.999999987              -0.000526396              -0.000644122               0.999999987              -0.000517275              -0.000650795               0.999999987              -0.000504610              -0.000654919               0.999999987              -0.000486771              -0.000654485               0.999999987              -0.000462760              -0.000647588               0.999999987              -0.000432204              -0.000633796               0.999999987              -0.000395374              -0.000613121               0.999999987              -0.000352771              -0.000586157               0.999999987              -0.000305527              -0.000554201               0.999999987              -0.000254763              -0.000518648               0.999999987              -0.000201805              -0.000480661               0.999999987              -0.000148014              -0.000441920               0.999999987              -0.000094094              -0.000403259               0.999999987              -0.000621258              -0.000909401               0.999999987              -0.000506545              -0.000780629               0.999999987              -0.000468596              -0.000743902               0.999999987              -0.000454308              -0.000739542               0.999999987              -0.000445540              -0.000746041               0.999999987              -0.000434284              -0.000753838               0.999999987              -0.000417367              -0.000758372               0.999999987              -0.000392982              -0.000757291               0.999999987              -0.000360329              -0.000749115               0.999999987              -0.000319462              -0.000733526               0.999999987              -0.000270936              -0.000710922               0.999999987              -0.000216019              -0.000682634               0.999999987              -0.000156004              -0.000650585               0.999999987              -0.000092741              -0.000616581               0.999999987              -0.000028125              -0.000582087               0.999999987               0.000036503              -0.000548257               0.999999987               0.000100848              -0.000515277               0.999999987              -0.000556787              -0.000997906               0.999999987              -0.000435806              -0.000888805               0.999999987              -0.000395688              -0.000849150               0.999999987              -0.000381291              -0.000840725               0.999999987              -0.000373774              -0.000845157               0.999999987              -0.000365041              -0.000853548               0.999999987              -0.000351777              -0.000861351               0.999999987              -0.000331894              -0.000865933               0.999999987              -0.000304423              -0.000865751               0.999999987              -0.000269177              -0.000859954               0.999999987              -0.000226427              -0.000848143               0.999999987              -0.000176493              -0.000830909               0.999999987              -0.000120106              -0.000809414               0.999999987              -0.000058711              -0.000785237               0.999999987               0.000005931              -0.000760008               0.999999987               0.000071963              -0.000735149               0.999999987               0.000137781              -0.000711406               0.999999987              -0.000486616              -0.001078721               0.999999987              -0.000367505              -0.000993618               0.999999987              -0.000325425              -0.000957209               0.999999987              -0.000310096              -0.000946958               0.999999987              -0.000302982              -0.000950148               0.999999987              -0.000296143              -0.000959149               0.999999987              -0.000285880              -0.000969690               0.999999987              -0.000270021              -0.000979235               0.999999987              -0.000247278              -0.000986038               0.999999987              -0.000217460              -0.000989135               0.999999987              -0.000180654              -0.000987488               0.999999987              -0.000136596              -0.000981048               0.999999987              -0.000085299              -0.000970262               0.999999987              -0.000027327              -0.000956230               0.999999987               0.000035916              -0.000940194               0.999999987               0.000102438              -0.000923664               0.999999987               0.000170467              -0.000907814               0.999999987              -0.000412143              -0.001149773               0.999999987              -0.000301639              -0.001091935               0.999999987              -0.000259497              -0.001063043               0.999999987              -0.000243014              -0.001054198               0.999999987              -0.000235775              -0.001057593               0.999999987              -0.000229938              -0.001067652               0.999999987              -0.000221970              -0.001080838               0.999999987              -0.000209405              -0.001094874               0.999999987              -0.000191066              -0.001107882               0.999999987              -0.000166478              -0.001118707               0.999999987              -0.000135590              -0.001126575               0.999999987              -0.000097896              -0.001130704               0.999999987              -0.000052958              -0.001130903               0.999999987              -0.000000372              -0.001127627               0.999999987               0.000059418              -0.001121676               0.999999987               0.000125009              -0.001114314               0.999999987               0.000194862              -0.001106609               0.999999987              -0.000334073              -0.001209719               0.999999987              -0.000238245              -0.001179621               0.999999987              -0.000198705              -0.001161458               0.999999987              -0.000181979              -0.001156565               0.999999987              -0.000174283              -0.001162040               0.999999987              -0.000168983              -0.001174150               0.999999987              -0.000162576              -0.001190253               0.999999987              -0.000152939              -0.001208312               0.999999987              -0.000138571              -0.001226859               0.999999987              -0.000119013              -0.001244675               0.999999987              -0.000094043              -0.001260896               0.999999987              -0.000063096              -0.001274694               0.999999987              -0.000025455              -0.001285582               0.999999987               0.000019944              -0.001293360               0.999999987               0.000073459              -0.001298304               0.999999987               0.000134783              -0.001301081               0.999999987               0.000203691              -0.001302580               0.999999987              -0.000253058              -0.001257480               0.999999987              -0.000177021              -0.001252475               0.999999987              -0.000143308              -0.001246359               0.999999987              -0.000127891              -0.001247472               0.999999987              -0.000120341              -0.001256201               0.999999987              -0.000115568              -0.001271139               0.999999987              -0.000110417              -0.001290365               0.999999987              -0.000103190              -0.001312483               0.999999987              -0.000092411              -0.001336166               0.999999987              -0.000077656              -0.001360157               0.999999987              -0.000058728              -0.001383609               0.999999987              -0.000035066              -0.001405833               0.999999987              -0.000005620              -0.001426326               0.999999987               0.000030674              -0.001444456               0.999999987               0.000074860              -0.001460120               0.999999987               0.000127781              -0.001473406               0.999999987               0.000190104              -0.001484694               0.999999987              -0.000169890              -0.001291998               0.999999987              -0.000117291              -0.001307023               0.999999987              -0.000092643              -0.001311919               0.999999987              -0.000080694              -0.001319333               0.999999987              -0.000074445              -0.001331990               0.999999987              -0.000070520              -0.001349909               0.999999987              -0.000066698              -0.001372151               0.999999987              -0.000061783              -0.001397746               0.999999987              -0.000054661              -0.001425525               0.999999987              -0.000044837              -0.001454483               0.999999987              -0.000032027              -0.001483859               0.999999987              -0.000015848              -0.001513001               0.999999987               0.000004301              -0.001541272               0.999999987               0.000029527              -0.001568071               0.999999987               0.000061296              -0.001592980               0.999999987               0.000100827              -0.001615747               0.999999987               0.000149427              -0.001636219               0.999999987              -0.000085299              -0.001312843               0.999999987              -0.000058414              -0.001340667               0.999999987              -0.000045432              -0.001353330               0.999999987              -0.000038879              -0.001365464               0.999999987              -0.000035279              -0.001381276               0.999999987              -0.000033027              -0.001401608               0.999999987              -0.000030912              -0.001426013               0.999999987              -0.000028405              -0.001453893               0.999999987              -0.000024919              -0.001484358               0.999999987              -0.000020081              -0.001516637               0.999999987              -0.000013517              -0.001550045               0.999999987              -0.000005255              -0.001583933               0.999999987               0.000004789              -0.001617628               0.999999987               0.000017758              -0.001650607               0.999999987               0.000034551              -0.001682244               0.999999987               0.000055943              -0.001711985               0.999999987               0.000083173              -0.001739205               0.999999987               0.000000000              -0.001319890               0.999999987              -0.000000000              -0.001352013               0.999999987               0.000000000              -0.001367391               0.999999987               0.000000000              -0.001381334               0.999999987              -0.000000000              -0.001398355               0.999999987              -0.000000000              -0.001419685               0.999999987               0.000000000              -0.001444886               0.999999987              -0.000000000              -0.001473403               0.999999987              -0.000000000              -0.001504739               0.999999987              -0.000000000              -0.001538274               0.999999987               0.000000000              -0.001573141               0.999999987              -0.000000000              -0.001608719               0.999999987               0.000000000              -0.001644467               0.999999987              -0.000000000              -0.001679844               0.999999987               0.000000000              -0.001714240               0.999999987               0.000000000              -0.001746793               0.999999987              -0.000000000              -0.001776589               0.999999987               0.000915799              -0.000000000               0.999999987               0.000963436              -0.000000000               0.999999987               0.000982730               0.000000000               0.999999987               0.000992771              -0.000000000               0.999999987               0.001000338               0.000000000               0.999999987               0.001007910               0.000000000               0.999999987               0.001016455               0.000000000               0.999999987               0.001026038               0.000000000               0.999999987               0.001036539              -0.000000000               0.999999987               0.001047571               0.000000000               0.999999987               0.001058741              -0.000000000               0.999999987               0.001069651               0.000000000               0.999999987               0.001080069              -0.000000000               0.999999987               0.001089402               0.000000000               0.999999987               0.001096963               0.000000000               0.999999987               0.001102092              -0.000000000               0.999999987               0.001103855              -0.000000000               0.999999987               0.000910602              -0.000125704               0.999999987               0.000953983              -0.000098808               0.999999987               0.000970602              -0.000086347               0.999999987               0.000978938              -0.000080765               0.999999987               0.000985377              -0.000078517               0.999999987               0.000992057              -0.000078020               0.999999987               0.000999719              -0.000078078               0.999999987               0.001008415              -0.000077869               0.999999987               0.001017818              -0.000077000               0.999999987               0.001027536              -0.000074992               0.999999987               0.001037153              -0.000071584               0.999999987               0.001046299              -0.000066627               0.999999987               0.001054593              -0.000059679               0.999999987               0.001061557              -0.000050125               0.999999987               0.001066642              -0.000037277               0.999999987               0.001069160              -0.000020210               0.999999987               0.001068452               0.000002115               0.999999987               0.000895272              -0.000250169               0.999999987               0.000926331              -0.000197351               0.999999987               0.000935434              -0.000173727               0.999999987               0.000939058              -0.000163694               0.999999987               0.000942307              -0.000160157               0.999999987               0.000946568              -0.000159657               0.999999987               0.000951998              -0.000160134               0.999999987               0.000958157              -0.000159970               0.999999987               0.000964471              -0.000158180               0.999999987               0.000970506              -0.000154221               0.999999987               0.000975777              -0.000147465               0.999999987               0.000979972              -0.000137862               0.999999987               0.000982670              -0.000124361               0.999999987               0.000983332              -0.000105981               0.999999987               0.000981581              -0.000081872               0.999999987               0.000977042              -0.000050967               0.999999987               0.000969590              -0.000011784               0.999999987               0.000870135              -0.000372331               0.999999987               0.000881913              -0.000295421               0.999999987               0.000880062              -0.000263019               0.999999987               0.000877276              -0.000250541               0.999999987               0.000876380              -0.000247107               0.999999987               0.000877372              -0.000247548               0.999999987               0.000879629              -0.000248760               0.999999987               0.000882058              -0.000248573               0.999999987               0.000883873              -0.000245899               0.999999987               0.000884568              -0.000239933               0.999999987               0.000883638              -0.000230113               0.999999987               0.000880591              -0.000216025               0.999999987               0.000875040              -0.000196736               0.999999987               0.000866693              -0.000171192               0.999999987               0.000855418              -0.000138734               0.999999987               0.000841422              -0.000098598               0.999999987               0.000825145              -0.000050452               0.999999987               0.000835524              -0.000491179               0.999999987               0.000822785              -0.000393118               0.999999987               0.000808715              -0.000354956               0.999999987               0.000799549              -0.000342197               0.999999987               0.000794751              -0.000340148               0.999999987               0.000792507              -0.000342190               0.999999987               0.000791039              -0.000344406               0.999999987               0.000788983              -0.000344275               0.999999987               0.000785460              -0.000340635               0.999999987               0.000779682              -0.000332701               0.999999987               0.000771035              -0.000319915               0.999999987               0.000759090              -0.000301746               0.999999987               0.000743671              -0.000277709               0.999999987               0.000724919              -0.000247008               0.999999987               0.000703174              -0.000209417               0.999999987               0.000679061              -0.000165422               0.999999987               0.000653620              -0.000115823               0.999999987               0.000792191              -0.000605529               0.999999987               0.000752001              -0.000490623               0.999999987               0.000726695              -0.000449788               0.999999987               0.000712706              -0.000438433               0.999999987               0.000705096              -0.000438641               0.999999987               0.000700074              -0.000442483               0.999999987               0.000694959              -0.000445506               0.999999987               0.000688148              -0.000445413               0.999999987               0.000678486              -0.000440848               0.999999987               0.000665191              -0.000430962               0.999999987               0.000647786              -0.000415299               0.999999987               0.000626121              -0.000393484               0.999999987               0.000600458              -0.000365611               0.999999987               0.000571295              -0.000331797               0.999999987               0.000539458              -0.000292157               0.999999987               0.000505923              -0.000248024               0.999999987               0.000471742              -0.000201219               0.999999987               0.000741158              -0.000714193               0.999999987               0.000673351              -0.000587872               0.999999987               0.000639565              -0.000546980               0.999999987               0.000623007              -0.000538123               0.999999987               0.000613963              -0.000540835               0.999999987               0.000606781              -0.000546200               0.999999987               0.000598048              -0.000549815               0.999999987               0.000585990              -0.000549645               0.999999987               0.000569514              -0.000544000               0.999999987               0.000547924              -0.000532122               0.999999987               0.000521251              -0.000513845               0.999999987               0.000489677              -0.000488982               0.999999987               0.000453684              -0.000458480               0.999999987               0.000414235              -0.000422982               0.999999987               0.000372340              -0.000383363               0.999999987               0.000329135              -0.000341240               0.999999987               0.000285484              -0.000298351               0.999999987               0.000683524              -0.000816105               0.999999987               0.000590592              -0.000684600               0.999999987               0.000552089              -0.000645549               0.999999987               0.000535669              -0.000639251               0.999999987               0.000526396              -0.000644122               0.999999987               0.000517275              -0.000650795               0.999999987               0.000504610              -0.000654919               0.999999987               0.000486771              -0.000654485               0.999999987               0.000462760              -0.000647588               0.999999987               0.000432204              -0.000633796               0.999999987               0.000395374              -0.000613121               0.999999987               0.000352771              -0.000586157               0.999999987               0.000305527              -0.000554201               0.999999987               0.000254763              -0.000518648               0.999999987               0.000201805              -0.000480661               0.999999987               0.000148014              -0.000441920               0.999999987               0.000094094              -0.000403259               0.999999987               0.000621258              -0.000909401               0.999999987               0.000506545              -0.000780629               0.999999987               0.000468596              -0.000743902               0.999999987               0.000454308              -0.000739542               0.999999987               0.000445540              -0.000746041               0.999999987               0.000434284              -0.000753838               0.999999987               0.000417367              -0.000758372               0.999999987               0.000392982              -0.000757291               0.999999987               0.000360329              -0.000749115               0.999999987               0.000319462              -0.000733526               0.999999987               0.000270936              -0.000710922               0.999999987               0.000216019              -0.000682634               0.999999987               0.000156004              -0.000650585               0.999999987               0.000092741              -0.000616581               0.999999987               0.000028125              -0.000582087               0.999999987              -0.000036503              -0.000548257               0.999999987              -0.000100848              -0.000515277               0.999999987               0.000556787              -0.000997906               0.999999987               0.000435806              -0.000888805               0.999999987               0.000395688              -0.000849150               0.999999987               0.000381291              -0.000840725               0.999999987               0.000373774              -0.000845157               0.999999987               0.000365041              -0.000853548               0.999999987               0.000351777              -0.000861351               0.999999987               0.000331894              -0.000865933               0.999999987               0.000304423              -0.000865751               0.999999987               0.000269177              -0.000859954               0.999999987               0.000226427              -0.000848143               0.999999987               0.000176493              -0.000830909               0.999999987               0.000120106              -0.000809414               0.999999987               0.000058711              -0.000785237               0.999999987              -0.000005931              -0.000760008               0.999999987              -0.000071963              -0.000735149               0.999999987              -0.000137781              -0.000711406               0.999999987               0.000486616              -0.001078721               0.999999987               0.000367505              -0.000993618               0.999999987               0.000325425              -0.000957209               0.999999987               0.000310096              -0.000946958               0.999999987               0.000302982              -0.000950148               0.999999987               0.000296143              -0.000959149               0.999999987               0.000285880              -0.000969690               0.999999987               0.000270021              -0.000979235               0.999999987               0.000247278              -0.000986038               0.999999987               0.000217460              -0.000989135               0.999999987               0.000180654              -0.000987488               0.999999987               0.000136596              -0.000981048               0.999999987               0.000085299              -0.000970262               0.999999987               0.000027327              -0.000956230               0.999999987              -0.000035916              -0.000940194               0.999999987              -0.000102438              -0.000923664               0.999999987              -0.000170467              -0.000907814               0.999999987               0.000412143              -0.001149773               0.999999987               0.000301639              -0.001091935               0.999999987               0.000259497              -0.001063043               0.999999987               0.000243014              -0.001054198               0.999999987               0.000235775              -0.001057593               0.999999987               0.000229938              -0.001067652               0.999999987               0.000221970              -0.001080838               0.999999987               0.000209405              -0.001094874               0.999999987               0.000191066              -0.001107882               0.999999987               0.000166478              -0.001118707               0.999999987               0.000135590              -0.001126575               0.999999987               0.000097896              -0.001130704               0.999999987               0.000052958              -0.001130903               0.999999987               0.000000372              -0.001127627               0.999999987              -0.000059418              -0.001121676               0.999999987              -0.000125009              -0.001114314               0.999999987              -0.000194862              -0.001106609               0.999999987               0.000334073              -0.001209719               0.999999987               0.000238245              -0.001179621               0.999999987               0.000198705              -0.001161458               0.999999987               0.000181979              -0.001156565               0.999999987               0.000174283              -0.001162040               0.999999987               0.000168983              -0.001174150               0.999999987               0.000162576              -0.001190253               0.999999987               0.000152939              -0.001208312               0.999999987               0.000138571              -0.001226859               0.999999987               0.000119013              -0.001244675               0.999999987               0.000094043              -0.001260896               0.999999987               0.000063096              -0.001274694               0.999999987               0.000025455              -0.001285582               0.999999987              -0.000019944              -0.001293360               0.999999987              -0.000073459              -0.001298304               0.999999987              -0.000134783              -0.001301081               0.999999987              -0.000203691              -0.001302580               0.999999987               0.000253058              -0.001257480               0.999999987               0.000177021              -0.001252475               0.999999987               0.000143308              -0.001246359               0.999999987               0.000127891              -0.001247472               0.999999987               0.000120341              -0.001256201               0.999999987               0.000115568              -0.001271139               0.999999987               0.000110417              -0.001290365               0.999999987               0.000103190              -0.001312483               0.999999987               0.000092411              -0.001336166               0.999999987               0.000077656              -0.001360157               0.999999987               0.000058728              -0.001383609               0.999999987               0.000035066              -0.001405833               0.999999987               0.000005620              -0.001426326               0.999999987              -0.000030674              -0.001444456               0.999999987              -0.000074860              -0.001460120               0.999999987              -0.000127781              -0.001473406               0.999999987              -0.000190104              -0.001484694               0.999999987               0.000169890              -0.001291998               0.999999987               0.000117291              -0.001307023               0.999999987               0.000092643              -0.001311919               0.999999987               0.000080694              -0.001319333               0.999999987               0.000074445              -0.001331990               0.999999987               0.000070520              -0.001349909               0.999999987               0.000066698              -0.001372151               0.999999987               0.000061783              -0.001397746               0.999999987               0.000054661              -0.001425525               0.999999987               0.000044837              -0.001454483               0.999999987               0.000032027              -0.001483859               0.999999987               0.000015848              -0.001513001               0.999999987              -0.000004301              -0.001541272               0.999999987              -0.000029527              -0.001568071               0.999999987              -0.000061296              -0.001592980               0.999999987              -0.000100827              -0.001615747               0.999999987              -0.000149427              -0.001636219               0.999999987               0.000085299              -0.001312843               0.999999987               0.000058414              -0.001340667               0.999999987               0.000045432              -0.001353330               0.999999987               0.000038879              -0.001365464               0.999999987               0.000035279              -0.001381276               0.999999987               0.000033027              -0.001401608               0.999999987               0.000030912              -0.001426013               0.999999987               0.000028405              -0.001453893               0.999999987               0.000024919              -0.001484358               0.999999987               0.000020081              -0.001516637               0.999999987               0.000013517              -0.001550045               0.999999987               0.000005255              -0.001583933               0.999999987              -0.000004789              -0.001617628               0.999999987              -0.000017758              -0.001650607               0.999999987              -0.000034551              -0.001682244               0.999999987              -0.000055943              -0.001711985               0.999999987              -0.000083173              -0.001739205               0.999999987               0.000000000              -0.001319890               0.999999987              -0.000000000              -0.001352013               0.999999987               0.000000000              -0.001367391               0.999999987               0.000000000              -0.001381334               0.999999987              -0.000000000              -0.001398355               0.999999987              -0.000000000              -0.001419685               0.999999987               0.000000000              -0.001444886               0.999999987              -0.000000000              -0.001473403               0.999999987              -0.000000000              -0.001504739               0.999999987              -0.000000000              -0.001538274               0.999999987               0.000000000              -0.001573141               0.999999987              -0.000000000              -0.001608719               0.999999987               0.000000000              -0.001644467               0.999999987              -0.000000000              -0.001679844               0.999999987               0.000000000              -0.001714240               0.999999987               0.000000000              -0.001746793               0.999999987              -0.000000000              -0.001776589               0.999999987               0.000915799              -0.000000000               0.999999987               0.000963436              -0.000000000               0.999999987               0.000982730               0.000000000               0.999999987               0.000992771              -0.000000000               0.999999987               0.001000338               0.000000000               0.999999987               0.001007910               0.000000000               0.999999987               0.001016455               0.000000000               0.999999987               0.001026038               0.000000000               0.999999987               0.001036539              -0.000000000               0.999999987               0.001047571               0.000000000               0.999999987               0.001058741              -0.000000000               0.999999987               0.001069651               0.000000000               0.999999987               0.001080069              -0.000000000               0.999999987               0.001089402               0.000000000               0.999999987               0.001096963               0.000000000               0.999999987               0.001102092              -0.000000000               0.999999987               0.001103855              -0.000000000               0.999999987               0.000910602               0.000125704               0.999999987               0.000953983               0.000098808               0.999999987               0.000970602               0.000086347               0.999999987               0.000978938               0.000080765               0.999999987               0.000985377               0.000078517               0.999999987               0.000992057               0.000078020               0.999999987               0.000999719               0.000078078               0.999999987               0.001008415               0.000077869               0.999999987               0.001017818               0.000077000               0.999999987               0.001027536               0.000074992               0.999999987               0.001037153               0.000071584               0.999999987               0.001046299               0.000066627               0.999999987               0.001054593               0.000059679               0.999999987               0.001061557               0.000050125               0.999999987               0.001066642               0.000037277               0.999999987               0.001069160               0.000020210               0.999999987               0.001068452              -0.000002115               0.999999987               0.000895272               0.000250169               0.999999987               0.000926331               0.000197351               0.999999987               0.000935434               0.000173727               0.999999987               0.000939058               0.000163694               0.999999987               0.000942307               0.000160157               0.999999987               0.000946568               0.000159657               0.999999987               0.000951998               0.000160134               0.999999987               0.000958157               0.000159970               0.999999987               0.000964471               0.000158180               0.999999987               0.000970506               0.000154221               0.999999987               0.000975777               0.000147465               0.999999987               0.000979972               0.000137862               0.999999987               0.000982670               0.000124361               0.999999987               0.000983332               0.000105981               0.999999987               0.000981581               0.000081872               0.999999987               0.000977042               0.000050967               0.999999987               0.000969590               0.000011784               0.999999987               0.000870135               0.000372331               0.999999987               0.000881913               0.000295421               0.999999987               0.000880062               0.000263019               0.999999987               0.000877276               0.000250541               0.999999987               0.000876380               0.000247107               0.999999987               0.000877372               0.000247548               0.999999987               0.000879629               0.000248760               0.999999987               0.000882058               0.000248573               0.999999987               0.000883873               0.000245899               0.999999987               0.000884568               0.000239933               0.999999987               0.000883638               0.000230113               0.999999987               0.000880591               0.000216025               0.999999987               0.000875040               0.000196736               0.999999987               0.000866693               0.000171192               0.999999987               0.000855418               0.000138734               0.999999987               0.000841422               0.000098598               0.999999987               0.000825145               0.000050452               0.999999987               0.000835524               0.000491179               0.999999987               0.000822785               0.000393118               0.999999987               0.000808715               0.000354956               0.999999987               0.000799549               0.000342197               0.999999987               0.000794751               0.000340148               0.999999987               0.000792507               0.000342190               0.999999987               0.000791039               0.000344406               0.999999987               0.000788983               0.000344275               0.999999987               0.000785460               0.000340635               0.999999987               0.000779682               0.000332701               0.999999987               0.000771035               0.000319915               0.999999987               0.000759090               0.000301746               0.999999987               0.000743671               0.000277709               0.999999987               0.000724919               0.000247008               0.999999987               0.000703174               0.000209417               0.999999987               0.000679061               0.000165422               0.999999987               0.000653620               0.000115823               0.999999987               0.000792191               0.000605529               0.999999987               0.000752001               0.000490623               0.999999987               0.000726695               0.000449788               0.999999987               0.000712706               0.000438433               0.999999987               0.000705096               0.000438641               0.999999987               0.000700074               0.000442483               0.999999987               0.000694959               0.000445506               0.999999987               0.000688148               0.000445413               0.999999987               0.000678486               0.000440848               0.999999987               0.000665191               0.000430962               0.999999987               0.000647786               0.000415299               0.999999987               0.000626121               0.000393484               0.999999987               0.000600458               0.000365611               0.999999987               0.000571295               0.000331797               0.999999987               0.000539458               0.000292157               0.999999987               0.000505923               0.000248024               0.999999987               0.000471742               0.000201219               0.999999987               0.000741158               0.000714193               0.999999987               0.000673351               0.000587872               0.999999987               0.000639565               0.000546980               0.999999987               0.000623007               0.000538123               0.999999987               0.000613963               0.000540835               0.999999987               0.000606781               0.000546200               0.999999987               0.000598048               0.000549815               0.999999987               0.000585990               0.000549645               0.999999987               0.000569514               0.000544000               0.999999987               0.000547924               0.000532122               0.999999987               0.000521251               0.000513845               0.999999987               0.000489677               0.000488982               0.999999987               0.000453684               0.000458480               0.999999987               0.000414235               0.000422982               0.999999987               0.000372340               0.000383363               0.999999987               0.000329135               0.000341240               0.999999987               0.000285484               0.000298351               0.999999987               0.000683524               0.000816105               0.999999987               0.000590592               0.000684600               0.999999987               0.000552089               0.000645549               0.999999987               0.000535669               0.000639251               0.999999987               0.000526396               0.000644122               0.999999987               0.000517275               0.000650795               0.999999987               0.000504610               0.000654919               0.999999987               0.000486771               0.000654485               0.999999987               0.000462760               0.000647588               0.999999987               0.000432204               0.000633796               0.999999987               0.000395374               0.000613121               0.999999987               0.000352771               0.000586157               0.999999987               0.000305527               0.000554201               0.999999987               0.000254763               0.000518648               0.999999987               0.000201805               0.000480661               0.999999987               0.000148014               0.000441920               0.999999987               0.000094094               0.000403259               0.999999987               0.000621258               0.000909401               0.999999987               0.000506545               0.000780629               0.999999987               0.000468596               0.000743902               0.999999987               0.000454308               0.000739542               0.999999987               0.000445540               0.000746041               0.999999987               0.000434284               0.000753838               0.999999987               0.000417367               0.000758372               0.999999987               0.000392982               0.000757291               0.999999987               0.000360329               0.000749115               0.999999987               0.000319462               0.000733526               0.999999987               0.000270936               0.000710922               0.999999987               0.000216019               0.000682634               0.999999987               0.000156004               0.000650585               0.999999987               0.000092741               0.000616581               0.999999987               0.000028125               0.000582087               0.999999987              -0.000036503               0.000548257               0.999999987              -0.000100848               0.000515277               0.999999987               0.000556787               0.000997906               0.999999987               0.000435806               0.000888805               0.999999987               0.000395688               0.000849150               0.999999987               0.000381291               0.000840725               0.999999987               0.000373774               0.000845157               0.999999987               0.000365041               0.000853548               0.999999987               0.000351777               0.000861351               0.999999987               0.000331894               0.000865933               0.999999987               0.000304423               0.000865751               0.999999987               0.000269177               0.000859954               0.999999987               0.000226427               0.000848143               0.999999987               0.000176493               0.000830909               0.999999987               0.000120106               0.000809414               0.999999987               0.000058711               0.000785237               0.999999987              -0.000005931               0.000760008               0.999999987              -0.000071963               0.000735149               0.999999987              -0.000137781               0.000711406               0.999999987               0.000486616               0.001078721               0.999999987               0.000367505               0.000993618               0.999999987               0.000325425               0.000957209               0.999999987               0.000310096               0.000946958               0.999999987               0.000302982               0.000950148               0.999999987               0.000296143               0.000959149               0.999999987               0.000285880               0.000969690               0.999999987               0.000270021               0.000979235               0.999999987               0.000247278               0.000986038               0.999999987               0.000217460               0.000989135               0.999999987               0.000180654               0.000987488               0.999999987               0.000136596               0.000981048               0.999999987               0.000085299               0.000970262               0.999999987               0.000027327               0.000956230               0.999999987              -0.000035916               0.000940194               0.999999987              -0.000102438               0.000923664               0.999999987              -0.000170467               0.000907814               0.999999987               0.000412143               0.001149773               0.999999987               0.000301639               0.001091935               0.999999987               0.000259497               0.001063043               0.999999987               0.000243014               0.001054198               0.999999987               0.000235775               0.001057593               0.999999987               0.000229938               0.001067652               0.999999987               0.000221970               0.001080838               0.999999987               0.000209405               0.001094874               0.999999987               0.000191066               0.001107882               0.999999987               0.000166478               0.001118707               0.999999987               0.000135590               0.001126575               0.999999987               0.000097896               0.001130704               0.999999987               0.000052958               0.001130903               0.999999987               0.000000372               0.001127627               0.999999987              -0.000059418               0.001121676               0.999999987              -0.000125009               0.001114314               0.999999987              -0.000194862               0.001106609               0.999999987               0.000334073               0.001209719               0.999999987               0.000238245               0.001179621               0.999999987               0.000198705               0.001161458               0.999999987               0.000181979               0.001156565               0.999999987               0.000174283               0.001162040               0.999999987               0.000168983               0.001174150               0.999999987               0.000162576               0.001190253               0.999999987               0.000152939               0.001208312               0.999999987               0.000138571               0.001226859               0.999999987               0.000119013               0.001244675               0.999999987               0.000094043               0.001260896               0.999999987               0.000063096               0.001274694               0.999999987               0.000025455               0.001285582               0.999999987              -0.000019944               0.001293360               0.999999987              -0.000073459               0.001298304               0.999999987              -0.000134783               0.001301081               0.999999987              -0.000203691               0.001302580               0.999999987               0.000253058               0.001257480               0.999999987               0.000177021               0.001252475               0.999999987               0.000143308               0.001246359               0.999999987               0.000127891               0.001247472               0.999999987               0.000120341               0.001256201               0.999999987               0.000115568               0.001271139               0.999999987               0.000110417               0.001290365               0.999999987               0.000103190               0.001312483               0.999999987               0.000092411               0.001336166               0.999999987               0.000077656               0.001360157               0.999999987               0.000058728               0.001383609               0.999999987               0.000035066               0.001405833               0.999999987               0.000005620               0.001426326               0.999999987              -0.000030674               0.001444456               0.999999987              -0.000074860               0.001460120               0.999999987              -0.000127781               0.001473406               0.999999987              -0.000190104               0.001484694               0.999999987               0.000169890               0.001291998               0.999999987               0.000117291               0.001307023               0.999999987               0.000092643               0.001311919               0.999999987               0.000080694               0.001319333               0.999999987               0.000074445               0.001331990               0.999999987               0.000070520               0.001349909               0.999999987               0.000066698               0.001372151               0.999999987               0.000061783               0.001397746               0.999999987               0.000054661               0.001425525               0.999999987               0.000044837               0.001454483               0.999999987               0.000032027               0.001483859               0.999999987               0.000015848               0.001513001               0.999999987              -0.000004301               0.001541272               0.999999987              -0.000029527               0.001568071               0.999999987              -0.000061296               0.001592980               0.999999987              -0.000100827               0.001615747               0.999999987              -0.000149427               0.001636219               0.999999987               0.000085299               0.001312843               0.999999987               0.000058414               0.001340667               0.999999987               0.000045432               0.001353330               0.999999987               0.000038879               0.001365464               0.999999987               0.000035279               0.001381276               0.999999987               0.000033027               0.001401608               0.999999987               0.000030912               0.001426013               0.999999987               0.000028405               0.001453893               0.999999987               0.000024919               0.001484358               0.999999987               0.000020081               0.001516637               0.999999987               0.000013517               0.001550045               0.999999987               0.000005255               0.001583933               0.999999987              -0.000004789               0.001617628               0.999999987              -0.000017758               0.001650607               0.999999987              -0.000034551               0.001682244               0.999999987              -0.000055943               0.001711985               0.999999987              -0.000083173               0.001739205               0.999999987              -0.000000000               0.001319890               0.999999987              -0.000000000               0.001352013               0.999999987              -0.000000000               0.001367391               0.999999987               0.000000000               0.001381334               0.999999987               0.000000000               0.001398355               0.999999987              -0.000000000               0.001419685               0.999999987               0.000000000               0.001444886               0.999999987               0.000000000               0.001473403               0.999999987              -0.000000000               0.001504739               0.999999987              -0.000000000               0.001538274               0.999999987              -0.000000000               0.001573141               0.999999987               0.000000000               0.001608719               0.999999987              -0.000000000               0.001644467               0.999999987              -0.000000000               0.001679844               0.999999987              -0.000000000               0.001714240               0.999999987               0.000000000               0.001746793               0.999999987               0.000000000               0.001776589               0.999999987 </DataArray>
<DataArray type="Float64"                                    Name="defo"                                                      NumberOfComponents=" 3" format="ascii">
             -0.000915799              -0.000000000               0.999999987              -0.000963436              -0.000000000               0.999999987              -0.000982730               0.000000000               0.999999987              -0.000992771               0.000000000               0.999999987              -0.001000338               0.000000000               0.999999987              -0.001007910              -0.000000000               0.999999987              -0.001016455              -0.000000000               0.999999987              -0.001026038               0.000000000               0.999999987              -0.001036539              -0.000000000               0.999999987              -0.001047571              -0.000000000               0.999999987              -0.001058741               0.000000000               0.999999987              -0.001069651               0.000000000               0.999999987              -0.001080069               0.000000000               0.999999987              -0.001089402              -0.000000000               0.999999987              -0.001096963              -0.000000000               0.999999987              -0.001102092              -0.000000000               0.999999987              -0.001103855              -0.000000000               0.999999987              -0.000910602               0.000125704               0.999999987              -0.000953983               0.000098808               0.999999987              -0.000970602               0.000086347               0.999999987              -0.000978938               0.000080765               0.999999987              -0.000985377               0.000078517               0.999999987              -0.000992057               0.000078020               0.999999987              -0.000999719               0.000078078               0.999999987              -0.001008415               0.000077869               0.999999987              -0.001017818               0.000077000               0.999999987              -0.001027536               0.000074992               0.999999987              -0.001037153               0.000071584               0.999999987              -0.001046299               0.000066627               0.999999987              -0.001054593               0.000059679               0.999999987              -0.001061557               0.000050125               0.999999987              -0.001066642               0.000037277               0.999999987              -0.001069160               0.000020210               0.999999987              -0.001068452              -0.000002115               0.999999987              -0.000895272               0.000250169               0.999999987              -0.000926331               0.000197351               0.999999987              -0.000935434               0.000173727               0.999999987              -0.000939058               0.000163694               0.999999987              -0.000942307               0.000160157               0.999999987              -0.000946568               0.000159657               0.999999987              -0.000951998               0.000160134               0.999999987              -0.000958157               0.000159970               0.999999987              -0.000964471               0.000158180               0.999999987              -0.000970506               0.000154221               0.999999987              -0.000975777               0.000147465               0.999999987              -0.000979972               0.000137862               0.999999987              -0.000982670               0.000124361               0.999999987              -0.000983332               0.000105981               0.999999987              -0.000981581               0.000081872               0.999999987              -0.000977042               0.000050967               0.999999987              -0.000969590               0.000011784               0.999999987              -0.000870135               0.000372331               0.999999987              -0.000881913               0.000295421               0.999999987              -0.000880062               0.000263019               0.999999987              -0.000877276               0.000250541               0.999999987              -0.000876380               0.000247107               0.999999987              -0.000877372               0.000247548               0.999999987              -0.000879629               0.000248760               0.999999987              -0.000882058               0.000248573               0.999999987              -0.000883873               0.000245899               0.999999987              -0.000884568               0.000239933               0.999999987              -0.000883638               0.000230113               0.999999987              -0.000880591               0.000216025               0.999999987              -0.000875040               0.000196736               0.999999987              -0.000866693               0.000171192               0.999999987              -0.000855418               0.000138734               0.999999987              -0.000841422               0.000098598               0.999999987              -0.000825145               0.000050452               0.999999987              -0.000835524               0.000491179               0.999999987              -0.000822785               0.000393118               0.999999987              -0.000808715               0.000354956               0.999999987              -0.000799549               0.000342197               0.999999987              -0.000794751               0.000340148               0.999999987              -0.000792507               0.000342190               0.999999987              -0.000791039               0.000344406               0.999999987              -0.000788983               0.000344275               0.999999987              -0.000785460               0.000340635               0.999999987              -0.000779682               0.000332701               0.999999987              -0.000771035               0.000319915               0.999999987              -0.000759090               0.000301746               0.999999987              -0.000743671               0.000277709               0.999999987              -0.000724919               0.000247008               0.999999987              -0.000703174               0.000209417               0.999999987              -0.000679061               0.000165422               0.999999987              -0.000653620               0.000115823               0.999999987              -0.000792191               0.000605529               0.999999987              -0.000752001               0.000490623               0.999999987              -0.000726695               0.000449788               0.999999987              -0.000712706               0.000438433               0.999999987              -0.000705096               0.000438641               0.999999987              -0.000700074               0.000442483               0.999999987              -0.000694959               0.000445506               0.999999987              -0.000688148               0.000445413               0.999999987              -0.000678486               0.000440848               0.999999987              -0.000665191               0.000430962               0.999999987              -0.000647786               0.000415299               0.999999987              -0.000626121               0.000393484               0.999999987              -0.000600458               0.000365611               0.999999987              -0.000571295               0.000331797               0.999999987              -0.000539458               0.000292157               0.999999987              -0.000505923               0.000248024               0.999999987              -0.000471742               0.000201219               0.999999987              -0.000741158               0.000714193               0.999999987              -0.000673351               0.000587872               0.999999987              -0.000639565               0.000546980               0.999999987              -0.000623007               0.000538123               0.999999987              -0.000613963               0.000540835               0.999999987              -0.000606781               0.000546200               0.999999987              -0.000598048               0.000549815               0.999999987              -0.000585990               0.000549645               0.999999987              -0.000569514               0.000544000               0.999999987              -0.000547924               0.000532122               0.999999987              -0.000521251               0.000513845               0.999999987              -0.000489677               0.000488982               0.999999987              -0.000453684               0.000458480               0.999999987              -0.000414235               0.000422982               0.999999987              -0.000372340               0.000383363               0.999999987              -0.000329135               0.000341240               0.999999987              -0.000285484               0.000298351               0.999999987              -0.000683524               0.000816105               0.999999987              -0.000590592               0.000684600               0.999999987              -0.000552089               0.000645549               0.999999987              -0.000535669               0.000639251               0.999999987              -0.000526396               0.000644122               0.999999987              -0.000517275               0.000650795               0.999999987              -0.000504610               0.000654919               0.999999987              -0.000486771               0.000654485               0.999999987              -0.000462760               0.000647588               0.999999987              -0.000432204               0.000633796               0.999999987              -0.000395374               0.000613121               0.999999987              -0.000352771               0.000586157               0.999999987              -0.000305527               0.000554201               0.999999987              -0.000254763               0.000518648               0.999999987              -0.000201805               0.000480661               0.999999987              -0.000148014               0.000441920               0.999999987              -0.000094094               0.000403259               0.999999987              -0.000621258               0.000909401               0.999999987              -0.000506545               0.000780629               0.999999987              -0.000468596               0.000743902               0.999999987              -0.000454308               0.000739542               0.999999987              -0.000445540               0.000746041               0.999999987              -0.000434284               0.000753838               0.999999987              -0.000417367               0.000758372               0.999999987              -0.000392982               0.000757291               0.999999987              -0.000360329               0.000749115               0.999999987              -0.000319462               0.000733526               0.999999987              -0.000270936               0.000710922               0.999999987              -0.000216019               0.000682634               0.999999987              -0.000156004               0.000650585               0.999999987              -0.000092741               0.000616581               0.999999987              -0.000028125               0.000582087               0.999999987               0.000036503               0.000548257               0.999999987               0.000100848               0.000515277               0.999999987              -0.000556787               0.000997906               0.999999987              -0.000435806               0.000888805               0.999999987              -0.000395688               0.000849150               0.999999987              -0.000381291               0.000840725               0.999999987              -0.000373774               0.000845157               0.999999987              -0.000365041               0.000853548               0.999999987              -0.000351777               0.000861351               0.999999987              -0.000331894               0.000865933               0.999999987              -0.000304423               0.000865751               0.999999987              -0.000269177               0.000859954               0.999999987              -0.000226427               0.000848143               0.999999987              -0.000176493               0.000830909               0.999999987              -0.000120106               0.000809414               0.999999987              -0.000058711               0.000785237               0.999999987               0.000005931               0.000760008               0.999999987               0.000071963               0.000735149               0.999999987               0.000137781               0.000711406               0.999999987              -0.000486616               0.001078721               0.999999987              -0.000367505               0.000993618               0.999999987              -0.000325425               0.000957209               0.999999987              -0.000310096               0.000946958               0.999999987              -0.000302982               0.000950148               0.999999987              -0.000296143               0.000959149               0.999999987              -0.000285880               0.000969690               0.999999987              -0.000270021               0.000979235               0.999999987              -0.000247278               0.000986038               0.999999987              -0.000217460               0.000989135               0.999999987              -0.000180654               0.000987488               0.999999987              -0.000136596               0.000981048               0.999999987              -0.000085299               0.000970262               0.999999987              -0.000027327               0.000956230               0.999999987               0.000035916               0.000940194               0.999999987               0.000102438               0.000923664               0.999999987               0.000170467               0.000907814               0.999999987              -0.000412143               0.001149773               0.999999987              -0.000301639               0.001091935               0.999999987              -0.000259497               0.001063043               0.999999987              -0.000243014               0.001054198               0.999999987              -0.000235775               0.001057593               0.999999987              -0.000229938               0.001067652               0.999999987              -0.000221970               0.001080838               0.999999987              -0.000209405               0.001094874               0.999999987              -0.000191066               0.001107882               0.999999987              -0.000166478               0.001118707               0.999999987              -0.000135590               0.001126575               0.999999987              -0.000097896               0.001130704               0.999999987              -0.000052958               0.001130903               0.999999987              -0.000000372               0.001127627               0.999999987               0.000059418               0.001121676               0.999999987               0.000125009               0.001114314               0.999999987               0.000194862               0.001106609               0.999999987              -0.000334073               0.001209719               0.999999987              -0.000238245               0.001179621               0.999999987              -0.000198705               0.001161458               0.999999987              -0.000181979               0.001156565               0.999999987              -0.000174283               0.001162040               0.999999987              -0.000168983               0.001174150               0.999999987              -0.000162576               0.001190253               0.999999987              -0.000152939               0.001208312               0.999999987              -0.000138571               0.001226859               0.999999987              -0.000119013               0.001244675               0.999999987              -0.000094043               0.001260896               0.999999987              -0.000063096               0.001274694               0.999999987              -0.000025455               0.001285582               0.999999987               0.000019944               0.001293360               0.999999987               0.000073459               0.001298304               0.999999987               0.000134783               0.001301081               0.999999987               0.000203691               0.001302580               0.999999987              -0.000253058               0.001257480               0.999999987              -0.000177021               0.001252475               0.999999987              -0.000143308               0.001246359               0.999999987              -0.000127891               0.001247472               0.999999987              -0.000120341               0.001256201               0.999999987              -0.000115568               0.001271139               0.999999987              -0.000110417               0.001290365               0.999999987              -0.000103190               0.001312483               0.999999987              -0.000092411               0.001336166               0.999999987              -0.000077656               0.001360157               0.999999987              -0.000058728               0.001383609               0.999999987              -0.000035066               0.001405833               0.999999987              -0.000005620               0.001426326               0.999999987               0.000030674               0.001444456               0.999999987               0.000074860               0.001460120               0.999999987               0.000127781               0.001473406               0.999999987               0.000190104               0.001484694               0.999999987              -0.000169890               0.001291998               0.999999987              -0.000117291               0.001307023               0.999999987              -0.000092643               0.001311919               0.999999987              -0.000080694               0.001319333               0.999999987              -0.000074445               0.001331990               0.999999987              -0.000070520               0.001349909               0.999999987              -0.000066698               0.001372151               0.999999987              -0.000061783               0.001397746               0.999999987              -0.000054661               0.001425525               0.999999987              -0.000044837               0.001454483               0.999999987              -0.000032027               0.001483859               0.999999987              -0.000015848               0.001513001               0.999999987               0.000004301               0.001541272               0.999999987               0.000029527               0.001568071               0.999999987               0.000061296               0.001592980               0.999999987               0.000100827               0.001615747               0.999999987               0.000149427               0.001636219               0.999999987              -0.000085299               0.001312843               0.999999987              -0.000058414               0.001340667               0.999999987              -0.000045432               0.001353330               0.999999987              -0.000038879               0.001365464               0.999999987              -0.000035279               0.001381276               0.999999987              -0.000033027               0.001401608               0.999999987              -0.000030912               0.001426013               0.999999987              -0.000028405               0.001453893               0.999999987              -0.000024919               0.001484358               0.999999987              -0.000020081               0.001516637               0.999999987              -0.000013517               0.001550045               0.999999987              -0.000005255               0.001583933               0.999999987               0.000004789               0.001617628               0.999999987               0.000017758               0.001650607               0.999999987               0.000034551               0.001682244               0.999999987               0.000055943               0.001711985               0.999999987               0.000083173               0.001739205               0.999999987              -0.000000000               0.001319890               0.999999987              -0.000000000               0.001352013               0.999999987              -0.000000000               0.001367391               0.999999987               0.000000000               0.001381334               0.999999987               0.000000000               0.001398355               0.999999987              -0.000000000               0.001419685               0.999999987               0.000000000               0.001444886               0.999999987               0.000000000               0.001473403               0.999999987              -0.000000000               0.001504739               0.999999987              -0.000000000               0.001538274               0.999999987              -0.000000000               0.001573141               0.999999987               0.000000000               0.001608719               0.999999987              -0.000000000               0.001644467               0.999999987              -0.000000000               0.001679844               0.999999987              -0.000000000               0.001714240               0.999999987               0.000000000               0.001746793               0.999999987               0.000000000               0.001776589               0.999999987              -0.000915799              -0.000000000               0.999999987              -0.000963436              -0.000000000               0.999999987              -0.000982730               0.000000000               0.999999987              -0.000992771               0.000000000               0.999999987              -0.001000338               0.000000000               0.999999987              -0.001007910              -0.000000000               0.999999987              -0.001016455              -0.000000000               0.999999987              -0.001026038               0.000000000               0.999999987              -0.001036539              -0.000000000               0.999999987              -0.001047571              -0.000000000               0.999999987              -0.001058741               0.000000000               0.999999987              -0.001069651               0.000000000               0.999999987              -0.001080069               0.000000000               0.999999987              -0.001089402              -0.000000000               0.999999987              -0.001096963              -0.000000000               0.999999987              -0.001102092              -0.000000000               0.999999987              -0.001103855              -0.000000000               0.999999987              -0.000910602              -0.000125704               0.999999987              -0.000953983              -0.000098808               0.999999987              -0.000970602              -0.000086347               0.999999987              -0.000978938              -0.000080765               0.999999987              -0.000985377              -0.000078517               0.999999987              -0.000992057              -0.000078020               0.999999987              -0.000999719              -0.000078078               0.999999987              -0.001008415              -0.000077869               0.999999987              -0.001017818              -0.000077000               0.999999987              -0.001027536              -0.000074992               0.999999987              -0.001037153              -0.000071584               0.999999987              -0.001046299              -0.000066627               0.999999987              -0.001054593              -0.000059679               0.999999987              -0.001061557              -0.000050125               0.999999987              -0.001066642              -0.000037277               0.999999987              -0.001069160              -0.000020210               0.999999987              -0.001068452               0.000002115               0.999999987              -0.000895272              -0.000250169               0.999999987              -0.000926331              -0.000197351               0.999999987              -0.000935434              -0.000173727               0.999999987              -0.000939058              -0.000163694               0.999999987              -0.000942307              -0.000160157               0.999999987              -0.000946568              -0.000159657               0.999999987              -0.000951998              -0.000160134               0.999999987              -0.000958157              -0.000159970               0.999999987              -0.000964471              -0.000158180               0.999999987              -0.000970506              -0.000154221               0.999999987              -0.000975777              -0.000147465               0.999999987              -0.000979972              -0.000137862               0.999999987              -0.000982670              -0.000124361               0.999999987              -0.000983332              -0.000105981               0.999999987              -0.000981581              -0.000081872               0.999999987              -0.000977042              -0.000050967               0.999999987              -0.000969590              -0.000011784               0.999999987              -0.000870135              -0.000372331               0.999999987              -0.000881913              -0.000295421               0.999999987              -0.000880062              -0.000263019               0.999999987              -0.000877276              -0.000250541               0.999999987              -0.000876380              -0.000247107               0.999999987              -0.000877372              -0.000247548               0.999999987              -0.000879629              -0.000248760               0.999999987              -0.000882058              -0.000248573               0.999999987              -0.000883873              -0.000245899               0.999999987              -0.000884568              -0.000239933               0.999999987              -0.000883638              -0.000230113               0.999999987              -0.000880591              -0.000216025               0.999999987              -0.000875040              -0.000196736               0.999999987              -0.000866693              -0.000171192               0.999999987              -0.000855418              -0.000138734               0.999999987              -0.000841422              -0.000098598               0.999999987              -0.000825145              -0.000050452               0.999999987              -0.000835524              -0.000491179               0.999999987              -0.000822785              -0.000393118               0.999999987              -0.000808715              -0.000354956               0.999999987              -0.000799549              -0.000342197               0.999999987              -0.000794751              -0.000340148               0.999999987              -0.000792507              -0.000342190               0.999999987              -0.000791039              -0.000344406               0.999999987              -0.000788983              -0.000344275               0.999999987              -0.000785460              -0.000340635               0.999999987              -0.000779682              -0.000332701               0.999999987              -0.000771035              -0.000319915               0.999999987              -0.000759090              -0.000301746               0.999999987              -0.000743671              -0.000277709               0.999999987              -0.000724919              -0.000247008               0.999999987              -0.000703174              -0.000209417               0.999999987              -0.000679061              -0.000165422               0.999999987              -0.000653620              -0.000115823               0.999999987              -0.000792191              -0.000605529               0.999999987              -0.000752001              -0.000490623               0.999999987              -0.000726695              -0.000449788               0.999999987              -0.000712706              -0.000438433               0.999999987              -0.000705096              -0.000438641               0.999999987              -0.000700074              -0.000442483               0.999999987              -0.000694959              -0.000445506               0.999999987              -0.000688148              -0.000445413               0.999999987              -0.000678486              -0.000440848               0.999999987              -0.000665191              -0.000430962               0.999999987              -0.000647786              -0.000415299               0.999999987              -0.000626121              -0.000393484               0.999999987              -0.000600458              -0.000365611               0.999999987              -0.000571295              -0.000331797               0.999999987              -0.000539458              -0.000292157               0.999999987              -0.000505923              -0.000248024               0.999999987              -0.000471742              -0.000201219               0.999999987              -0.000741158              -0.000714193               0.999999987              -0.000673351              -0.000587872               0.999999987              -0.000639565              -0.000546980               0.999999987              -0.000623007              -0.000538123               0.999999987              -0.000613963              -0.000540835               0.999999987              -0.000606781              -0.000546200               0.999999987              -0.000598048              -0.000549815               0.999999987              -0.000585990              -0.000549645               0.999999987              -0.000569514              -0.000544000               0.999999987              -0.000547924              -0.000532122               0.999999987              -0.000521251              -0.000513845               0.999999987              -0.000489677              -0.000488982               0.999999987              -0.000453684              -0.000458480               0.999999987              -0.000414235              -0.000422982               0.999999987              -0.000372340              -0.000383363               0.999999987              -0.000329135              -0.000341240               0.999999987              -0.000285484              -0.000298351               0.999999987              -0.000683524              -0.000816105               0.999999987              -0.000590592              -0.000684600               0.999999987              -0.000552089              -0.000645549               0.999999987              -0.000535669              -0.000639251               0.999999987              -0.000526396              -0.000644122               0.999999987              -0.000517275              -0.000650795               0.999999987              -0.000504610              -0.000654919               0.999999987              -0.000486771              -0.000654485               0.999999987              -0.000462760              -0.000647588               0.999999987              -0.000432204              -0.000633796               0.999999987              -0.000395374              -0.000613121               0.999999987              -0.000352771              -0.000586157               0.999999987              -0.000305527              -0.000554201               0.999999987              -0.000254763              -0.000518648               0.999999987              -0.000201805              -0.000480661               0.999999987              -0.000148014              -0.000441920               0.999999987              -0.000094094              -0.000403259               0.999999987              -0.000621258              -0.000909401               0.999999987              -0.000506545              -0.000780629               0.999999987              -0.000468596              -0.000743902               0.999999987              -0.000454308              -0.000739542               0.999999987              -0.000445540              -0.000746041               0.999999987              -0.000434284              -0.000753838               0.999999987              -0.000417367              -0.000758372               0.999999987              -0.000392982              -0.000757291               0.999999987              -0.000360329              -0.000749115               0.999999987              -0.000319462              -0.000733526               0.999999987              -0.000270936              -0.000710922               0.999999987              -0.000216019              -0.000682634               0.999999987              -0.000156004              -0.000650585               0.999999987              -0.000092741              -0.000616581               0.999999987              -0.000028125              -0.000582087               0.999999987               0.000036503              -0.000548257               0.999999987               0.000100848              -0.000515277               0.999999987              -0.000556787              -0.000997906               0.999999987              -0.000435806              -0.000888805               0.999999987              -0.000395688              -0.000849150               0.999999987              -0.000381291              -0.000840725               0.999999987              -0.000373774              -0.000845157               0.999999987              -0.000365041              -0.000853548               0.999999987              -0.000351777              -0.000861351               0.999999987              -0.000331894              -0.000865933               0.999999987              -0.000304423              -0.000865751               0.999999987              -0.000269177              -0.000859954               0.999999987              -0.000226427              -0.000848143               0.999999987              -0.000176493              -0.000830909               0.999999987              -0.000120106              -0.000809414               0.999999987              -0.000058711              -0.000785237               0.999999987               0.000005931              -0.000760008               0.999999987               0.000071963              -0.000735149               0.999999987               0.000137781              -0.000711406               0.999999987              -0.000486616              -0.001078721               0.999999987              -0.000367505              -0.000993618               0.999999987              -0.000325425              -0.000957209               0.999999987              -0.000310096              -0.000946958               0.999999987              -0.000302982              -0.000950148               0.999999987              -0.000296143              -0.000959149               0.999999987              -0.000285880              -0.000969690               0.999999987              -0.000270021              -0.000979235               0.999999987              -0.000247278              -0.000986038               0.999999987              -0.000217460              -0.000989135               0.999999987              -0.000180654              -0.000987488               0.999999987              -0.000136596              -0.000981048               0.999999987              -0.000085299              -0.000970262               0.999999987              -0.000027327              -0.000956230               0.999999987               0.000035916              -0.000940194               0.999999987               0.000102438              -0.000923664               0.999999987               0.000170467              -0.000907814               0.999999987              -0.000412143              -0.001149773               0.999999987              -0.000301639              -0.001091935               0.999999987              -0.000259497              -0.001063043               0.999999987              -0.000243014              -0.001054198               0.999999987              -0.000235775              -0.001057593               0.999999987              -0.000229938              -0.001067652               0.999999987              -0.000221970              -0.001080838               0.999999987              -0.000209405              -0.001094874               0.999999987              -0.000191066              -0.001107882               0.999999987              -0.000166478              -0.001118707               0.999999987              -0.000135590              -0.001126575               0.999999987              -0.000097896              -0.001130704               0.999999987              -0.000052958              -0.001130903               0.999999987              -0.000000372              -0.001127627               0.999999987               0.000059418              -0.001121676               0.999999987               0.000125009              -0.001114314               0.999999987               0.000194862              -0.001106609               0.999999987              -0.000334073              -0.001209719               0.999999987              -0.000238245              -0.001179621               0.999999987              -0.000198705              -0.001161458               0.999999987              -0.000181979              -0.001156565               0.999999987              -0.000174283              -0.001162040               0.999999987              -0.000168983              -0.001174150               0.999999987              -0.000162576              -0.001190253               0.999999987              -0.000152939              -0.001208312               0.999999987              -0.000138571              -0.001226859               0.999999987              -0.000119013              -0.001244675               0.999999987              -0.000094043              -0.001260896               0.999999987              -0.000063096              -0.001274694               0.999999987              -0.000025455              -0.001285582               0.999999987               0.000019944              -0.001293360               0.999999987               0.000073459              -0.001298304               0.999999987               0.000134783              -0.001301081               0.999999987               0.000203691              -0.001302580               0.999999987              -0.000253058              -0.001257480               0.999999987              -0.000177021              -0.001252475               0.999999987              -0.000143308              -0.001246359               0.999999987              -0.000127891              -0.001247472               0.999999987              -0.000120341              -0.001256201               0.999999987              -0.000115568              -0.001271139               0.999999987              -0.000110417              -0.001290365               0.999999987              -0.000103190              -0.001312483               0.999999987              -0.000092411              -0.001336166               0.999999987              -0.000077656              -0.001360157               0.999999987              -0.000058728              -0.001383609               0.999999987              -0.000035066              -0.001405833               0.999999987              -0.000005620              -0.001426326               0.999999987               0.000030674              -0.001444456               0.999999987               0.000074860              -0.001460120               0.999999987               0.000127781              -0.001473406               0.999999987               0.000190104              -0.001484694               0.999999987              -0.000169890              -0.001291998               0.999999987              -0.000117291              -0.001307023               0.999999987              -0.000092643              -0.001311919               0.999999987              -0.000080694              -0.001319333               0.999999987              -0.000074445              -0.001331990               0.999999987              -0.000070520              -0.001349909               0.999999987              -0.000066698              -0.001372151               0.999999987              -0.000061783              -0.001397746               0.999999987              -0.000054661              -0.001425525               0.999999987              -0.000044837              -0.001454483               0.999999987              -0.000032027              -0.001483859               0.999999987              -0.000015848              -0.001513001               0.999999987               0.000004301              -0.001541272               0.999999987               0.000029527              -0.001568071               0.999999987               0.000061296              -0.001592980               0.999999987               0.000100827              -0.001615747               0.999999987               0.000149427              -0.001636219               0.999999987              -0.000085299              -0.001312843               0.999999987              -0.000058414              -0.001340667               0.999999987              -0.000045432              -0.001353330               0.999999987              -0.000038879              -0.001365464               0.999999987              -0.000035279              -0.001381276               0.999999987              -0.000033027              -0.001401608               0.999999987              -0.000030912              -0.001426013               0.999999987              -0.000028405              -0.001453893               0.999999987              -0.000024919              -0.001484358               0.999999987              -0.000020081              -0.001516637               0.999999987              -0.000013517              -0.001550045               0.999999987              -0.000005255              -0.001583933               0.999999987               0.000004789              -0.001617628               0.999999987               0.000017758              -0.001650607               0.999999987               0.000034551              -0.001682244               0.999999987               0.000055943              -0.001711985               0.999999987               0.000083173              -0.001739205               0.999999987               0.000000000              -0.001319890               0.999999987              -0.000000000              -0.001352013               0.999999987               0.000000000              -0.001367391               0.999999987               0.000000000              -0.001381334               0.999999987              -0.000000000              -0.001398355               0.999999987              -0.000000000              -0.001419685               0.999999987               0.000000000              -0.001444886               0.999999987              -0.000000000              -0.001473403               0.999999987              -0.000000000              -0.001504739               0.999999987              -0.000000000              -0.001538274               0.999999987               0.000000000              -0.001573141               0.999999987              -0.000000000              -0.001608719               0.999999987               0.000000000              -0.001644467               0.999999987              -0.000000000              -0.001679844               0.999999987               0.000000000              -0.001714240               0.999999987               0.000000000              -0.001746793               0.999999987              -0.000000000              -0.001776589               0.999999987               0.000915799              -0.000000000               0.999999987               0.000963436              -0.000000000               0.999999987               0.000982730               0.000000000               0.999999987               0.000992771              -0.000000000               0.999999987               0.001000338               0.000000000               0.999999987               0.001007910               0.000000000               0.999999987               0.001016455               0.000000000               0.999999987               0.001026038               0.000000000               0.999999987               0.001036539              -0.000000000               0.999999987               0.001047571               0.000000000               0.999999987               0.001058741              -0.000000000               0.999999987               0.001069651               0.000000000               0.999999987               0.001080069              -0.000000000               0.999999987               0.001089402               0.000000000               0.999999987               0.001096963               0.000000000               0.999999987               0.001102092              -0.000000000               0.999999987               0.001103855              -0.000000000               0.999999987               0.000910602              -0.000125704               0.999999987               0.000953983              -0.000098808               0.999999987               0.000970602              -0.000086347               0.999999987               0.000978938              -0.000080765               0.999999987               0.000985377              -0.000078517               0.999999987               0.000992057              -0.000078020               0.999999987               0.000999719              -0.000078078               0.999999987               0.001008415              -0.000077869               0.999999987               0.001017818              -0.000077000               0.999999987               0.001027536              -0.000074992               0.999999987               0.001037153              -0.000071584               0.999999987               0.001046299              -0.000066627               0.999999987               0.001054593              -0.000059679               0.999999987               0.001061557              -0.000050125               0.999999987               0.001066642              -0.000037277               0.999999987               0.001069160              -0.000020210               0.999999987               0.001068452               0.000002115               0.999999987               0.000895272              -0.000250169               0.999999987               0.000926331              -0.000197351               0.999999987               0.000935434              -0.000173727               0.999999987               0.000939058              -0.000163694               0.999999987               0.000942307              -0.000160157               0.999999987               0.000946568              -0.000159657               0.999999987               0.000951998              -0.000160134               0.999999987               0.000958157              -0.000159970               0.999999987               0.000964471              -0.000158180               0.999999987               0.000970506              -0.000154221               0.999999987               0.000975777              -0.000147465               0.999999987               0.000979972              -0.000137862               0.999999987               0.000982670              -0.000124361               0.999999987               0.000983332              -0.000105981               0.999999987               0.000981581              -0.000081872               0.999999987               0.000977042              -0.000050967               0.999999987               0.000969590              -0.000011784               0.999999987               0.000870135              -0.000372331               0.999999987               0.000881913              -0.000295421               0.999999987               0.000880062              -0.000263019               0.999999987               0.000877276              -0.000250541               0.999999987               0.000876380              -0.000247107               0.999999987               0.000877372              -0.000247548               0.999999987               0.000879629              -0.000248760               0.999999987               0.000882058              -0.000248573               0.999999987               0.000883873              -0.000245899               0.999999987               0.000884568              -0.000239933               0.999999987               0.000883638              -0.000230113               0.999999987               0.000880591              -0.000216025               0.999999987               0.000875040              -0.000196736               0.999999987               0.000866693              -0.000171192               0.999999987               0.000855418              -0.000138734               0.999999987               0.000841422              -0.000098598               0.999999987               0.000825145              -0.000050452               0.999999987               0.000835524              -0.000491179               0.999999987               0.000822785              -0.000393118               0.999999987               0.000808715              -0.000354956               0.999999987               0.000799549              -0.000342197               0.999999987               0.000794751              -0.000340148               0.999999987               0.000792507              -0.000342190               0.999999987               0.000791039              -0.000344406               0.999999987               0.000788983              -0.000344275               0.999999987               0.000785460              -0.000340635               0.999999987               0.000779682              -0.000332701               0.999999987               0.000771035              -0.000319915               0.999999987               0.000759090              -0.000301746               0.999999987               0.000743671              -0.000277709               0.999999987               0.000724919              -0.000247008               0.999999987               0.000703174              -0.000209417               0.999999987               0.000679061              -0.000165422               0.999999987               0.000653620              -0.000115823               0.999999987               0.000792191              -0.000605529               0.999999987               0.000752001              -0.000490623               0.999999987               0.000726695              -0.000449788               0.999999987               0.000712706              -0.000438433               0.999999987               0.000705096              -0.000438641               0.999999987               0.000700074              -0.000442483               0.999999987               0.000694959              -0.000445506               0.999999987               0.000688148              -0.000445413               0.999999987               0.000678486              -0.000440848               0.999999987               0.000665191              -0.000430962               0.999999987               0.000647786              -0.000415299               0.999999987               0.000626121              -0.000393484               0.999999987               0.000600458              -0.000365611               0.999999987               0.000571295              -0.000331797               0.999999987               0.000539458              -0.000292157               0.999999987               0.000505923              -0.000248024               0.999999987               0.000471742              -0.000201219               0.999999987               0.000741158              -0.000714193               0.999999987               0.000673351              -0.000587872               0.999999987               0.000639565              -0.000546980               0.999999987               0.000623007              -0.000538123               0.999999987               0.000613963              -0.000540835               0.999999987               0.000606781              -0.000546200               0.999999987               0.000598048              -0.000549815               0.999999987               0.000585990              -0.000549645               0.999999987               0.000569514              -0.000544000               0.999999987               0.000547924              -0.000532122               0.999999987               0.000521251              -0.000513845               0.999999987               0.000489677              -0.000488982               0.999999987               0.000453684              -0.000458480               0.999999987               0.000414235              -0.000422982               0.999999987               0.000372340              -0.000383363               0.999999987               0.000329135              -0.000341240               0.999999987               0.000285484              -0.000298351               0.999999987               0.000683524              -0.000816105               0.999999987               0.000590592              -0.000684600               0.999999987               0.000552089              -0.000645549               0.999999987               0.000535669              -0.000639251               0.999999987               0.000526396              -0.000644122               0.999999987               0.000517275              -0.000650795               0.999999987               0.000504610              -0.000654919               0.999999987               0.000486771              -0.000654485               0.999999987               0.000462760              -0.000647588               0.999999987               0.000432204              -0.000633796               0.999999987               0.000395374              -0.000613121               0.999999987               0.000352771              -0.000586157               0.999999987               0.000305527              -0.000554201               0.999999987               0.000254763              -0.000518648               0.999999987               0.000201805              -0.000480661               0.999999987               0.000148014              -0.000441920               0.999999987               0.000094094              -0.000403259               0.999999987               0.000621258              -0.000909401               0.999999987               0.000506545              -0.000780629               0.999999987               0.000468596              -0.000743902               0.999999987               0.000454308              -0.000739542               0.999999987               0.000445540              -0.000746041               0.999999987               0.000434284              -0.000753838               0.999999987               0.000417367              -0.000758372               0.999999987               0.000392982              -0.000757291               0.999999987               0.000360329              -0.000749115               0.999999987               0.000319462              -0.000733526               0.999999987               0.000270936              -0.000710922               0.999999987               0.000216019              -0.000682634               0.999999987               0.000156004              -0.000650585               0.999999987               0.000092741              -0.000616581               0.999999987               0.000028125              -0.000582087               0.999999987              -0.000036503              -0.000548257               0.999999987              -0.000100848              -0.000515277               0.999999987               0.000556787              -0.000997906               0.999999987               0.000435806              -0.000888805               0.999999987               0.000395688              -0.000849150               0.999999987               0.000381291              -0.000840725               0.999999987               0.000373774              -0.000845157               0.999999987               0.000365041              -0.000853548               0.999999987               0.000351777              -0.000861351               0.999999987               0.000331894              -0.000865933               0.999999987               0.000304423              -0.000865751               0.999999987               0.000269177              -0.000859954               0.999999987               0.000226427              -0.000848143               0.999999987               0.000176493              -0.000830909               0.999999987               0.000120106              -0.000809414               0.999999987               0.000058711              -0.000785237               0.999999987              -0.000005931              -0.000760008               0.999999987              -0.000071963              -0.000735149               0.999999987              -0.000137781              -0.000711406               0.999999987               0.000486616              -0.001078721               0.999999987               0.000367505              -0.000993618               0.999999987               0.000325425              -0.000957209               0.999999987               0.000310096              -0.000946958               0.999999987               0.000302982              -0.000950148               0.999999987               0.000296143              -0.000959149               0.999999987               0.000285880              -0.000969690               0.999999987               0.000270021              -0.000979235               0.999999987               0.000247278              -0.000986038               0.999999987               0.000217460              -0.000989135               0.999999987               0.000180654              -0.000987488               0.999999987               0.000136596              -0.000981048               0.999999987               0.000085299              -0.000970262               0.999999987               0.000027327              -0.000956230               0.999999987              -0.000035916              -0.000940194               0.999999987              -0.000102438              -0.000923664               0.999999987              -0.000170467              -0.000907814               0.999999987               0.000412143              -0.001149773               0.999999987               0.000301639              -0.001091935               0.999999987               0.000259497              -0.001063043               0.999999987               0.000243014              -0.001054198               0.999999987               0.000235775              -0.001057593               0.999999987               0.000229938              -0.001067652               0.999999987               0.000221970              -0.001080838               0.999999987               0.000209405              -0.001094874               0.999999987               0.000191066              -0.001107882               0.999999987               0.000166478              -0.001118707               0.999999987               0.000135590              -0.001126575               0.999999987               0.000097896              -0.001130704               0.999999987               0.000052958              -0.001130903               0.999999987               0.000000372              -0.001127627               0.999999987              -0.000059418              -0.001121676               0.999999987              -0.000125009              -0.001114314               0.999999987              -0.000194862              -0.001106609               0.999999987               0.000334073              -0.001209719               0.999999987               0.000238245              -0.001179621               0.999999987               0.000198705              -0.001161458               0.999999987               0.000181979              -0.001156565               0.999999987               0.000174283              -0.001162040               0.999999987               0.000168983              -0.001174150               0.999999987               0.000162576              -0.001190253               0.999999987               0.000152939              -0.001208312               0.999999987               0.000138571              -0.001226859               0.999999987               0.000119013              -0.001244675               0.999999987               0.000094043              -0.001260896               0.999999987               0.000063096              -0.001274694               0.999999987               0.000025455              -0.001285582               0.999999987              -0.000019944              -0.001293360               0.999999987              -0.000073459              -0.001298304               0.999999987              -0.000134783              -0.001301081               0.999999987              -0.000203691              -0.001302580               0.999999987               0.000253058              -0.001257480               0.999999987               0.000177021              -0.001252475               0.999999987               0.000143308              -0.001246359               0.999999987               0.000127891              -0.001247472               0.999999987               0.000120341              -0.001256201               0.999999987               0.000115568              -0.001271139               0.999999987               0.000110417              -0.001290365               0.999999987               0.000103190              -0.001312483               0.999999987               0.000092411              -0.001336166               0.999999987               0.000077656              -0.001360157               0.999999987               0.000058728              -0.001383609               0.999999987               0.000035066              -0.001405833               0.999999987               0.000005620              -0.001426326               0.999999987              -0.000030674              -0.001444456               0.999999987              -0.000074860              -0.001460120               0.999999987              -0.000127781              -0.001473406               0.999999987              -0.000190104              -0.001484694               0.999999987               0.000169890              -0.001291998               0.999999987               0.000117291              -0.001307023               0.999999987               0.000092643              -0.001311919               0.999999987               0.000080694              -0.001319333               0.999999987               0.000074445              -0.001331990               0.999999987               0.000070520              -0.001349909               0.999999987               0.000066698              -0.001372151               0.999999987               0.000061783              -0.001397746               0.999999987               0.000054661              -0.001425525               0.999999987               0.000044837              -0.001454483               0.999999987               0.000032027              -0.001483859               0.999999987               0.000015848              -0.001513001               0.999999987              -0.000004301              -0.001541272               0.999999987              -0.000029527              -0.001568071               0.999999987              -0.000061296              -0.001592980               0.999999987              -0.000100827              -0.001615747               0.999999987              -0.000149427              -0.001636219               0.999999987               0.000085299              -0.001312843               0.999999987               0.000058414              -0.001340667               0.999999987               0.000045432              -0.001353330               0.999999987               0.000038879              -0.001365464               0.999999987               0.000035279              -0.001381276               0.999999987               0.000033027              -0.001401608               0.999999987               0.000030912              -0.001426013               0.999999987               0.000028405              -0.001453893               0.999999987               0.000024919              -0.001484358               0.999999987               0.000020081              -0.001516637               0.999999987               0.000013517              -0.001550045               0.999999987               0.000005255              -0.001583933               0.999999987              -0.000004789              -0.001617628               0.999999987              -0.000017758              -0.001650607               0.999999987              -0.000034551              -0.001682244               0.999999987              -0.000055943              -0.001711985               0.999999987              -0.000083173              -0.001739205               0.999999987               0.000000000              -0.001319890               0.999999987              -0.000000000              -0.001352013               0.999999987               0.000000000              -0.001367391               0.999999987               0.000000000              -0.001381334               0.999999987              -0.000000000              -0.001398355               0.999999987              -0.000000000              -0.001419685               0.999999987               0.000000000              -0.001444886               0.999999987              -0.000000000              -0.001473403               0.999999987              -0.000000000              -0.001504739               0.999999987              -0.000000000              -0.001538274               0.999999987               0.000000000              -0.001573141               0.999999987              -0.000000000              -0.001608719               0.999999987               0.000000000              -0.001644467               0.999999987              -0.000000000              -0.001679844               0.999999987               0.000000000              -0.001714240               0.999999987               0.000000000              -0.001746793               0.999999987              -0.000000000              -0.001776589               0.999999987               0.000915799              -0.000000000               0.999999987               0.000963436              -0.000000000               0.999999987               0.000982730               0.000000000               0.999999987               0.000992771              -0.000000000               0.999999987               0.001000338               0.000000000               0.999999987               0.001007910               0.000000000               0.999999987               0.001016455               0.000000000               0.999999987               0.001026038               0.000000000               0.999999987               0.001036539              -0.000000000               0.999999987               0.001047571               0.000000000               0.999999987               0.001058741              -0.000000000               0.999999987               0.001069651               0.000000000               0.999999987               0.001080069              -0.000000000               0.999999987               0.001089402               0.000000000               0.999999987               0.001096963               0.000000000               0.999999987               0.001102092              -0.000000000               0.999999987               0.001103855              -0.000000000               0.999999987               0.000910602               0.000125704               0.999999987               0.000953983               0.000098808               0.999999987               0.000970602               0.000086347               0.999999987               0.000978938               0.000080765               0.999999987               0.000985377               0.000078517               0.999999987               0.000992057               0.000078020               0.999999987               0.000999719               0.000078078               0.999999987               0.001008415               0.000077869               0.999999987               0.001017818               0.000077000               0.999999987               0.001027536               0.000074992               0.999999987               0.001037153               0.000071584               0.999999987               0.001046299               0.000066627               0.999999987               0.001054593               0.000059679               0.999999987               0.001061557               0.000050125               0.999999987               0.001066642               0.000037277               0.999999987               0.001069160               0.000020210               0.999999987               0.001068452              -0.000002115               0.999999987               0.000895272               0.000250169               0.999999987               0.000926331               0.000197351               0.999999987               0.000935434               0.000173727               0.999999987               0.000939058               0.000163694               0.999999987               0.000942307               0.000160157               0.999999987               0.000946568               0.000159657               0.999999987               0.000951998               0.000160134               0.999999987               0.000958157               0.000159970               0.999999987               0.000964471               0.000158180               0.999999987               0.000970506               0.000154221               0.999999987               0.000975777               0.000147465               0.999999987               0.000979972               0.000137862               0.999999987               0.000982670               0.000124361               0.999999987               0.000983332               0.000105981               0.999999987               0.000981581               0.000081872               0.999999987               0.000977042               0.000050967               0.999999987               0.000969590               0.000011784               0.999999987               0.000870135               0.000372331               0.999999987               0.000881913               0.000295421               0.999999987               0.000880062               0.000263019               0.999999987               0.000877276               0.000250541               0.999999987               0.000876380               0.000247107               0.999999987               0.000877372               0.000247548               0.999999987               0.000879629               0.000248760               0.999999987               0.000882058               0.000248573               0.999999987               0.000883873               0.000245899               0.999999987               0.000884568               0.000239933               0.999999987               0.000883638               0.000230113               0.999999987               0.000880591               0.000216025               0.999999987               0.000875040               0.000196736               0.999999987               0.000866693               0.000171192               0.999999987               0.000855418               0.000138734               0.999999987               0.000841422               0.000098598               0.999999987               0.000825145               0.000050452               0.999999987               0.000835524               0.000491179               0.999999987               0.000822785               0.000393118               0.999999987               0.000808715               0.000354956               0.999999987               0.000799549               0.000342197               0.999999987               0.000794751               0.000340148               0.999999987               0.000792507               0.000342190               0.999999987               0.000791039               0.000344406               0.999999987               0.000788983               0.000344275               0.999999987               0.000785460               0.000340635               0.999999987               0.000779682               0.000332701               0.999999987               0.000771035               0.000319915               0.999999987               0.000759090               0.000301746               0.999999987               0.000743671               0.000277709               0.999999987               0.000724919               0.000247008               0.999999987               0.000703174               0.000209417               0.999999987               0.000679061               0.000165422               0.999999987               0.000653620               0.000115823               0.999999987               0.000792191               0.000605529               0.999999987               0.000752001               0.000490623               0.999999987               0.000726695               0.000449788               0.999999987               0.000712706               0.000438433               0.999999987               0.000705096               0.000438641               0.999999987               0.000700074               0.000442483               0.999999987               0.000694959               0.000445506               0.999999987               0.000688148               0.000445413               0.999999987               0.000678486               0.000440848               0.999999987               0.000665191               0.000430962               0.999999987               0.000647786               0.000415299               0.999999987               0.000626121               0.000393484               0.999999987               0.000600458               0.000365611               0.999999987               0.000571295               0.000331797               0.999999987               0.000539458               0.000292157               0.999999987               0.000505923               0.000248024               0.999999987               0.000471742               0.000201219               0.999999987               0.000741158               0.000714193               0.999999987               0.000673351               0.000587872               0.999999987               0.000639565               0.000546980               0.999999987               0.000623007               0.000538123               0.999999987               0.000613963               0.000540835               0.999999987               0.000606781               0.000546200               0.999999987               0.000598048               0.000549815               0.999999987               0.000585990               0.000549645               0.999999987               0.000569514               0.000544000               0.999999987               0.000547924               0.000532122               0.999999987               0.000521251               0.000513845               0.999999987               0.000489677               0.000488982               0.999999987               0.000453684               0.000458480               0.999999987               0.000414235               0.000422982               0.999999987               0.000372340               0.000383363               0.999999987               0.000329135               0.000341240               0.999999987               0.000285484               0.000298351               0.999999987               0.000683524               0.000816105               0.999999987               0.000590592               0.000684600               0.999999987               0.000552089               0.000645549               0.999999987               0.000535669               0.000639251               0.999999987               0.000526396               0.000644122               0.999999987               0.000517275               0.000650795               0.999999987               0.000504610               0.000654919               0.999999987               0.000486771               0.000654485               0.999999987               0.000462760               0.000647588               0.999999987               0.000432204               0.000633796               0.999999987               0.000395374               0.000613121               0.999999987               0.000352771               0.000586157               0.999999987               0.000305527               0.000554201               0.999999987               0.000254763               0.000518648               0.999999987               0.000201805               0.000480661               0.999999987               0.000148014               0.000441920               0.999999987               0.000094094               0.000403259               0.999999987               0.000621258               0.000909401               0.999999987               0.000506545               0.000780629               0.999999987               0.000468596               0.000743902               0.999999987               0.000454308               0.000739542               0.999999987               0.000445540               0.000746041               0.999999987               0.000434284               0.000753838               0.999999987               0.000417367               0.000758372               0.999999987               0.000392982               0.000757291               0.999999987               0.000360329               0.000749115               0.999999987               0.000319462               0.000733526               0.999999987               0.000270936               0.000710922               0.999999987               0.000216019               0.000682634               0.999999987               0.000156004               0.000650585               0.999999987               0.000092741               0.000616581               0.999999987               0.000028125               0.000582087               0.999999987              -0.000036503               0.000548257               0.999999987              -0.000100848               0.000515277               0.999999987               0.000556787               0.000997906               0.999999987               0.000435806               0.000888805               0.999999987               0.000395688               0.000849150               0.999999987               0.000381291               0.000840725               0.999999987               0.000373774               0.000845157               0.999999987               0.000365041               0.000853548               0.999999987               0.000351777               0.000861351               0.999999987               0.000331894               0.000865933               0.999999987               0.000304423               0.000865751               0.999999987               0.000269177               0.000859954               0.999999987               0.000226427               0.000848143               0.999999987               0.000176493               0.000830909               0.999999987               0.000120106               0.000809414               0.999999987               0.000058711               0.000785237               0.999999987              -0.000005931               0.000760008               0.999999987              -0.000071963               0.000735149               0.999999987              -0.000137781               0.000711406               0.999999987               0.000486616               0.001078721               0.999999987               0.000367505               0.000993618               0.999999987               0.000325425               0.000957209               0.999999987               0.000310096               0.000946958               0.999999987               0.000302982               0.000950148               0.999999987               0.000296143               0.000959149               0.999999987               0.000285880               0.000969690               0.999999987               0.000270021               0.000979235               0.999999987               0.000247278               0.000986038               0.999999987               0.000217460               0.000989135               0.999999987               0.000180654               0.000987488               0.999999987               0.000136596               0.000981048               0.999999987               0.000085299               0.000970262               0.999999987               0.000027327               0.000956230               0.999999987              -0.000035916               0.000940194               0.999999987              -0.000102438               0.000923664               0.999999987              -0.000170467               0.000907814               0.999999987               0.000412143               0.001149773               0.999999987               0.000301639               0.001091935               0.999999987               0.000259497               0.001063043               0.999999987               0.000243014               0.001054198               0.999999987               0.000235775               0.001057593               0.999999987               0.000229938               0.001067652               0.999999987               0.000221970               0.001080838               0.999999987               0.000209405               0.001094874               0.999999987               0.000191066               0.001107882               0.999999987               0.000166478               0.001118707               0.999999987               0.000135590               0.001126575               0.999999987               0.000097896               0.001130704               0.999999987               0.000052958               0.001130903               0.999999987               0.000000372               0.001127627               0.999999987              -0.000059418               0.001121676               0.999999987              -0.000125009               0.001114314               0.999999987              -0.000194862               0.001106609               0.999999987               0.000334073               0.001209719               0.999999987               0.000238245               0.001179621               0.999999987               0.000198705               0.001161458               0.999999987               0.000181979               0.001156565               0.999999987               0.000174283               0.001162040               0.999999987               0.000168983               0.001174150               0.999999987               0.000162576               0.001190253               0.999999987               0.000152939               0.001208312               0.999999987               0.000138571               0.001226859               0.999999987               0.000119013               0.001244675               0.999999987               0.000094043               0.001260896               0.999999987               0.000063096               0.001274694               0.999999987               0.000025455               0.001285582               0.999999987              -0.000019944               0.001293360               0.999999987              -0.000073459               0.001298304               0.999999987              -0.000134783               0.001301081               0.999999987              -0.000203691               0.001302580               0.999999987               0.000253058               0.001257480               0.999999987               0.000177021               0.001252475               0.999999987               0.000143308               0.001246359               0.999999987               0.000127891               0.001247472               0.999999987               0.000120341               0.001256201               0.999999987               0.000115568               0.001271139               0.999999987               0.000110417               0.001290365               0.999999987               0.000103190               0.001312483               0.999999987               0.000092411               0.001336166               0.999999987               0.000077656               0.001360157               0.999999987               0.000058728               0.001383609               0.999999987               0.000035066               0.001405833               0.999999987               0.000005620               0.001426326               0.999999987              -0.000030674               0.001444456               0.999999987              -0.000074860               0.001460120               0.999999987              -0.000127781               0.001473406               0.999999987              -0.000190104               0.001484694               0.999999987               0.000169890               0.001291998               0.999999987               0.000117291               0.001307023               0.999999987               0.000092643               0.001311919               0.999999987               0.000080694               0.001319333               0.999999987               0.000074445               0.001331990               0.999999987               0.000070520               0.001349909               0.999999987               0.000066698               0.001372151               0.999999987               0.000061783               0.001397746               0.999999987               0.000054661               0.001425525               0.999999987               0.000044837               0.001454483               0.999999987               0.000032027               0.001483859               0.999999987               0.000015848               0.001513001               0.999999987              -0.000004301               0.001541272               0.999999987              -0.000029527               0.001568071               0.999999987              -0.000061296               0.001592980               0.999999987              -0.000100827               0.001615747               0.999999987              -0.000149427               0.001636219               0.999999987               0.000085299               0.001312843               0.999999987               0.000058414               0.001340667               0.999999987               0.000045432               0.001353330               0.999999987               0.000038879               0.001365464               0.999999987               0.000035279               0.001381276               0.999999987               0.000033027               0.001401608               0.999999987               0.000030912               0.001426013               0.999999987               0.000028405               0.001453893               0.999999987               0.000024919               0.001484358               0.999999987               0.000020081               0.001516637               0.999999987               0.000013517               0.001550045               0.999999987               0.000005255               0.001583933               0.999999987              -0.000004789               0.001617628               0.999999987              -0.000017758               0.001650607               0.999999987              -0.000034551               0.001682244               0.999999987              -0.000055943               0.001711985               0.999999987              -0.000083173               0.001739205               0.999999987              -0.000000000               0.001319890               0.999999987              -0.000000000               0.001352013               0.999999987              -0.000000000               0.001367391               0.999999987               0.000000000               0.001381334               0.999999987               0.000000000               0.001398355               0.999999987              -0.000000000               0.001419685               0.999999987               0.000000000               0.001444886               0.999999987               0.000000000               0.001473403               0.999999987              -0.000000000               0.001504739               0.999999987              -0.000000000               0.001538274               0.999999987              -0.000000000               0.001573141               0.999999987               0.000000000               0.001608719               0.999999987              -0.000000000               0.001644467               0.999999987              -0.000000000               0.001679844               0.999999987              -0.000000000               0.001714240               0.999999987               0.000000000               0.001746793               0.999999987               0.000000000               0.001776589               0.999999987 </DataArray>
<DataArray type="Float64"                                    Name="stress"                                                      NumberOfComponents="10" format="ascii">
              0.002172474               0.022764220               0.000000000              -0.002030845               0.008264946               0.006234101               0.000000000               0.000000000               0.000000000               0.000000000               0.002077611               0.017371578               0.000000000              -0.001392340               0.006254581               0.004862242               0.000000000               0.000000000               0.000000000               0.000000000               0.002670650               0.013003885               0.000000000              -0.000623990               0.004542582               0.003918591               0.000000000               0.000000000               0.000000000               0.000000000               0.002475834               0.010531368               0.000000000              -0.000387983               0.003639749               0.003251766               0.000000000               0.000000000               0.000000000               0.000000000               0.002075534               0.008957050               0.000000000              -0.000341305               0.003099422               0.002758117               0.000000000               0.000000000               0.000000000               0.000000000               0.001648317               0.007854700               0.000000000              -0.000363718               0.002739446               0.002375729               0.000000000               0.000000000               0.000000000               0.000000000               0.001250078               0.007001168               0.000000000              -0.000406366               0.002469154               0.002062789               0.000000000               0.000000000               0.000000000               0.000000000               0.000902261               0.006277526              -0.000000000              -0.000446342               0.002241268               0.001794927               0.000000000               0.000000000               0.000000000               0.000000000               0.000610791               0.005624380              -0.000000000              -0.000474000               0.002032774               0.001558775               0.000000000               0.000000000               0.000000000               0.000000000               0.000374431               0.005001692               0.000000000              -0.000484799               0.001828814               0.001344015               0.000000000               0.000000000               0.000000000               0.000000000               0.000185942               0.004387667               0.000000000              -0.000478729               0.001622117               0.001143388               0.000000000               0.000000000               0.000000000               0.000000000               0.000033514               0.003767547              -0.000000000              -0.000458374               0.001408628               0.000950253               0.000000000               0.000000000               0.000000000               0.000000000              -0.000078635               0.003123637              -0.000000000              -0.000419942               0.001181182               0.000761241               0.000000000               0.000000000               0.000000000               0.000000000              -0.000135746               0.002437374              -0.000000000              -0.000355576               0.000930975               0.000575399               0.000000000               0.000000000               0.000000000               0.000000000              -0.000139014               0.001684578              -0.000000000              -0.000262702               0.000649088               0.000386386               0.000000000               0.000000000               0.000000000               0.000000000              -0.000085312               0.000838889              -0.000000000              -0.000136853               0.000325244               0.000188391               0.000000000               0.000000000               0.000000000               0.000000000              -0.000111979               0.000193558               0.000000000              -0.000066187               0.000086581               0.000020394               0.000000000               0.000000000               0.000000000               0.000000000               0.002226745               0.022258815              -0.001483124              -0.001947318               0.008068637               0.006121319               0.000000000               0.000000000               0.000000000               0.000000000               0.002002657               0.017057550              -0.000634221              -0.001381194               0.006146191               0.004764997               0.000000000               0.000000000               0.000000000               0.000000000               0.002456537               0.012883277               0.000193890              -0.000689206               0.004524118               0.003834912               0.000000000               0.000000000               0.000000000               0.000000000               0.002210395               0.010511900               0.000522923              -0.000485088               0.003665628               0.003180540               0.000000000               0.000000000               0.000000000               0.000000000               0.001802482               0.008993691               0.000646299              -0.000448280               0.003147294               0.002699014               0.000000000               0.000000000               0.000000000               0.000000000               0.001390097               0.007916932               0.000679170              -0.000468329               0.002795061               0.002326731               0.000000000               0.000000000               0.000000000               0.000000000               0.001016798               0.007076198               0.000666685              -0.000503225               0.002526451               0.002023226               0.000000000               0.000000000               0.000000000               0.000000000               0.000700019               0.006358997               0.000636532              -0.000532367               0.002297100               0.001764733               0.000000000               0.000000000               0.000000000               0.000000000               0.000440093               0.005705047               0.000602135              -0.000548095               0.002084362               0.001536267               0.000000000               0.000000000               0.000000000               0.000000000               0.000232673               0.005082789               0.000565895              -0.000548095               0.001876944               0.001328849               0.000000000               0.000000000               0.000000000               0.000000000               0.000069627               0.004471331               0.000532922              -0.000532805               0.001668030               0.001135225               0.000000000               0.000000000               0.000000000               0.000000000              -0.000054730               0.003860741               0.000496686              -0.000503115               0.001454606               0.000951491               0.000000000               0.000000000               0.000000000               0.000000000              -0.000138254               0.003230727               0.000447593              -0.000455685               0.001228793               0.000773108               0.000000000               0.000000000               0.000000000               0.000000000              -0.000175409               0.002564861               0.000381679              -0.000386385               0.000983740               0.000597355               0.000000000               0.000000000               0.000000000               0.000000000              -0.000161304               0.001852001               0.000291058              -0.000291989               0.000714657               0.000422668               0.000000000               0.000000000               0.000000000               0.000000000              -0.000094925               0.001078140               0.000165157              -0.000170364               0.000416164               0.000245800               0.000000000               0.000000000               0.000000000               0.000000000              -0.000111519               0.000500836               0.000103988              -0.000104424               0.000201751               0.000097327               0.000000000               0.000000000               0.000000000               0.000000000               0.002345677               0.020823279              -0.002735204              -0.001723278               0.007515449               0.005792171               0.000000000               0.000000000               0.000000000               0.000000000               0.001768000               0.016166470              -0.001165986              -0.001357806               0.005841371               0.004483566               0.000000000               0.000000000               0.000000000               0.000000000               0.001845116               0.012544075               0.000353444              -0.000876089               0.004473346               0.003597257               0.000000000               0.000000000               0.000000000               0.000000000               0.001474906               0.010456578               0.000936854              -0.000753981               0.003736818               0.002982837               0.000000000               0.000000000               0.000000000               0.000000000               0.001056577               0.009086023               0.001143286              -0.000739535               0.003275156               0.002535621               0.000000000               0.000000000               0.000000000               0.000000000               0.000686192               0.008077999               0.001190043              -0.000752427               0.002943448               0.002191021               0.000000000               0.000000000               0.000000000               0.000000000               0.000386106               0.007263032               0.001161187              -0.000763088               0.002675349               0.001912261               0.000000000               0.000000000               0.000000000               0.000000000               0.000157987               0.006552167               0.001101620              -0.000759774               0.002437292               0.001677517               0.000000000               0.000000000               0.000000000               0.000000000              -0.000015060               0.005898249               0.001035691              -0.000742927               0.002213706               0.001470778               0.000000000               0.000000000               0.000000000               0.000000000              -0.000141812               0.005278891               0.000967805              -0.000713040               0.001997293               0.001284253               0.000000000               0.000000000               0.000000000               0.000000000              -0.000229053               0.004680063               0.000904748              -0.000670901               0.001783639               0.001112738               0.000000000               0.000000000               0.000000000               0.000000000              -0.000282333               0.004089890               0.000835764              -0.000617110               0.001568986               0.000951876               0.000000000               0.000000000               0.000000000               0.000000000              -0.000294055               0.003499565               0.000741491              -0.000547715               0.001349081               0.000801366               0.000000000               0.000000000               0.000000000               0.000000000              -0.000265712               0.002902856               0.000621070              -0.000462498               0.001121775               0.000659277               0.000000000               0.000000000               0.000000000               0.000000000              -0.000201250               0.002301870               0.000466831              -0.000363202               0.000888349               0.000525148               0.000000000               0.000000000               0.000000000               0.000000000              -0.000106979               0.001703001               0.000260709              -0.000252992               0.000651992               0.000399000               0.000000000               0.000000000               0.000000000               0.000000000              -0.000097411               0.001291485               0.000158161              -0.000197964               0.000496479               0.000298515               0.000000000               0.000000000               0.000000000               0.000000000               0.002408160               0.018662668              -0.003573104              -0.001429772               0.006697417               0.005267645               0.000000000               0.000000000               0.000000000               0.000000000               0.001346226               0.014843075              -0.001514208              -0.001350547               0.005397824               0.004047277               0.000000000               0.000000000               0.000000000               0.000000000               0.000911239               0.012048335               0.000451329              -0.001164325               0.004404180               0.003239855               0.000000000               0.000000000               0.000000000               0.000000000               0.000405018               0.010359018               0.001159205              -0.001142993               0.003833969               0.002690976               0.000000000               0.000000000               0.000000000               0.000000000               0.000009625               0.009179400               0.001386366              -0.001143813               0.003441040               0.002297227               0.000000000               0.000000000               0.000000000               0.000000000              -0.000270782               0.008259185               0.001421680              -0.001133939               0.003131014               0.001997074               0.000000000               0.000000000               0.000000000               0.000000000              -0.000453447               0.007474387               0.001372971              -0.001104339               0.002859550               0.001755212               0.000000000               0.000000000               0.000000000               0.000000000              -0.000555097               0.006770373               0.001292330              -0.001054456               0.002608253               0.001553798               0.000000000               0.000000000               0.000000000               0.000000000              -0.000604817               0.006121413               0.001204626              -0.000991981               0.002371111               0.001379130               0.000000000               0.000000000               0.000000000               0.000000000              -0.000616046               0.005511952               0.001116949              -0.000920009               0.002143969               0.001223959               0.000000000               0.000000000               0.000000000               0.000000000              -0.000590315               0.004935694               0.001033170              -0.000838328               0.001924657               0.001086329               0.000000000               0.000000000               0.000000000               0.000000000              -0.000535258               0.004380552               0.000942708              -0.000748289               0.001709599               0.000961310               0.000000000               0.000000000               0.000000000               0.000000000              -0.000451994               0.003853135               0.000824281              -0.000651138               0.001501411               0.000850273               0.000000000               0.000000000               0.000000000               0.000000000              -0.000344557               0.003358583               0.000673987              -0.000549031               0.001302527               0.000753496               0.000000000               0.000000000               0.000000000               0.000000000              -0.000226413               0.002906514               0.000489922              -0.000448218               0.001118234               0.000670016               0.000000000               0.000000000               0.000000000               0.000000000              -0.000111809               0.002521192               0.000265672              -0.000357076               0.000959414               0.000602338               0.000000000               0.000000000               0.000000000               0.000000000              -0.000076160               0.002300740               0.000153350              -0.000316152               0.000872290               0.000556138               0.000000000               0.000000000               0.000000000               0.000000000               0.002269529               0.016034566              -0.003918985              -0.001153247               0.005729217               0.004575970               0.000000000               0.000000000               0.000000000               0.000000000               0.000718014               0.013271816              -0.001667581              -0.001389719               0.004887134               0.003497415               0.000000000               0.000000000               0.000000000               0.000000000              -0.000234020               0.011461690               0.000442974              -0.001520465               0.004327347               0.002806882               0.000000000               0.000000000               0.000000000               0.000000000              -0.000813344               0.010199058               0.001141161              -0.001579883               0.003926279               0.002346397               0.000000000               0.000000000               0.000000000               0.000000000              -0.001120123               0.009209419               0.001338578              -0.001571220               0.003593516               0.002022295               0.000000000               0.000000000               0.000000000               0.000000000              -0.001251002               0.008369943               0.001351807              -0.001515365               0.003295075               0.001779709               0.000000000               0.000000000               0.000000000               0.000000000              -0.001274215               0.007616591               0.001289689              -0.001429901               0.003015472               0.001585571               0.000000000               0.000000000               0.000000000               0.000000000              -0.001228420               0.006932124               0.001199853              -0.001327170               0.002753075               0.001425905               0.000000000               0.000000000               0.000000000               0.000000000              -0.001138061               0.006301593               0.001107000              -0.001214469               0.002505333               0.001290863               0.000000000               0.000000000               0.000000000               0.000000000              -0.001012992               0.005715955               0.001017441              -0.001094364               0.002270087               0.001175723               0.000000000               0.000000000               0.000000000               0.000000000              -0.000861468               0.005170256               0.000929205              -0.000969331               0.002046511               0.001077181               0.000000000               0.000000000               0.000000000               0.000000000              -0.000694706               0.004662222               0.000833732              -0.000843291               0.001835155               0.000991864               0.000000000               0.000000000               0.000000000               0.000000000              -0.000522897               0.004206846               0.000712823              -0.000721941               0.001642915               0.000920974               0.000000000               0.000000000               0.000000000               0.000000000              -0.000354640               0.003820945               0.000558276              -0.000610607               0.001477171               0.000866564               0.000000000               0.000000000               0.000000000               0.000000000              -0.000202653               0.003515590               0.000382704              -0.000515442               0.001343666               0.000828223               0.000000000               0.000000000               0.000000000               0.000000000              -0.000086280               0.003313742               0.000196902              -0.000446572               0.001253427               0.000806855               0.000000000               0.000000000               0.000000000               0.000000000              -0.000040791               0.003237634               0.000103531              -0.000420000               0.001219200               0.000799201               0.000000000               0.000000000               0.000000000               0.000000000               0.001824577               0.013209043              -0.003796806              -0.000966915               0.004725275               0.003758360               0.000000000               0.000000000               0.000000000               0.000000000              -0.000092984               0.011616998              -0.001669595              -0.001486991               0.004367957               0.002880966               0.000000000               0.000000000               0.000000000               0.000000000              -0.001447222               0.010818601               0.000293339              -0.001895029               0.004237840               0.002342812               0.000000000               0.000000000               0.000000000               0.000000000              -0.001987385               0.009953375               0.000888488              -0.001989436               0.003980904               0.001991467               0.000000000               0.000000000               0.000000000               0.000000000              -0.002129568               0.009128875               0.001037208              -0.001939693               0.003689492               0.001749799               0.000000000               0.000000000               0.000000000               0.000000000              -0.002071436               0.008354232               0.001035438              -0.001821063               0.003391737               0.001570674               0.000000000               0.000000000               0.000000000               0.000000000              -0.001915486               0.007635154               0.000979030              -0.001672698               0.003102592               0.001429894               0.000000000               0.000000000               0.000000000               0.000000000              -0.001708139               0.006984225               0.000902587              -0.001513577               0.002832577               0.001319001               0.000000000               0.000000000               0.000000000               0.000000000              -0.001471419               0.006385961               0.000822442              -0.001350024               0.002578640               0.001228616               0.000000000               0.000000000               0.000000000               0.000000000              -0.001219966               0.005833257               0.000744255              -0.001186642               0.002339947               0.001153305               0.000000000               0.000000000               0.000000000               0.000000000              -0.000961621               0.005328286               0.000661235              -0.001026641               0.002118291               0.001091650               0.000000000               0.000000000               0.000000000               0.000000000              -0.000710615               0.004875081               0.000571604              -0.000875864               0.001916965               0.001041101               0.000000000               0.000000000               0.000000000               0.000000000              -0.000481321               0.004493430               0.000468870              -0.000742172               0.001745186               0.001003013               0.000000000               0.000000000               0.000000000               0.000000000              -0.000285649               0.004200493               0.000341508              -0.000632178               0.001610876               0.000978698               0.000000000               0.000000000               0.000000000               0.000000000              -0.000136823               0.004004147               0.000206902              -0.000551826               0.001518644               0.000966819               0.000000000               0.000000000               0.000000000               0.000000000              -0.000044773               0.003907955               0.000092221              -0.000505283               0.001471066               0.000965783               0.000000000               0.000000000               0.000000000               0.000000000              -0.000010135               0.003894584               0.000039959              -0.000490622               0.001461722               0.000971100               0.000000000               0.000000000               0.000000000               0.000000000               0.001017043               0.010436568              -0.003299516              -0.000923180               0.003786547               0.002863367               0.000000000               0.000000000               0.000000000               0.000000000              -0.001037725               0.010010803              -0.001577756              -0.001640494               0.003883732               0.002243238               0.000000000               0.000000000               0.000000000               0.000000000              -0.002588594               0.010137097               0.000005497              -0.002237855               0.004124950               0.001887096               0.000000000               0.000000000               0.000000000               0.000000000              -0.002963807               0.009597967               0.000457756              -0.002311168               0.003969679               0.001658512               0.000000000               0.000000000               0.000000000               0.000000000              -0.002886864               0.008903849               0.000569925              -0.002195550               0.003699770               0.001504220               0.000000000               0.000000000               0.000000000               0.000000000              -0.002623505               0.008197055               0.000576366              -0.002008441               0.003401805               0.001393364               0.000000000               0.000000000               0.000000000               0.000000000              -0.002287581               0.007533407               0.000550104              -0.001799514               0.003110948               0.001311434               0.000000000               0.000000000               0.000000000               0.000000000              -0.001930195               0.006925861               0.000505649              -0.001589552               0.002838448               0.001248896               0.000000000               0.000000000               0.000000000               0.000000000              -0.001566991               0.006363867               0.000450512              -0.001383101               0.002582301               0.001199200               0.000000000               0.000000000               0.000000000               0.000000000              -0.001218402               0.005850502               0.000393859              -0.001188211               0.002346218               0.001158007               0.000000000               0.000000000               0.000000000               0.000000000              -0.000896710               0.005391125               0.000330543              -0.001010155               0.002133742               0.001123587               0.000000000               0.000000000               0.000000000               0.000000000              -0.000605454               0.005001910               0.000266429              -0.000852282               0.001951380               0.001099099               0.000000000               0.000000000               0.000000000               0.000000000              -0.000361823               0.004694775               0.000202828              -0.000722529               0.001805752               0.001083224               0.000000000               0.000000000               0.000000000               0.000000000              -0.000178817               0.004477732               0.000129884              -0.000626771               0.001701486               0.001074715               0.000000000               0.000000000               0.000000000               0.000000000              -0.000063625               0.004353069               0.000062675              -0.000567992               0.001640339               0.001072347               0.000000000               0.000000000               0.000000000               0.000000000              -0.000011194               0.004308612               0.000021699              -0.000542773               0.001617114               0.001074341               0.000000000               0.000000000               0.000000000               0.000000000               0.000001372               0.004308596               0.000008687              -0.000538059               0.001615537               0.001077479               0.000000000               0.000000000               0.000000000               0.000000000              -0.000108605               0.007899465              -0.002543640              -0.001028159               0.002975847               0.001947688               0.000000000               0.000000000               0.000000000               0.000000000              -0.002060920               0.008551605              -0.001440845              -0.001841792               0.003464437               0.001622645               0.000000000               0.000000000               0.000000000               0.000000000              -0.003554570               0.009419092              -0.000398471              -0.002510344               0.003976447               0.001466103               0.000000000               0.000000000               0.000000000               0.000000000              -0.003658268               0.009119649              -0.000075103              -0.002511801               0.003877120               0.001365319               0.000000000               0.000000000               0.000000000               0.000000000              -0.003329723               0.008541495               0.000039032              -0.002316327               0.003619245               0.001302918               0.000000000               0.000000000               0.000000000               0.000000000              -0.002868382               0.007919353               0.000082107              -0.002065557               0.003328277               0.001262720               0.000000000               0.000000000               0.000000000               0.000000000              -0.002374486               0.007323766               0.000098594              -0.001805898               0.003043197               0.001237299               0.000000000               0.000000000               0.000000000               0.000000000              -0.001896349               0.006760222               0.000095948              -0.001556155               0.002772103               0.001215948               0.000000000               0.000000000               0.000000000               0.000000000              -0.001444798               0.006239422               0.000078126              -0.001321724               0.002520361               0.001198637               0.000000000               0.000000000               0.000000000               0.000000000              -0.001036712               0.005771698               0.000056657              -0.001110226               0.002293956               0.001183729               0.000000000               0.000000000               0.000000000               0.000000000              -0.000686549               0.005364882               0.000034876              -0.000928064               0.002097631               0.001169567               0.000000000               0.000000000               0.000000000               0.000000000              -0.000398860               0.005040980               0.000018661              -0.000779693               0.001940207               0.001160514               0.000000000               0.000000000               0.000000000               0.000000000              -0.000186563               0.004805745               0.000011252              -0.000670678               0.001825458               0.001154781               0.000000000               0.000000000               0.000000000               0.000000000              -0.000051582               0.004661854               0.000002137              -0.000602074               0.001754627               0.001152553               0.000000000               0.000000000               0.000000000               0.000000000               0.000006142               0.004600321              -0.000004026              -0.000572736               0.001724337               0.001151601               0.000000000               0.000000000               0.000000000               0.000000000               0.000012350               0.004600075              -0.000001153              -0.000570377               0.001723468               0.001153092               0.000000000               0.000000000               0.000000000               0.000000000               0.000008274               0.004619038               0.000000066              -0.000574276               0.001731089               0.001156813               0.000000000               0.000000000               0.000000000               0.000000000              -0.001419710               0.005783882              -0.001646741              -0.001255374               0.002346399               0.001091025               0.000000000               0.000000000               0.000000000               0.000000000              -0.003060710               0.007253279              -0.001295958              -0.002054421               0.003102542               0.001048121               0.000000000               0.000000000               0.000000000               0.000000000              -0.004315258               0.008681005              -0.000879003              -0.002703341               0.003794753               0.001091412               0.000000000               0.000000000               0.000000000               0.000000000              -0.004136344               0.008628902              -0.000636691              -0.002629735               0.003752850               0.001123115               0.000000000               0.000000000               0.000000000               0.000000000              -0.003592110               0.008197043              -0.000486705              -0.002371666               0.003522876               0.001151210               0.000000000               0.000000000               0.000000000               0.000000000              -0.002969431               0.007675591              -0.000390004              -0.002072980               0.003249498               0.001176518               0.000000000               0.000000000               0.000000000               0.000000000              -0.002352602               0.007153963              -0.000326842              -0.001776467               0.002976786               0.001200319               0.000000000               0.000000000               0.000000000               0.000000000              -0.001780145               0.006644128              -0.000280282              -0.001498067               0.002714043               0.001215976               0.000000000               0.000000000               0.000000000               0.000000000              -0.001266338               0.006168419              -0.000248952              -0.001245926               0.002471428               0.001225502               0.000000000               0.000000000               0.000000000               0.000000000              -0.000820342               0.005738672              -0.000224753              -0.001024960               0.002254525               0.001229565               0.000000000               0.000000000               0.000000000               0.000000000              -0.000453359               0.005369361              -0.000198856              -0.000841177               0.002070161               0.001228984               0.000000000               0.000000000               0.000000000               0.000000000              -0.000172068               0.005087409              -0.000160765              -0.000700450               0.001929269               0.001228820               0.000000000               0.000000000               0.000000000               0.000000000               0.000011296               0.004897497              -0.000110164              -0.000607949               0.001835133               0.001227183               0.000000000               0.000000000               0.000000000               0.000000000               0.000095567               0.004794225              -0.000062470              -0.000563439               0.001785872               0.001222433               0.000000000               0.000000000               0.000000000               0.000000000               0.000102331               0.004773932              -0.000025745              -0.000558366               0.001777417               0.001219051               0.000000000               0.000000000               0.000000000               0.000000000               0.000073476               0.004812358              -0.000001700              -0.000573990               0.001795433               0.001221443               0.000000000               0.000000000               0.000000000               0.000000000               0.000054653               0.004847066               0.000005499              -0.000585387               0.001810801               0.001225415               0.000000000               0.000000000               0.000000000               0.000000000              -0.002931984               0.003844375              -0.000717442              -0.001580038               0.001808124               0.000228087               0.000000000               0.000000000               0.000000000               0.000000000              -0.003914608               0.005748812              -0.001142004              -0.002186574               0.002645109               0.000458535               0.000000000               0.000000000               0.000000000               0.000000000              -0.004789675               0.007571477              -0.001379083              -0.002742556               0.003437986               0.000695430               0.000000000               0.000000000               0.000000000               0.000000000              -0.004457306               0.007901426              -0.001224981              -0.002659161               0.003520169               0.000861008               0.000000000               0.000000000               0.000000000               0.000000000              -0.003827654               0.007739825              -0.001041235              -0.002402842               0.003380863               0.000978021               0.000000000               0.000000000               0.000000000               0.000000000              -0.003139289               0.007417464              -0.000889028              -0.002104411               0.003173934               0.001069522               0.000000000               0.000000000               0.000000000               0.000000000              -0.002474468               0.007048302              -0.000767886              -0.001808959               0.002952397               0.001143438               0.000000000               0.000000000               0.000000000               0.000000000              -0.001863302               0.006665039              -0.000664005              -0.001531864               0.002732279               0.001200414               0.000000000               0.000000000               0.000000000               0.000000000              -0.001321025               0.006284662              -0.000577684              -0.001280964               0.002521854               0.001240891               0.000000000               0.000000000               0.000000000               0.000000000              -0.000850906               0.005910521              -0.000508267              -0.001057902               0.002322788               0.001264886               0.000000000               0.000000000               0.000000000               0.000000000              -0.000452770               0.005560683              -0.000440206              -0.000864872               0.002141833               0.001276961               0.000000000               0.000000000               0.000000000               0.000000000              -0.000137373               0.005269512              -0.000355891              -0.000710202               0.001993221               0.001283018               0.000000000               0.000000000               0.000000000               0.000000000               0.000083194               0.005054136              -0.000257384              -0.000600568               0.001884884               0.001284316               0.000000000               0.000000000               0.000000000               0.000000000               0.000204588               0.004925470              -0.000159426              -0.000538962               0.001821461               0.001282499               0.000000000               0.000000000               0.000000000               0.000000000               0.000241081               0.004887269              -0.000077766              -0.000520502               0.001802574               0.001282072               0.000000000               0.000000000               0.000000000               0.000000000               0.000221526               0.004921943              -0.000024732              -0.000532169               0.001818021               0.001285852               0.000000000               0.000000000               0.000000000               0.000000000               0.000185386               0.004942546              -0.000000456              -0.000548297               0.001830265               0.001281967               0.000000000               0.000000000               0.000000000               0.000000000              -0.004836670               0.002100409               0.000167701              -0.002076299               0.001392226              -0.000684072               0.000000000               0.000000000               0.000000000               0.000000000              -0.004878769               0.004230581              -0.000934535              -0.002358356               0.002196297              -0.000162059               0.000000000               0.000000000               0.000000000               0.000000000              -0.005191504               0.006249533              -0.001781386              -0.002727999               0.002992489               0.000264490               0.000000000               0.000000000               0.000000000               0.000000000              -0.004722441               0.006939732              -0.001783474              -0.002638376               0.003192679               0.000554303               0.000000000               0.000000000               0.000000000               0.000000000              -0.004044912               0.007086959              -0.001604805              -0.002402706               0.003163198               0.000760491               0.000000000               0.000000000               0.000000000               0.000000000              -0.003335917               0.007000781              -0.001411274              -0.002126061               0.003042257               0.000916196               0.000000000               0.000000000               0.000000000               0.000000000              -0.002651918               0.006821056              -0.001235435              -0.001847097               0.002889361               0.001042265               0.000000000               0.000000000               0.000000000               0.000000000              -0.002017323               0.006593626              -0.001076592              -0.001580696               0.002724752               0.001144056               0.000000000               0.000000000               0.000000000               0.000000000              -0.001443521               0.006336744              -0.000940136              -0.001333410               0.002556697               0.001223287               0.000000000               0.000000000               0.000000000               0.000000000              -0.000936752               0.006051064              -0.000830322              -0.001107662               0.002386222               0.001278559               0.000000000               0.000000000               0.000000000               0.000000000              -0.000492804               0.005753120              -0.000730155              -0.000903939               0.002219000               0.001315061               0.000000000               0.000000000               0.000000000               0.000000000              -0.000112528               0.005475295              -0.000615984              -0.000726608               0.002067283               0.001340674               0.000000000               0.000000000               0.000000000               0.000000000               0.000191230               0.005244472              -0.000481912              -0.000583846               0.001942755               0.001358909               0.000000000               0.000000000               0.000000000               0.000000000               0.000397137               0.005076946              -0.000336890              -0.000485691               0.001854195               0.001368505               0.000000000               0.000000000               0.000000000               0.000000000               0.000498908               0.004984382              -0.000201699              -0.000435956               0.001806763               0.001370807               0.000000000               0.000000000               0.000000000               0.000000000               0.000507151               0.004966842              -0.000089920              -0.000430673               0.001799155               0.001368482               0.000000000               0.000000000               0.000000000               0.000000000               0.000461017               0.004954369              -0.000030005              -0.000446414               0.001800244               0.001353831               0.000000000               0.000000000               0.000000000               0.000000000              -0.006997110               0.000700351               0.000920582              -0.002711457               0.001137262              -0.001574196               0.000000000               0.000000000               0.000000000               0.000000000              -0.005987657               0.002802758              -0.000668079              -0.002595712               0.001799478              -0.000796234               0.000000000               0.000000000               0.000000000               0.000000000              -0.005536009               0.004739846              -0.001986558              -0.002668479               0.002469424              -0.000199054               0.000000000               0.000000000               0.000000000               0.000000000              -0.004848979               0.005675288              -0.002177899              -0.002527773               0.002734334               0.000206561               0.000000000               0.000000000               0.000000000               0.000000000              -0.004116202               0.006104855              -0.002054595              -0.002306678               0.002803823               0.000497146               0.000000000               0.000000000               0.000000000               0.000000000              -0.003397226               0.006270477              -0.001857094              -0.002057765               0.002776059               0.000718294               0.000000000               0.000000000               0.000000000               0.000000000              -0.002709670               0.006305816              -0.001653636              -0.001804349               0.002703367               0.000899018               0.000000000               0.000000000               0.000000000               0.000000000              -0.002063490               0.006255357              -0.001459677              -0.001555725               0.002603673               0.001047948               0.000000000               0.000000000               0.000000000               0.000000000              -0.001468731               0.006141843              -0.001289784              -0.001318502               0.002486761               0.001168259               0.000000000               0.000000000               0.000000000               0.000000000              -0.000927732               0.005985293              -0.001148326              -0.001096059               0.002360430               0.001264372               0.000000000               0.000000000               0.000000000               0.000000000              -0.000440578               0.005791163              -0.001021765              -0.000889110               0.002226738               0.001337628               0.000000000               0.000000000               0.000000000               0.000000000              -0.000005413               0.005573019              -0.000887445              -0.000698656               0.002090539               0.001391884               0.000000000               0.000000000               0.000000000               0.000000000               0.000374855               0.005366991              -0.000729829              -0.000530302               0.001965747               0.001435444               0.000000000               0.000000000               0.000000000               0.000000000               0.000678008               0.005194864              -0.000547795              -0.000395104               0.001863305               0.001468201               0.000000000               0.000000000               0.000000000               0.000000000               0.000883324               0.005078463              -0.000361728              -0.000303561               0.001793991               0.001490430               0.000000000               0.000000000               0.000000000               0.000000000               0.000972944               0.005020088              -0.000181756              -0.000262656               0.001760898               0.001498242               0.000000000               0.000000000               0.000000000               0.000000000               0.000963609               0.004988767              -0.000086507              -0.000262242               0.001750320               0.001488078               0.000000000               0.000000000               0.000000000               0.000000000              -0.009264791              -0.000285463               0.001425640              -0.003438611               0.001051042              -0.002387569               0.000000000               0.000000000               0.000000000               0.000000000              -0.007172296               0.001541872              -0.000385225              -0.002882341               0.001474727              -0.001407614               0.000000000               0.000000000               0.000000000               0.000000000              -0.005845151               0.003170474              -0.001964120              -0.002588237               0.001919557              -0.000668680               0.000000000               0.000000000               0.000000000               0.000000000              -0.004859054               0.004219528              -0.002318171              -0.002349582               0.002189688              -0.000159894               0.000000000               0.000000000               0.000000000               0.000000000              -0.004037942               0.004872336              -0.002275024              -0.002123266               0.002331850               0.000208585               0.000000000               0.000000000               0.000000000               0.000000000              -0.003299363               0.005270247              -0.002111631              -0.001896038               0.002388743               0.000492706               0.000000000               0.000000000               0.000000000               0.000000000              -0.002618112               0.005511233              -0.001916546              -0.001670692               0.002393956               0.000723264               0.000000000               0.000000000               0.000000000               0.000000000              -0.001973142               0.005647961              -0.001719284              -0.001445921               0.002364608               0.000918687               0.000000000               0.000000000               0.000000000               0.000000000              -0.001370089               0.005701963              -0.001538904              -0.001226526               0.002309477               0.001082951               0.000000000               0.000000000               0.000000000               0.000000000              -0.000807699               0.005690215              -0.001385793              -0.001014162               0.002234773               0.001220611               0.000000000               0.000000000               0.000000000               0.000000000              -0.000282930               0.005621294              -0.001246739              -0.000808759               0.002143332               0.001334573               0.000000000               0.000000000               0.000000000               0.000000000               0.000207951               0.005509032              -0.001102923              -0.000610646               0.002039874               0.001429228               0.000000000               0.000000000               0.000000000               0.000000000               0.000660619               0.005374319              -0.000934389              -0.000424057               0.001932774               0.001508717               0.000000000               0.000000000               0.000000000               0.000000000               0.001065834               0.005238907              -0.000734230              -0.000255175               0.001831343               0.001576168               0.000000000               0.000000000               0.000000000               0.000000000               0.001403127               0.005129359              -0.000513535              -0.000114997               0.001748102               0.001633104               0.000000000               0.000000000               0.000000000               0.000000000               0.001638989               0.005053386              -0.000270476              -0.000017053               0.001690130               0.001673077               0.000000000               0.000000000               0.000000000               0.000000000               0.001735390               0.005026818              -0.000145269               0.000022418               0.001668117               0.001690535               0.000000000               0.000000000               0.000000000               0.000000000              -0.011428132              -0.000891921               0.001582123              -0.004174057               0.001094037              -0.003080019               0.000000000               0.000000000               0.000000000               0.000000000              -0.008336071               0.000518548              -0.000144336              -0.003190842               0.001236455              -0.001954387               0.000000000               0.000000000               0.000000000               0.000000000              -0.006123099               0.001711188              -0.001705298              -0.002510057               0.001407072              -0.001102986               0.000000000               0.000000000               0.000000000               0.000000000              -0.004789289               0.002746992              -0.002144866              -0.002139354               0.001628770              -0.000510584               0.000000000               0.000000000               0.000000000               0.000000000              -0.003840634               0.003536584              -0.002178913              -0.001882307               0.001806284              -0.000076023               0.000000000               0.000000000               0.000000000               0.000000000              -0.003070191               0.004117398              -0.002067347              -0.001665993               0.001927783               0.000261789               0.000000000               0.000000000               0.000000000               0.000000000              -0.002389860               0.004543888              -0.001907819              -0.001464181               0.002002674               0.000538493               0.000000000               0.000000000               0.000000000               0.000000000              -0.001752643               0.004859691              -0.001736700              -0.001264700               0.002041447               0.000776747               0.000000000               0.000000000               0.000000000               0.000000000              -0.001147775               0.005070797              -0.001572949              -0.001064263               0.002045003               0.000980740               0.000000000               0.000000000               0.000000000               0.000000000              -0.000573310               0.005195887              -0.001432231              -0.000864476               0.002020103               0.001155628               0.000000000               0.000000000               0.000000000               0.000000000              -0.000022288               0.005257675              -0.001305077              -0.000665566               0.001974396               0.001308830               0.000000000               0.000000000               0.000000000               0.000000000               0.000514865               0.005271581              -0.001171613              -0.000465873               0.001912467               0.001446594               0.000000000               0.000000000               0.000000000               0.000000000               0.001040641               0.005240095              -0.001014173              -0.000264771               0.001834938               0.001570167               0.000000000               0.000000000               0.000000000               0.000000000               0.001553554               0.005179606              -0.000822701              -0.000064868               0.001748141               0.001683272               0.000000000               0.000000000               0.000000000               0.000000000               0.002036950               0.005114479              -0.000592970               0.000124545               0.001663294               0.001787839               0.000000000               0.000000000               0.000000000               0.000000000               0.002464185               0.005053855              -0.000320276               0.000292334               0.001587157               0.001879491               0.000000000               0.000000000               0.000000000               0.000000000               0.002720621               0.005050508              -0.000185591               0.000388916               0.001553847               0.001942763               0.000000000               0.000000000               0.000000000               0.000000000              -0.013225676              -0.001186543               0.001352175              -0.004811307               0.001208246              -0.003603061               0.000000000               0.000000000               0.000000000               0.000000000              -0.009338543              -0.000211263               0.000003760              -0.003475543               0.001088086              -0.002387457               0.000000000               0.000000000               0.000000000               0.000000000              -0.006365427               0.000528430              -0.001247667              -0.002453086               0.000993832              -0.001459255               0.000000000               0.000000000               0.000000000               0.000000000              -0.004693753               0.001472648              -0.001648287              -0.001944236               0.001138953              -0.000805283               0.000000000               0.000000000               0.000000000               0.000000000              -0.003601363               0.002320658              -0.001721538              -0.001640591               0.001320407              -0.000320184               0.000000000               0.000000000               0.000000000               0.000000000              -0.002783067               0.003019927              -0.001663403              -0.001421138               0.001480344               0.000059206               0.000000000               0.000000000               0.000000000               0.000000000              -0.002094372               0.003584812              -0.001555829              -0.001233489               0.001606088               0.000372599               0.000000000               0.000000000               0.000000000               0.000000000              -0.001464880               0.004033131              -0.001432062              -0.001053469               0.001695519               0.000642050               0.000000000               0.000000000               0.000000000               0.000000000              -0.000862305               0.004372374              -0.001308242              -0.000869909               0.001747413               0.000877503               0.000000000               0.000000000               0.000000000               0.000000000              -0.000278652               0.004625329              -0.001198544              -0.000682660               0.001769314               0.001086654               0.000000000               0.000000000               0.000000000               0.000000000               0.000288893               0.004809488              -0.001100598              -0.000492851               0.001767430               0.001274579               0.000000000               0.000000000               0.000000000               0.000000000               0.000857110               0.004934891              -0.001004061              -0.000295445               0.001743429               0.001447984               0.000000000               0.000000000               0.000000000               0.000000000               0.001443592               0.005007475              -0.000889143              -0.000084588               0.001697337               0.001612749               0.000000000               0.000000000               0.000000000               0.000000000               0.002048404               0.005037697              -0.000736954               0.000138438               0.001633070               0.001771507               0.000000000               0.000000000               0.000000000               0.000000000               0.002672601               0.005041454              -0.000541407               0.000372040               0.001556455               0.001928495               0.000000000               0.000000000               0.000000000               0.000000000               0.003312994               0.005027512              -0.000297203               0.000613928               0.001471178               0.002085105               0.000000000               0.000000000               0.000000000               0.000000000               0.003756368               0.005061780              -0.000178741               0.000775908               0.001428607               0.002204515               0.000000000               0.000000000               0.000000000               0.000000000              -0.014416528              -0.001289071               0.000776696              -0.005245061               0.001318654              -0.003926407               0.000000000               0.000000000               0.000000000               0.000000000              -0.010016367              -0.000635882               0.000040574              -0.003676650               0.001013582              -0.002663068               0.000000000               0.000000000               0.000000000               0.000000000              -0.006537763              -0.000238651              -0.000654296              -0.002421828               0.000727720              -0.001694107               0.000000000               0.000000000               0.000000000               0.000000000              -0.004622666               0.000605345              -0.000892617              -0.001809166               0.000804831              -0.001004335               0.000000000               0.000000000               0.000000000               0.000000000              -0.003409058               0.001467041              -0.000949668              -0.001461775               0.000976265              -0.000485510               0.000000000               0.000000000               0.000000000               0.000000000              -0.002539760               0.002224931              -0.000930323              -0.001230524               0.001151810              -0.000078714               0.000000000               0.000000000               0.000000000               0.000000000              -0.001838509               0.002863022              -0.000877513              -0.001047316               0.001303436               0.000256120               0.000000000               0.000000000               0.000000000               0.000000000              -0.001217328               0.003392203              -0.000812144              -0.000880521               0.001424230               0.000543709               0.000000000               0.000000000               0.000000000               0.000000000              -0.000626695               0.003822943              -0.000745492              -0.000712877               0.001511927               0.000799050               0.000000000               0.000000000               0.000000000               0.000000000              -0.000044238               0.004170786              -0.000684101              -0.000537936               0.001569560               0.001031624               0.000000000               0.000000000               0.000000000               0.000000000               0.000538924               0.004445383              -0.000630464              -0.000353576               0.001599638               0.001246062               0.000000000               0.000000000               0.000000000               0.000000000               0.001131194               0.004653021              -0.000585205              -0.000157430               0.001603468               0.001446038               0.000000000               0.000000000               0.000000000               0.000000000               0.001747809               0.004804268              -0.000527662               0.000054894               0.001583109               0.001638003               0.000000000               0.000000000               0.000000000               0.000000000               0.002411604               0.004909163              -0.000442372               0.000290703               0.001539470               0.001830173               0.000000000               0.000000000               0.000000000               0.000000000               0.003145887               0.004973188              -0.000331778               0.000558053               0.001471695               0.002029748               0.000000000               0.000000000               0.000000000               0.000000000               0.003966673               0.004999105              -0.000186420               0.000862606               0.001378816               0.002241422               0.000000000               0.000000000               0.000000000               0.000000000               0.004579476               0.005065843              -0.000115066               0.001084062               0.001327243               0.002411306               0.000000000               0.000000000               0.000000000               0.000000000              -0.014834185              -0.001313868               0.000000000              -0.005398582               0.001361562              -0.004037020               0.000000000               0.000000000               0.000000000               0.000000000              -0.010255008              -0.000776877              -0.000000000              -0.003748516               0.000990540              -0.002757976               0.000000000               0.000000000               0.000000000               0.000000000              -0.006600648              -0.000503501               0.000000000              -0.002412304               0.000636263              -0.001776041               0.000000000               0.000000000               0.000000000               0.000000000              -0.004596304               0.000299830               0.000000000              -0.001761091               0.000686969              -0.001074122               0.000000000               0.000000000               0.000000000               0.000000000              -0.003334223               0.001162609              -0.000000000              -0.001395658               0.000852750              -0.000542908               0.000000000               0.000000000               0.000000000               0.000000000              -0.002444341               0.001935904              -0.000000000              -0.001158613               0.001031499              -0.000127114               0.000000000               0.000000000               0.000000000               0.000000000              -0.001738535               0.002589530               0.000000000              -0.000975640               0.001188381               0.000212742               0.000000000               0.000000000               0.000000000               0.000000000              -0.001121323               0.003144826              -0.000000000              -0.000813597               0.001319464               0.000505867               0.000000000               0.000000000               0.000000000               0.000000000              -0.000536356               0.003615422              -0.000000000              -0.000653060               0.001422815               0.000769755               0.000000000               0.000000000               0.000000000               0.000000000               0.000043408               0.003999886               0.000000000              -0.000483707               0.001494517               0.001010811               0.000000000               0.000000000               0.000000000               0.000000000               0.000634093               0.004305833               0.000000000              -0.000300444               0.001535411               0.001234967               0.000000000               0.000000000               0.000000000               0.000000000               0.001235723               0.004545676               0.000000000              -0.000104813               0.001550148               0.001445335               0.000000000               0.000000000               0.000000000               0.000000000               0.001858122               0.004728293              -0.000000000               0.000105758               0.001540829               0.001646587               0.000000000               0.000000000               0.000000000               0.000000000               0.002544882               0.004866212              -0.000000000               0.000346051               0.001506704               0.001852755               0.000000000               0.000000000               0.000000000               0.000000000               0.003325181               0.004955773               0.000000000               0.000627465               0.001442753               0.002070218               0.000000000               0.000000000               0.000000000               0.000000000               0.004219195               0.004991516               0.000000000               0.000958249               0.001344406               0.002302655               0.000000000               0.000000000               0.000000000               0.000000000               0.004904046               0.005068077               0.000000000               0.001205496               0.001287510               0.002493006               0.000000000               0.000000000               0.000000000               0.000000000               0.000000000               0.000000000               0.000000000               0.000000000               0.000000000               0.000000000               0.000000000               0.000000000               0.000000000               0.000000000               0.000000000               0.000000000               0.000000000               0.000000000               0.000000000               0.000000000               0.000000000               0.000000000               0.000000000               0.000000000               0.000000000               0.000000000               0.000000000               0.000000000               0.000000000               0.000000000               0.000000000               0.000000000               0.000000000               0.000000000               0.000000000               0.000000000               0.000000000               0.000000000               0.000000000               0.000000000               0.000000000               0.000000000               0.000000000               0.000000000               0.000000000               0.000000000               0.000000000               0.000000000               0.000000000               0.000000000               0.000000000               0.000000000               0.000000000               0.000000000               0.000000000               0.000000000               0.000000000               0.000000000               0.000000000               0.000000000               0.000000000               0.000000000               0.000000000               0.000000000               0.000000000               0.000000000               0.000000000               0.000000000               0.000000000               0.000000000               0.000000000               0.000000000               0.000000000               0.000000000               0.000000000               0.000000000               0.000000000               0.000000000               0.000000000               0.000000000               0.000000000               0.000000000               0.000000000               0.000000000               0.000000000               0.000000000               0.000000000               0.000000000               0.000000000               0.000000000               0.000000000               0.000000000               0.000000000               0.000000000               0.000000000               0.000000000               0.000000000               0.000000000               0.000000000               0.000000000               0.000000000               0.000000000               0.000000000               0.000000000               0.000000000               0.000000000               0.000000000               0.000000000               0.000000000               0.000000000               0.000000000               0.000000000               0.000000000               0.000000000               0.000000000               0.000000000               0.000000000               0.000000000               0.000000000               0.000000000               0.000000000               0.000000000               0.000000000               0.000000000               0.000000000               0.000000000               0.000000000               0.000000000               0.000000000               0.000000000               0.000000000               0.000000000               0.000000000               0.000000000               0.000000000               0.000000000               0.000000000               0.000000000               0.000000000               0.000000000               0.000000000               0.000000000               0.000000000               0.000000000               0.000000000               0.000000000               0.000000000               0.000000000               0.000000000               0.000000000               0.000000000               0.000000000               0.000000000               0.000000000               0.000000000               0.000000000               0.000000000               0.000000000               0.000000000               0.000000000               0.000000000               0.000000000               0.000000000               0.000000000               0.000000000               0.000000000               0.000000000               0.000000000               0.000000000               0.000000000               0.000000000               0.000000000               0.000000000               0.000000000               0.002226745               0.022258815               0.001483124              -0.001947318               0.008068637               0.006121319               0.000000000               0.000000000               0.000000000               0.000000000               0.002002657               0.017057550               0.000634221              -0.001381194               0.006146191               0.004764997               0.000000000               0.000000000               0.000000000               0.000000000               0.002456537               0.012883277              -0.000193890              -0.000689206               0.004524118               0.003834912               0.000000000               0.000000000               0.000000000               0.000000000               0.002210395               0.010511900              -0.000522923              -0.000485088               0.003665628               0.003180540               0.000000000               0.000000000               0.000000000               0.000000000               0.001802482               0.008993691              -0.000646299              -0.000448280               0.003147294               0.002699014               0.000000000               0.000000000               0.000000000               0.000000000               0.001390097               0.007916932              -0.000679170              -0.000468329               0.002795061               0.002326731               0.000000000               0.000000000               0.000000000               0.000000000               0.001016798               0.007076198              -0.000666685              -0.000503225               0.002526451               0.002023226               0.000000000               0.000000000               0.000000000               0.000000000               0.000700019               0.006358997              -0.000636532              -0.000532367               0.002297100               0.001764733               0.000000000               0.000000000               0.000000000               0.000000000               0.000440093               0.005705047              -0.000602135              -0.000548095               0.002084362               0.001536267               0.000000000               0.000000000               0.000000000               0.000000000               0.000232673               0.005082789              -0.000565895              -0.000548095               0.001876944               0.001328849               0.000000000               0.000000000               0.000000000               0.000000000               0.000069627               0.004471331              -0.000532922              -0.000532805               0.001668030               0.001135225               0.000000000               0.000000000               0.000000000               0.000000000              -0.000054730               0.003860741              -0.000496686              -0.000503115               0.001454606               0.000951491               0.000000000               0.000000000               0.000000000               0.000000000              -0.000138254               0.003230727              -0.000447593              -0.000455685               0.001228793               0.000773108               0.000000000               0.000000000               0.000000000               0.000000000              -0.000175409               0.002564861              -0.000381679              -0.000386385               0.000983740               0.000597355               0.000000000               0.000000000               0.000000000               0.000000000              -0.000161304               0.001852001              -0.000291058              -0.000291989               0.000714657               0.000422668               0.000000000               0.000000000               0.000000000               0.000000000              -0.000094925               0.001078140              -0.000165157              -0.000170364               0.000416164               0.000245800               0.000000000               0.000000000               0.000000000               0.000000000              -0.000111519               0.000500836              -0.000103988              -0.000104424               0.000201751               0.000097327               0.000000000               0.000000000               0.000000000               0.000000000               0.002345677               0.020823279               0.002735204              -0.001723278               0.007515449               0.005792171               0.000000000               0.000000000               0.000000000               0.000000000               0.001768000               0.016166470               0.001165986              -0.001357806               0.005841371               0.004483566               0.000000000               0.000000000               0.000000000               0.000000000               0.001845116               0.012544075              -0.000353444              -0.000876089               0.004473346               0.003597257               0.000000000               0.000000000               0.000000000               0.000000000               0.001474906               0.010456578              -0.000936854              -0.000753981               0.003736818               0.002982837               0.000000000               0.000000000               0.000000000               0.000000000               0.001056577               0.009086023              -0.001143286              -0.000739535               0.003275156               0.002535621               0.000000000               0.000000000               0.000000000               0.000000000               0.000686192               0.008077999              -0.001190043              -0.000752427               0.002943448               0.002191021               0.000000000               0.000000000               0.000000000               0.000000000               0.000386106               0.007263032              -0.001161187              -0.000763088               0.002675349               0.001912261               0.000000000               0.000000000               0.000000000               0.000000000               0.000157987               0.006552167              -0.001101620              -0.000759774               0.002437292               0.001677517               0.000000000               0.000000000               0.000000000               0.000000000              -0.000015060               0.005898249              -0.001035691              -0.000742927               0.002213706               0.001470778               0.000000000               0.000000000               0.000000000               0.000000000              -0.000141812               0.005278891              -0.000967805              -0.000713040               0.001997293               0.001284253               0.000000000               0.000000000               0.000000000               0.000000000              -0.000229053               0.004680063              -0.000904748              -0.000670901               0.001783639               0.001112738               0.000000000               0.000000000               0.000000000               0.000000000              -0.000282333               0.004089890              -0.000835764              -0.000617110               0.001568986               0.000951876               0.000000000               0.000000000               0.000000000               0.000000000              -0.000294055               0.003499565              -0.000741491              -0.000547715               0.001349081               0.000801366               0.000000000               0.000000000               0.000000000               0.000000000              -0.000265712               0.002902856              -0.000621070              -0.000462498               0.001121775               0.000659277               0.000000000               0.000000000               0.000000000               0.000000000              -0.000201250               0.002301870              -0.000466831              -0.000363202               0.000888349               0.000525148               0.000000000               0.000000000               0.000000000               0.000000000              -0.000106979               0.001703001              -0.000260709              -0.000252992               0.000651992               0.000399000               0.000000000               0.000000000               0.000000000               0.000000000              -0.000097411               0.001291485              -0.000158161              -0.000197964               0.000496479               0.000298515               0.000000000               0.000000000               0.000000000               0.000000000               0.002408160               0.018662668               0.003573104              -0.001429772               0.006697417               0.005267645               0.000000000               0.000000000               0.000000000               0.000000000               0.001346226               0.014843075               0.001514208              -0.001350547               0.005397824               0.004047277               0.000000000               0.000000000               0.000000000               0.000000000               0.000911239               0.012048335              -0.000451329              -0.001164325               0.004404180               0.003239855               0.000000000               0.000000000               0.000000000               0.000000000               0.000405018               0.010359018              -0.001159205              -0.001142993               0.003833969               0.002690976               0.000000000               0.000000000               0.000000000               0.000000000               0.000009625               0.009179400              -0.001386366              -0.001143813               0.003441040               0.002297227               0.000000000               0.000000000               0.000000000               0.000000000              -0.000270782               0.008259185              -0.001421680              -0.001133939               0.003131014               0.001997074               0.000000000               0.000000000               0.000000000               0.000000000              -0.000453447               0.007474387              -0.001372971              -0.001104339               0.002859550               0.001755212               0.000000000               0.000000000               0.000000000               0.000000000              -0.000555097               0.006770373              -0.001292330              -0.001054456               0.002608253               0.001553798               0.000000000               0.000000000               0.000000000               0.000000000              -0.000604817               0.006121413              -0.001204626              -0.000991981               0.002371111               0.001379130               0.000000000               0.000000000               0.000000000               0.000000000              -0.000616046               0.005511952              -0.001116949              -0.000920009               0.002143969               0.001223959               0.000000000               0.000000000               0.000000000               0.000000000              -0.000590315               0.004935694              -0.001033170              -0.000838328               0.001924657               0.001086329               0.000000000               0.000000000               0.000000000               0.000000000              -0.000535258               0.004380552              -0.000942708              -0.000748289               0.001709599               0.000961310               0.000000000               0.000000000               0.000000000               0.000000000              -0.000451994               0.003853135              -0.000824281              -0.000651138               0.001501411               0.000850273               0.000000000               0.000000000               0.000000000               0.000000000              -0.000344557               0.003358583              -0.000673987              -0.000549031               0.001302527               0.000753496               0.000000000               0.000000000               0.000000000               0.000000000              -0.000226413               0.002906514              -0.000489922              -0.000448218               0.001118234               0.000670016               0.000000000               0.000000000               0.000000000               0.000000000              -0.000111809               0.002521192              -0.000265672              -0.000357076               0.000959414               0.000602338               0.000000000               0.000000000               0.000000000               0.000000000              -0.000076160               0.002300740              -0.000153350              -0.000316152               0.000872290               0.000556138               0.000000000               0.000000000               0.000000000               0.000000000               0.002269529               0.016034566               0.003918985              -0.001153247               0.005729217               0.004575970               0.000000000               0.000000000               0.000000000               0.000000000               0.000718014               0.013271816               0.001667581              -0.001389719               0.004887134               0.003497415               0.000000000               0.000000000               0.000000000               0.000000000              -0.000234020               0.011461690              -0.000442974              -0.001520465               0.004327347               0.002806882               0.000000000               0.000000000               0.000000000               0.000000000              -0.000813344               0.010199058              -0.001141161              -0.001579883               0.003926279               0.002346397               0.000000000               0.000000000               0.000000000               0.000000000              -0.001120123               0.009209419              -0.001338578              -0.001571220               0.003593516               0.002022295               0.000000000               0.000000000               0.000000000               0.000000000              -0.001251002               0.008369943              -0.001351807              -0.001515365               0.003295075               0.001779709               0.000000000               0.000000000               0.000000000               0.000000000              -0.001274215               0.007616591              -0.001289689              -0.001429901               0.003015472               0.001585571               0.000000000               0.000000000               0.000000000               0.000000000              -0.001228420               0.006932124              -0.001199853              -0.001327170               0.002753075               0.001425905               0.000000000               0.000000000               0.000000000               0.000000000              -0.001138061               0.006301593              -0.001107000              -0.001214469               0.002505333               0.001290863               0.000000000               0.000000000               0.000000000               0.000000000              -0.001012992               0.005715955              -0.001017441              -0.001094364               0.002270087               0.001175723               0.000000000               0.000000000               0.000000000               0.000000000              -0.000861468               0.005170256              -0.000929205              -0.000969331               0.002046511               0.001077181               0.000000000               0.000000000               0.000000000               0.000000000              -0.000694706               0.004662222              -0.000833732              -0.000843291               0.001835155               0.000991864               0.000000000               0.000000000               0.000000000               0.000000000              -0.000522897               0.004206846              -0.000712823              -0.000721941               0.001642915               0.000920974               0.000000000               0.000000000               0.000000000               0.000000000              -0.000354640               0.003820945              -0.000558276              -0.000610607               0.001477171               0.000866564               0.000000000               0.000000000               0.000000000               0.000000000              -0.000202653               0.003515590              -0.000382704              -0.000515442               0.001343666               0.000828223               0.000000000               0.000000000               0.000000000               0.000000000              -0.000086280               0.003313742              -0.000196902              -0.000446572               0.001253427               0.000806855               0.000000000               0.000000000               0.000000000               0.000000000              -0.000040791               0.003237634              -0.000103531              -0.000420000               0.001219200               0.000799201               0.000000000               0.000000000               0.000000000               0.000000000               0.001824577               0.013209043               0.003796806              -0.000966915               0.004725275               0.003758360               0.000000000               0.000000000               0.000000000               0.000000000              -0.000092984               0.011616998               0.001669595              -0.001486991               0.004367957               0.002880966               0.000000000               0.000000000               0.000000000               0.000000000              -0.001447222               0.010818601              -0.000293339              -0.001895029               0.004237840               0.002342812               0.000000000               0.000000000               0.000000000               0.000000000              -0.001987385               0.009953375              -0.000888488              -0.001989436               0.003980904               0.001991467               0.000000000               0.000000000               0.000000000               0.000000000              -0.002129568               0.009128875              -0.001037208              -0.001939693               0.003689492               0.001749799               0.000000000               0.000000000               0.000000000               0.000000000              -0.002071436               0.008354232              -0.001035438              -0.001821063               0.003391737               0.001570674               0.000000000               0.000000000               0.000000000               0.000000000              -0.001915486               0.007635154              -0.000979030              -0.001672698               0.003102592               0.001429894               0.000000000               0.000000000               0.000000000               0.000000000              -0.001708139               0.006984225              -0.000902587              -0.001513577               0.002832577               0.001319001               0.000000000               0.000000000               0.000000000               0.000000000              -0.001471419               0.006385961              -0.000822442              -0.001350024               0.002578640               0.001228616               0.000000000               0.000000000               0.000000000               0.000000000              -0.001219966               0.005833257              -0.000744255              -0.001186642               0.002339947               0.001153305               0.000000000               0.000000000               0.000000000               0.000000000              -0.000961621               0.005328286              -0.000661235              -0.001026641               0.002118291               0.001091650               0.000000000               0.000000000               0.000000000               0.000000000              -0.000710615               0.004875081              -0.000571604              -0.000875864               0.001916965               0.001041101               0.000000000               0.000000000               0.000000000               0.000000000              -0.000481321               0.004493430              -0.000468870              -0.000742172               0.001745186               0.001003013               0.000000000               0.000000000               0.000000000               0.000000000              -0.000285649               0.004200493              -0.000341508              -0.000632178               0.001610876               0.000978698               0.000000000               0.000000000               0.000000000               0.000000000              -0.000136823               0.004004147              -0.000206902              -0.000551826               0.001518644               0.000966819               0.000000000               0.000000000               0.000000000               0.000000000              -0.000044773               0.003907955              -0.000092221              -0.000505283               0.001471066               0.000965783               0.000000000               0.000000000               0.000000000               0.000000000              -0.000010135               0.003894584              -0.000039959              -0.000490622               0.001461722               0.000971100               0.000000000               0.000000000               0.000000000               0.000000000               0.001017043               0.010436568               0.003299516              -0.000923180               0.003786547               0.002863367               0.000000000               0.000000000               0.000000000               0.000000000              -0.001037725               0.010010803               0.001577756              -0.001640494               0.003883732               0.002243238               0.000000000               0.000000000               0.000000000               0.000000000              -0.002588594               0.010137097              -0.000005497              -0.002237855               0.004124950               0.001887096               0.000000000               0.000000000               0.000000000               0.000000000              -0.002963807               0.009597967              -0.000457756              -0.002311168               0.003969679               0.001658512               0.000000000               0.000000000               0.000000000               0.000000000              -0.002886864               0.008903849              -0.000569925              -0.002195550               0.003699770               0.001504220               0.000000000               0.000000000               0.000000000               0.000000000              -0.002623505               0.008197055              -0.000576366              -0.002008441               0.003401805               0.001393364               0.000000000               0.000000000               0.000000000               0.000000000              -0.002287581               0.007533407              -0.000550104              -0.001799514               0.003110948               0.001311434               0.000000000               0.000000000               0.000000000               0.000000000              -0.001930195               0.006925861              -0.000505649              -0.001589552               0.002838448               0.001248896               0.000000000               0.000000000               0.000000000               0.000000000              -0.001566991               0.006363867              -0.000450512              -0.001383101               0.002582301               0.001199200               0.000000000               0.000000000               0.000000000               0.000000000              -0.001218402               0.005850502              -0.000393859              -0.001188211               0.002346218               0.001158007               0.000000000               0.000000000               0.000000000               0.000000000              -0.000896710               0.005391125              -0.000330543              -0.001010155               0.002133742               0.001123587               0.000000000               0.000000000               0.000000000               0.000000000              -0.000605454               0.005001910              -0.000266429              -0.000852282               0.001951380               0.001099099               0.000000000               0.000000000               0.000000000               0.000000000              -0.000361823               0.004694775              -0.000202828              -0.000722529               0.001805752               0.001083224               0.000000000               0.000000000               0.000000000               0.000000000              -0.000178817               0.004477732              -0.000129884              -0.000626771               0.001701486               0.001074715               0.000000000               0.000000000               0.000000000               0.000000000              -0.000063625               0.004353069              -0.000062675              -0.000567992               0.001640339               0.001072347               0.000000000               0.000000000               0.000000000               0.000000000              -0.000011194               0.004308612              -0.000021699              -0.000542773               0.001617114               0.001074341               0.000000000               0.000000000               0.000000000               0.000000000               0.000001372               0.004308596              -0.000008687              -0.000538059               0.001615537               0.001077479               0.000000000               0.000000000               0.000000000               0.000000000              -0.000108605               0.007899465               0.002543640              -0.001028159               0.002975847               0.001947688               0.000000000               0.000000000               0.000000000               0.000000000              -0.002060920               0.008551605               0.001440845              -0.001841792               0.003464437               0.001622645               0.000000000               0.000000000               0.000000000               0.000000000              -0.003554570               0.009419092               0.000398471              -0.002510344               0.003976447               0.001466103               0.000000000               0.000000000               0.000000000               0.000000000              -0.003658268               0.009119649               0.000075103              -0.002511801               0.003877120               0.001365319               0.000000000               0.000000000               0.000000000               0.000000000              -0.003329723               0.008541495              -0.000039032              -0.002316327               0.003619245               0.001302918               0.000000000               0.000000000               0.000000000               0.000000000              -0.002868382               0.007919353              -0.000082107              -0.002065557               0.003328277               0.001262720               0.000000000               0.000000000               0.000000000               0.000000000              -0.002374486               0.007323766              -0.000098594              -0.001805898               0.003043197               0.001237299               0.000000000               0.000000000               0.000000000               0.000000000              -0.001896349               0.006760222              -0.000095948              -0.001556155               0.002772103               0.001215948               0.000000000               0.000000000               0.000000000               0.000000000              -0.001444798               0.006239422              -0.000078126              -0.001321724               0.002520361               0.001198637               0.000000000               0.000000000               0.000000000               0.000000000              -0.001036712               0.005771698              -0.000056657              -0.001110226               0.002293956               0.001183729               0.000000000               0.000000000               0.000000000               0.000000000              -0.000686549               0.005364882              -0.000034876              -0.000928064               0.002097631               0.001169567               0.000000000               0.000000000               0.000000000               0.000000000              -0.000398860               0.005040980              -0.000018661              -0.000779693               0.001940207               0.001160514               0.000000000               0.000000000               0.000000000               0.000000000              -0.000186563               0.004805745              -0.000011252              -0.000670678               0.001825458               0.001154781               0.000000000               0.000000000               0.000000000               0.000000000              -0.000051582               0.004661854              -0.000002137              -0.000602074               0.001754627               0.001152553               0.000000000               0.000000000               0.000000000               0.000000000               0.000006142               0.004600321               0.000004026              -0.000572736               0.001724337               0.001151601               0.000000000               0.000000000               0.000000000               0.000000000               0.000012350               0.004600075               0.000001153              -0.000570377               0.001723468               0.001153092               0.000000000               0.000000000               0.000000000               0.000000000               0.000008274               0.004619038              -0.000000066              -0.000574276               0.001731089               0.001156813               0.000000000               0.000000000               0.000000000               0.000000000              -0.001419710               0.005783882               0.001646741              -0.001255374               0.002346399               0.001091025               0.000000000               0.000000000               0.000000000               0.000000000              -0.003060710               0.007253279               0.001295958              -0.002054421               0.003102542               0.001048121               0.000000000               0.000000000               0.000000000               0.000000000              -0.004315258               0.008681005               0.000879003              -0.002703341               0.003794753               0.001091412               0.000000000               0.000000000               0.000000000               0.000000000              -0.004136344               0.008628902               0.000636691              -0.002629735               0.003752850               0.001123115               0.000000000               0.000000000               0.000000000               0.000000000              -0.003592110               0.008197043               0.000486705              -0.002371666               0.003522876               0.001151210               0.000000000               0.000000000               0.000000000               0.000000000              -0.002969431               0.007675591               0.000390004              -0.002072980               0.003249498               0.001176518               0.000000000               0.000000000               0.000000000               0.000000000              -0.002352602               0.007153963               0.000326842              -0.001776467               0.002976786               0.001200319               0.000000000               0.000000000               0.000000000               0.000000000              -0.001780145               0.006644128               0.000280282              -0.001498067               0.002714043               0.001215976               0.000000000               0.000000000               0.000000000               0.000000000              -0.001266338               0.006168419               0.000248952              -0.001245926               0.002471428               0.001225502               0.000000000               0.000000000               0.000000000               0.000000000              -0.000820342               0.005738672               0.000224753              -0.001024960               0.002254525               0.001229565               0.000000000               0.000000000               0.000000000               0.000000000              -0.000453359               0.005369361               0.000198856              -0.000841177               0.002070161               0.001228984               0.000000000               0.000000000               0.000000000               0.000000000              -0.000172068               0.005087409               0.000160765              -0.000700450               0.001929269               0.001228820               0.000000000               0.000000000               0.000000000               0.000000000               0.000011296               0.004897497               0.000110164              -0.000607949               0.001835133               0.001227183               0.000000000               0.000000000               0.000000000               0.000000000               0.000095567               0.004794225               0.000062470              -0.000563439               0.001785872               0.001222433               0.000000000               0.000000000               0.000000000               0.000000000               0.000102331               0.004773932               0.000025745              -0.000558366               0.001777417               0.001219051               0.000000000               0.000000000               0.000000000               0.000000000               0.000073476               0.004812358               0.000001700              -0.000573990               0.001795433               0.001221443               0.000000000               0.000000000               0.000000000               0.000000000               0.000054653               0.004847066              -0.000005499              -0.000585387               0.001810801               0.001225415               0.000000000               0.000000000               0.000000000               0.000000000              -0.002931984               0.003844375               0.000717442              -0.001580038               0.001808124               0.000228087               0.000000000               0.000000000               0.000000000               0.000000000              -0.003914608               0.005748812               0.001142004              -0.002186574               0.002645109               0.000458535               0.000000000               0.000000000               0.000000000               0.000000000              -0.004789675               0.007571477               0.001379083              -0.002742556               0.003437986               0.000695430               0.000000000               0.000000000               0.000000000               0.000000000              -0.004457306               0.007901426               0.001224981              -0.002659161               0.003520169               0.000861008               0.000000000               0.000000000               0.000000000               0.000000000              -0.003827654               0.007739825               0.001041235              -0.002402842               0.003380863               0.000978021               0.000000000               0.000000000               0.000000000               0.000000000              -0.003139289               0.007417464               0.000889028              -0.002104411               0.003173934               0.001069522               0.000000000               0.000000000               0.000000000               0.000000000              -0.002474468               0.007048302               0.000767886              -0.001808959               0.002952397               0.001143438               0.000000000               0.000000000               0.000000000               0.000000000              -0.001863302               0.006665039               0.000664005              -0.001531864               0.002732279               0.001200414               0.000000000               0.000000000               0.000000000               0.000000000              -0.001321025               0.006284662               0.000577684              -0.001280964               0.002521854               0.001240891               0.000000000               0.000000000               0.000000000               0.000000000              -0.000850906               0.005910521               0.000508267              -0.001057902               0.002322788               0.001264886               0.000000000               0.000000000               0.000000000               0.000000000              -0.000452770               0.005560683               0.000440206              -0.000864872               0.002141833               0.001276961               0.000000000               0.000000000               0.000000000               0.000000000              -0.000137373               0.005269512               0.000355891              -0.000710202               0.001993221               0.001283018               0.000000000               0.000000000               0.000000000               0.000000000               0.000083194               0.005054136               0.000257384              -0.000600568               0.001884884               0.001284316               0.000000000               0.000000000               0.000000000               0.000000000               0.000204588               0.004925470               0.000159426              -0.000538962               0.001821461               0.001282499               0.000000000               0.000000000               0.000000000               0.000000000               0.000241081               0.004887269               0.000077766              -0.000520502               0.001802574               0.001282072               0.000000000               0.000000000               0.000000000               0.000000000               0.000221526               0.004921943               0.000024732              -0.000532169               0.001818021               0.001285852               0.000000000               0.000000000               0.000000000               0.000000000               0.000185386               0.004942546               0.000000456              -0.000548297               0.001830265               0.001281967               0.000000000               0.000000000               0.000000000               0.000000000              -0.004836670               0.002100409              -0.000167701              -0.002076299               0.001392226              -0.000684072               0.000000000               0.000000000               0.000000000               0.000000000              -0.004878769               0.004230581               0.000934535              -0.002358356               0.002196297              -0.000162059               0.000000000               0.000000000               0.000000000               0.000000000              -0.005191504               0.006249533               0.001781386              -0.002727999               0.002992489               0.000264490               0.000000000               0.000000000               0.000000000               0.000000000              -0.004722441               0.006939732               0.001783474              -0.002638376               0.003192679               0.000554303               0.000000000               0.000000000               0.000000000               0.000000000              -0.004044912               0.007086959               0.001604805              -0.002402706               0.003163198               0.000760491               0.000000000               0.000000000               0.000000000               0.000000000              -0.003335917               0.007000781               0.001411274              -0.002126061               0.003042257               0.000916196               0.000000000               0.000000000               0.000000000               0.000000000              -0.002651918               0.006821056               0.001235435              -0.001847097               0.002889361               0.001042265               0.000000000               0.000000000               0.000000000               0.000000000              -0.002017323               0.006593626               0.001076592              -0.001580696               0.002724752               0.001144056               0.000000000               0.000000000               0.000000000               0.000000000              -0.001443521               0.006336744               0.000940136              -0.001333410               0.002556697               0.001223287               0.000000000               0.000000000               0.000000000               0.000000000              -0.000936752               0.006051064               0.000830322              -0.001107662               0.002386222               0.001278559               0.000000000               0.000000000               0.000000000               0.000000000              -0.000492804               0.005753120               0.000730155              -0.000903939               0.002219000               0.001315061               0.000000000               0.000000000               0.000000000               0.000000000              -0.000112528               0.005475295               0.000615984              -0.000726608               0.002067283               0.001340674               0.000000000               0.000000000               0.000000000               0.000000000               0.000191230               0.005244472               0.000481912              -0.000583846               0.001942755               0.001358909               0.000000000               0.000000000               0.000000000               0.000000000               0.000397137               0.005076946               0.000336890              -0.000485691               0.001854195               0.001368505               0.000000000               0.000000000               0.000000000               0.000000000               0.000498908               0.004984382               0.000201699              -0.000435956               0.001806763               0.001370807               0.000000000               0.000000000               0.000000000               0.000000000               0.000507151               0.004966842               0.000089920              -0.000430673               0.001799155               0.001368482               0.000000000               0.000000000               0.000000000               0.000000000               0.000461017               0.004954369               0.000030005              -0.000446414               0.001800244               0.001353831               0.000000000               0.000000000               0.000000000               0.000000000              -0.006997110               0.000700351              -0.000920582              -0.002711457               0.001137262              -0.001574196               0.000000000               0.000000000               0.000000000               0.000000000              -0.005987657               0.002802758               0.000668079              -0.002595712               0.001799478              -0.000796234               0.000000000               0.000000000               0.000000000               0.000000000              -0.005536009               0.004739846               0.001986558              -0.002668479               0.002469424              -0.000199054               0.000000000               0.000000000               0.000000000               0.000000000              -0.004848979               0.005675288               0.002177899              -0.002527773               0.002734334               0.000206561               0.000000000               0.000000000               0.000000000               0.000000000              -0.004116202               0.006104855               0.002054595              -0.002306678               0.002803823               0.000497146               0.000000000               0.000000000               0.000000000               0.000000000              -0.003397226               0.006270477               0.001857094              -0.002057765               0.002776059               0.000718294               0.000000000               0.000000000               0.000000000               0.000000000              -0.002709670               0.006305816               0.001653636              -0.001804349               0.002703367               0.000899018               0.000000000               0.000000000               0.000000000               0.000000000              -0.002063490               0.006255357               0.001459677              -0.001555725               0.002603673               0.001047948               0.000000000               0.000000000               0.000000000               0.000000000              -0.001468731               0.006141843               0.001289784              -0.001318502               0.002486761               0.001168259               0.000000000               0.000000000               0.000000000               0.000000000              -0.000927732               0.005985293               0.001148326              -0.001096059               0.002360430               0.001264372               0.000000000               0.000000000               0.000000000               0.000000000              -0.000440578               0.005791163               0.001021765              -0.000889110               0.002226738               0.001337628               0.000000000               0.000000000               0.000000000               0.000000000              -0.000005413               0.005573019               0.000887445              -0.000698656               0.002090539               0.001391884               0.000000000               0.000000000               0.000000000               0.000000000               0.000374855               0.005366991               0.000729829              -0.000530302               0.001965747               0.001435444               0.000000000               0.000000000               0.000000000               0.000000000               0.000678008               0.005194864               0.000547795              -0.000395104               0.001863305               0.001468201               0.000000000               0.000000000               0.000000000               0.000000000               0.000883324               0.005078463               0.000361728              -0.000303561               0.001793991               0.001490430               0.000000000               0.000000000               0.000000000               0.000000000               0.000972944               0.005020088               0.000181756              -0.000262656               0.001760898               0.001498242               0.000000000               0.000000000               0.000000000               0.000000000               0.000963609               0.004988767               0.000086507              -0.000262242               0.001750320               0.001488078               0.000000000               0.000000000               0.000000000               0.000000000              -0.009264791              -0.000285463              -0.001425640              -0.003438611               0.001051042              -0.002387569               0.000000000               0.000000000               0.000000000               0.000000000              -0.007172296               0.001541872               0.000385225              -0.002882341               0.001474727              -0.001407614               0.000000000               0.000000000               0.000000000               0.000000000              -0.005845151               0.003170474               0.001964120              -0.002588237               0.001919557              -0.000668680               0.000000000               0.000000000               0.000000000               0.000000000              -0.004859054               0.004219528               0.002318171              -0.002349582               0.002189688              -0.000159894               0.000000000               0.000000000               0.000000000               0.000000000              -0.004037942               0.004872336               0.002275024              -0.002123266               0.002331850               0.000208585               0.000000000               0.000000000               0.000000000               0.000000000              -0.003299363               0.005270247               0.002111631              -0.001896038               0.002388743               0.000492706               0.000000000               0.000000000               0.000000000               0.000000000              -0.002618112               0.005511233               0.001916546              -0.001670692               0.002393956               0.000723264               0.000000000               0.000000000               0.000000000               0.000000000              -0.001973142               0.005647961               0.001719284              -0.001445921               0.002364608               0.000918687               0.000000000               0.000000000               0.000000000               0.000000000              -0.001370089               0.005701963               0.001538904              -0.001226526               0.002309477               0.001082951               0.000000000               0.000000000               0.000000000               0.000000000              -0.000807699               0.005690215               0.001385793              -0.001014162               0.002234773               0.001220611               0.000000000               0.000000000               0.000000000               0.000000000              -0.000282930               0.005621294               0.001246739              -0.000808759               0.002143332               0.001334573               0.000000000               0.000000000               0.000000000               0.000000000               0.000207951               0.005509032               0.001102923              -0.000610646               0.002039874               0.001429228               0.000000000               0.000000000               0.000000000               0.000000000               0.000660619               0.005374319               0.000934389              -0.000424057               0.001932774               0.001508717               0.000000000               0.000000000               0.000000000               0.000000000               0.001065834               0.005238907               0.000734230              -0.000255175               0.001831343               0.001576168               0.000000000               0.000000000               0.000000000               0.000000000               0.001403127               0.005129359               0.000513535              -0.000114997               0.001748102               0.001633104               0.000000000               0.000000000               0.000000000               0.000000000               0.001638989               0.005053386               0.000270476              -0.000017053               0.001690130               0.001673077               0.000000000               0.000000000               0.000000000               0.000000000               0.001735390               0.005026818               0.000145269               0.000022418               0.001668117               0.001690535               0.000000000               0.000000000               0.000000000               0.000000000              -0.011428132              -0.000891921              -0.001582123              -0.004174057               0.001094037              -0.003080019               0.000000000               0.000000000               0.000000000               0.000000000              -0.008336071               0.000518548               0.000144336              -0.003190842               0.001236455              -0.001954387               0.000000000               0.000000000               0.000000000               0.000000000              -0.006123099               0.001711188               0.001705298              -0.002510057               0.001407072              -0.001102986               0.000000000               0.000000000               0.000000000               0.000000000              -0.004789289               0.002746992               0.002144866              -0.002139354               0.001628770              -0.000510584               0.000000000               0.000000000               0.000000000               0.000000000              -0.003840634               0.003536584               0.002178913              -0.001882307               0.001806284              -0.000076023               0.000000000               0.000000000               0.000000000               0.000000000              -0.003070191               0.004117398               0.002067347              -0.001665993               0.001927783               0.000261789               0.000000000               0.000000000               0.000000000               0.000000000              -0.002389860               0.004543888               0.001907819              -0.001464181               0.002002674               0.000538493               0.000000000               0.000000000               0.000000000               0.000000000              -0.001752643               0.004859691               0.001736700              -0.001264700               0.002041447               0.000776747               0.000000000               0.000000000               0.000000000               0.000000000              -0.001147775               0.005070797               0.001572949              -0.001064263               0.002045003               0.000980740               0.000000000               0.000000000               0.000000000               0.000000000              -0.000573310               0.005195887               0.001432231              -0.000864476               0.002020103               0.001155628               0.000000000               0.000000000               0.000000000               0.000000000              -0.000022288               0.005257675               0.001305077              -0.000665566               0.001974396               0.001308830               0.000000000               0.000000000               0.000000000               0.000000000               0.000514865               0.005271581               0.001171613              -0.000465873               0.001912467               0.001446594               0.000000000               0.000000000               0.000000000               0.000000000               0.001040641               0.005240095               0.001014173              -0.000264771               0.001834938               0.001570167               0.000000000               0.000000000               0.000000000               0.000000000               0.001553554               0.005179606               0.000822701              -0.000064868               0.001748141               0.001683272               0.000000000               0.000000000               0.000000000               0.000000000               0.002036950               0.005114479               0.000592970               0.000124545               0.001663294               0.001787839               0.000000000               0.000000000               0.000000000               0.000000000               0.002464185               0.005053855               0.000320276               0.000292334               0.001587157               0.001879491               0.000000000               0.000000000               0.000000000               0.000000000               0.002720621               0.005050508               0.000185591               0.000388916               0.001553847               0.001942763               0.000000000               0.000000000               0.000000000               0.000000000              -0.013225676              -0.001186543              -0.001352175              -0.004811307               0.001208246              -0.003603061               0.000000000               0.000000000               0.000000000               0.000000000              -0.009338543              -0.000211263              -0.000003760              -0.003475543               0.001088086              -0.002387457               0.000000000               0.000000000               0.000000000               0.000000000              -0.006365427               0.000528430               0.001247667              -0.002453086               0.000993832              -0.001459255               0.000000000               0.000000000               0.000000000               0.000000000              -0.004693753               0.001472648               0.001648287              -0.001944236               0.001138953              -0.000805283               0.000000000               0.000000000               0.000000000               0.000000000              -0.003601363               0.002320658               0.001721538              -0.001640591               0.001320407              -0.000320184               0.000000000               0.000000000               0.000000000               0.000000000              -0.002783067               0.003019927               0.001663403              -0.001421138               0.001480344               0.000059206               0.000000000               0.000000000               0.000000000               0.000000000              -0.002094372               0.003584812               0.001555829              -0.001233489               0.001606088               0.000372599               0.000000000               0.000000000               0.000000000               0.000000000              -0.001464880               0.004033131               0.001432062              -0.001053469               0.001695519               0.000642050               0.000000000               0.000000000               0.000000000               0.000000000              -0.000862305               0.004372374               0.001308242              -0.000869909               0.001747413               0.000877503               0.000000000               0.000000000               0.000000000               0.000000000              -0.000278652               0.004625329               0.001198544              -0.000682660               0.001769314               0.001086654               0.000000000               0.000000000               0.000000000               0.000000000               0.000288893               0.004809488               0.001100598              -0.000492851               0.001767430               0.001274579               0.000000000               0.000000000               0.000000000               0.000000000               0.000857110               0.004934891               0.001004061              -0.000295445               0.001743429               0.001447984               0.000000000               0.000000000               0.000000000               0.000000000               0.001443592               0.005007475               0.000889143              -0.000084588               0.001697337               0.001612749               0.000000000               0.000000000               0.000000000               0.000000000               0.002048404               0.005037697               0.000736954               0.000138438               0.001633070               0.001771507               0.000000000               0.000000000               0.000000000               0.000000000               0.002672601               0.005041454               0.000541407               0.000372040               0.001556455               0.001928495               0.000000000               0.000000000               0.000000000               0.000000000               0.003312994               0.005027512               0.000297203               0.000613928               0.001471178               0.002085105               0.000000000               0.000000000               0.000000000               0.000000000               0.003756368               0.005061780               0.000178741               0.000775908               0.001428607               0.002204515               0.000000000               0.000000000               0.000000000               0.000000000              -0.014416528              -0.001289071              -0.000776696              -0.005245061               0.001318654              -0.003926407               0.000000000               0.000000000               0.000000000               0.000000000              -0.010016367              -0.000635882              -0.000040574              -0.003676650               0.001013582              -0.002663068               0.000000000               0.000000000               0.000000000               0.000000000              -0.006537763              -0.000238651               0.000654296              -0.002421828               0.000727720              -0.001694107               0.000000000               0.000000000               0.000000000               0.000000000              -0.004622666               0.000605345               0.000892617              -0.001809166               0.000804831              -0.001004335               0.000000000               0.000000000               0.000000000               0.000000000              -0.003409058               0.001467041               0.000949668              -0.001461775               0.000976265              -0.000485510               0.000000000               0.000000000               0.000000000               0.000000000              -0.002539760               0.002224931               0.000930323              -0.001230524               0.001151810              -0.000078714               0.000000000               0.000000000               0.000000000               0.000000000              -0.001838509               0.002863022               0.000877513              -0.001047316               0.001303436               0.000256120               0.000000000               0.000000000               0.000000000               0.000000000              -0.001217328               0.003392203               0.000812144              -0.000880521               0.001424230               0.000543709               0.000000000               0.000000000               0.000000000               0.000000000              -0.000626695               0.003822943               0.000745492              -0.000712877               0.001511927               0.000799050               0.000000000               0.000000000               0.000000000               0.000000000              -0.000044238               0.004170786               0.000684101              -0.000537936               0.001569560               0.001031624               0.000000000               0.000000000               0.000000000               0.000000000               0.000538924               0.004445383               0.000630464              -0.000353576               0.001599638               0.001246062               0.000000000               0.000000000               0.000000000               0.000000000               0.001131194               0.004653021               0.000585205              -0.000157430               0.001603468               0.001446038               0.000000000               0.000000000               0.000000000               0.000000000               0.001747809               0.004804268               0.000527662               0.000054894               0.001583109               0.001638003               0.000000000               0.000000000               0.000000000               0.000000000               0.002411604               0.004909163               0.000442372               0.000290703               0.001539470               0.001830173               0.000000000               0.000000000               0.000000000               0.000000000               0.003145887               0.004973188               0.000331778               0.000558053               0.001471695               0.002029748               0.000000000               0.000000000               0.000000000               0.000000000               0.003966673               0.004999105               0.000186420               0.000862606               0.001378816               0.002241422               0.000000000               0.000000000               0.000000000               0.000000000               0.004579476               0.005065843               0.000115066               0.001084062               0.001327243               0.002411306               0.000000000               0.000000000               0.000000000               0.000000000              -0.014834185              -0.001313868               0.000000000              -0.005398582               0.001361562              -0.004037020               0.000000000               0.000000000               0.000000000               0.000000000              -0.010255008              -0.000776877              -0.000000000              -0.003748516               0.000990540              -0.002757976               0.000000000               0.000000000               0.000000000               0.000000000              -0.006600648              -0.000503501              -0.000000000              -0.002412304               0.000636263              -0.001776041               0.000000000               0.000000000               0.000000000               0.000000000              -0.004596304               0.000299830               0.000000000              -0.001761091               0.000686969              -0.001074122               0.000000000               0.000000000               0.000000000               0.000000000              -0.003334223               0.001162609               0.000000000              -0.001395658               0.000852750              -0.000542908               0.000000000               0.000000000               0.000000000               0.000000000              -0.002444341               0.001935904               0.000000000              -0.001158613               0.001031499              -0.000127114               0.000000000               0.000000000               0.000000000               0.000000000              -0.001738535               0.002589530               0.000000000              -0.000975640               0.001188381               0.000212742               0.000000000               0.000000000               0.000000000               0.000000000              -0.001121323               0.003144826               0.000000000              -0.000813597               0.001319464               0.000505867               0.000000000               0.000000000               0.000000000               0.000000000              -0.000536356               0.003615422               0.000000000              -0.000653060               0.001422815               0.000769755               0.000000000               0.000000000               0.000000000               0.000000000               0.000043408               0.003999886              -0.000000000              -0.000483707               0.001494517               0.001010811               0.000000000               0.000000000               0.000000000               0.000000000               0.000634093               0.004305833               0.000000000              -0.000300444               0.001535411               0.001234967               0.000000000               0.000000000               0.000000000               0.000000000               0.001235723               0.004545676               0.000000000              -0.000104813               0.001550148               0.001445335               0.000000000               0.000000000               0.000000000               0.000000000               0.001858122               0.004728293               0.000000000               0.000105758               0.001540829               0.001646587               0.000000000               0.000000000               0.000000000               0.000000000               0.002544882               0.004866212              -0.000000000               0.000346051               0.001506704               0.001852755               0.000000000               0.000000000               0.000000000               0.000000000               0.003325181               0.004955773              -0.000000000               0.000627465               0.001442753               0.002070218               0.000000000               0.000000000               0.000000000               0.000000000               0.004219195               0.004991516               0.000000000               0.000958249               0.001344406               0.002302655               0.000000000               0.000000000               0.000000000               0.000000000               0.004904046               0.005068077               0.000000000               0.001205496               0.001287510               0.002493006               0.000000000               0.000000000               0.000000000               0.000000000               0.002172474               0.022764220               0.000000000              -0.002030845               0.008264946               0.006234101               0.000000000               0.000000000               0.000000000               0.000000000               0.002077611               0.017371578               0.000000000              -0.001392340               0.006254581               0.004862242               0.000000000               0.000000000               0.000000000               0.000000000               0.002670650               0.013003885              -0.000000000              -0.000623990               0.004542582               0.003918591               0.000000000               0.000000000               0.000000000               0.000000000               0.002475834               0.010531368              -0.000000000              -0.000387983               0.003639749               0.003251766               0.000000000               0.000000000               0.000000000               0.000000000               0.002075534               0.008957050               0.000000000              -0.000341305               0.003099422               0.002758117               0.000000000               0.000000000               0.000000000               0.000000000               0.001648317               0.007854700               0.000000000              -0.000363718               0.002739446               0.002375729               0.000000000               0.000000000               0.000000000               0.000000000               0.001250078               0.007001168              -0.000000000              -0.000406366               0.002469154               0.002062789               0.000000000               0.000000000               0.000000000               0.000000000               0.000902261               0.006277526               0.000000000              -0.000446342               0.002241268               0.001794927               0.000000000               0.000000000               0.000000000               0.000000000               0.000610791               0.005624380               0.000000000              -0.000474000               0.002032774               0.001558775               0.000000000               0.000000000               0.000000000               0.000000000               0.000374431               0.005001692               0.000000000              -0.000484799               0.001828814               0.001344015               0.000000000               0.000000000               0.000000000               0.000000000               0.000185942               0.004387667               0.000000000              -0.000478729               0.001622117               0.001143388               0.000000000               0.000000000               0.000000000               0.000000000               0.000033514               0.003767547               0.000000000              -0.000458374               0.001408628               0.000950253               0.000000000               0.000000000               0.000000000               0.000000000              -0.000078635               0.003123637              -0.000000000              -0.000419942               0.001181182               0.000761241               0.000000000               0.000000000               0.000000000               0.000000000              -0.000135746               0.002437374              -0.000000000              -0.000355576               0.000930975               0.000575399               0.000000000               0.000000000               0.000000000               0.000000000              -0.000139014               0.001684578               0.000000000              -0.000262702               0.000649088               0.000386386               0.000000000               0.000000000               0.000000000               0.000000000              -0.000085312               0.000838889               0.000000000              -0.000136853               0.000325244               0.000188391               0.000000000               0.000000000               0.000000000               0.000000000              -0.000111979               0.000193558              -0.000000000              -0.000066187               0.000086581               0.000020394               0.000000000               0.000000000               0.000000000               0.000000000               0.002226745               0.022258815              -0.001483124              -0.001947318               0.008068637               0.006121319               0.000000000               0.000000000               0.000000000               0.000000000               0.002002657               0.017057550              -0.000634221              -0.001381194               0.006146191               0.004764997               0.000000000               0.000000000               0.000000000               0.000000000               0.002456537               0.012883277               0.000193890              -0.000689206               0.004524118               0.003834912               0.000000000               0.000000000               0.000000000               0.000000000               0.002210395               0.010511900               0.000522923              -0.000485088               0.003665628               0.003180540               0.000000000               0.000000000               0.000000000               0.000000000               0.001802482               0.008993691               0.000646299              -0.000448280               0.003147294               0.002699014               0.000000000               0.000000000               0.000000000               0.000000000               0.001390097               0.007916932               0.000679170              -0.000468329               0.002795061               0.002326731               0.000000000               0.000000000               0.000000000               0.000000000               0.001016798               0.007076198               0.000666685              -0.000503225               0.002526451               0.002023226               0.000000000               0.000000000               0.000000000               0.000000000               0.000700019               0.006358997               0.000636532              -0.000532367               0.002297100               0.001764733               0.000000000               0.000000000               0.000000000               0.000000000               0.000440093               0.005705047               0.000602135              -0.000548095               0.002084362               0.001536267               0.000000000               0.000000000               0.000000000               0.000000000               0.000232673               0.005082789               0.000565895              -0.000548095               0.001876944               0.001328849               0.000000000               0.000000000               0.000000000               0.000000000               0.000069627               0.004471331               0.000532922              -0.000532805               0.001668030               0.001135225               0.000000000               0.000000000               0.000000000               0.000000000              -0.000054730               0.003860741               0.000496686              -0.000503115               0.001454606               0.000951491               0.000000000               0.000000000               0.000000000               0.000000000              -0.000138254               0.003230727               0.000447593              -0.000455685               0.001228793               0.000773108               0.000000000               0.000000000               0.000000000               0.000000000              -0.000175409               0.002564861               0.000381679              -0.000386385               0.000983740               0.000597355               0.000000000               0.000000000               0.000000000               0.000000000              -0.000161304               0.001852001               0.000291058              -0.000291989               0.000714657               0.000422668               0.000000000               0.000000000               0.000000000               0.000000000              -0.000094925               0.001078140               0.000165157              -0.000170364               0.000416164               0.000245800               0.000000000               0.000000000               0.000000000               0.000000000              -0.000111519               0.000500836               0.000103988              -0.000104424               0.000201751               0.000097327               0.000000000               0.000000000               0.000000000               0.000000000               0.002345677               0.020823279              -0.002735204              -0.001723278               0.007515449               0.005792171               0.000000000               0.000000000               0.000000000               0.000000000               0.001768000               0.016166470              -0.001165986              -0.001357806               0.005841371               0.004483566               0.000000000               0.000000000               0.000000000               0.000000000               0.001845116               0.012544075               0.000353444              -0.000876089               0.004473346               0.003597257               0.000000000               0.000000000               0.000000000               0.000000000               0.001474906               0.010456578               0.000936854              -0.000753981               0.003736818               0.002982837               0.000000000               0.000000000               0.000000000               0.000000000               0.001056577               0.009086023               0.001143286              -0.000739535               0.003275156               0.002535621               0.000000000               0.000000000               0.000000000               0.000000000               0.000686192               0.008077999               0.001190043              -0.000752427               0.002943448               0.002191021               0.000000000               0.000000000               0.000000000               0.000000000               0.000386106               0.007263032               0.001161187              -0.000763088               0.002675349               0.001912261               0.000000000               0.000000000               0.000000000               0.000000000               0.000157987               0.006552167               0.001101620              -0.000759774               0.002437292               0.001677517               0.000000000               0.000000000               0.000000000               0.000000000              -0.000015060               0.005898249               0.001035691              -0.000742927               0.002213706               0.001470778               0.000000000               0.000000000               0.000000000               0.000000000              -0.000141812               0.005278891               0.000967805              -0.000713040               0.001997293               0.001284253               0.000000000               0.000000000               0.000000000               0.000000000              -0.000229053               0.004680063               0.000904748              -0.000670901               0.001783639               0.001112738               0.000000000               0.000000000               0.000000000               0.000000000              -0.000282333               0.004089890               0.000835764              -0.000617110               0.001568986               0.000951876               0.000000000               0.000000000               0.000000000               0.000000000              -0.000294055               0.003499565               0.000741491              -0.000547715               0.001349081               0.000801366               0.000000000               0.000000000               0.000000000               0.000000000              -0.000265712               0.002902856               0.000621070              -0.000462498               0.001121775               0.000659277               0.000000000               0.000000000               0.000000000               0.000000000              -0.000201250               0.002301870               0.000466831              -0.000363202               0.000888349               0.000525148               0.000000000               0.000000000               0.000000000               0.000000000              -0.000106979               0.001703001               0.000260709              -0.000252992               0.000651992               0.000399000               0.000000000               0.000000000               0.000000000               0.000000000              -0.000097411               0.001291485               0.000158161              -0.000197964               0.000496479               0.000298515               0.000000000               0.000000000               0.000000000               0.000000000               0.002408160               0.018662668              -0.003573104              -0.001429772               0.006697417               0.005267645               0.000000000               0.000000000               0.000000000               0.000000000               0.001346226               0.014843075              -0.001514208              -0.001350547               0.005397824               0.004047277               0.000000000               0.000000000               0.000000000               0.000000000               0.000911239               0.012048335               0.000451329              -0.001164325               0.004404180               0.003239855               0.000000000               0.000000000               0.000000000               0.000000000               0.000405018               0.010359018               0.001159205              -0.001142993               0.003833969               0.002690976               0.000000000               0.000000000               0.000000000               0.000000000               0.000009625               0.009179400               0.001386366              -0.001143813               0.003441040               0.002297227               0.000000000               0.000000000               0.000000000               0.000000000              -0.000270782               0.008259185               0.001421680              -0.001133939               0.003131014               0.001997074               0.000000000               0.000000000               0.000000000               0.000000000              -0.000453447               0.007474387               0.001372971              -0.001104339               0.002859550               0.001755212               0.000000000               0.000000000               0.000000000               0.000000000              -0.000555097               0.006770373               0.001292330              -0.001054456               0.002608253               0.001553798               0.000000000               0.000000000               0.000000000               0.000000000              -0.000604817               0.006121413               0.001204626              -0.000991981               0.002371111               0.001379130               0.000000000               0.000000000               0.000000000               0.000000000              -0.000616046               0.005511952               0.001116949              -0.000920009               0.002143969               0.001223959               0.000000000               0.000000000               0.000000000               0.000000000              -0.000590315               0.004935694               0.001033170              -0.000838328               0.001924657               0.001086329               0.000000000               0.000000000               0.000000000               0.000000000              -0.000535258               0.004380552               0.000942708              -0.000748289               0.001709599               0.000961310               0.000000000               0.000000000               0.000000000               0.000000000              -0.000451994               0.003853135               0.000824281              -0.000651138               0.001501411               0.000850273               0.000000000               0.000000000               0.000000000               0.000000000              -0.000344557               0.003358583               0.000673987              -0.000549031               0.001302527               0.000753496               0.000000000               0.000000000               0.000000000               0.000000000              -0.000226413               0.002906514               0.000489922              -0.000448218               0.001118234               0.000670016               0.000000000               0.000000000               0.000000000               0.000000000              -0.000111809               0.002521192               0.000265672              -0.000357076               0.000959414               0.000602338               0.000000000               0.000000000               0.000000000               0.000000000              -0.000076160               0.002300740               0.000153350              -0.000316152               0.000872290               0.000556138               0.000000000               0.000000000               0.000000000               0.000000000               0.002269529               0.016034566              -0.003918985              -0.001153247               0.005729217               0.004575970               0.000000000               0.000000000               0.000000000               0.000000000               0.000718014               0.013271816              -0.001667581              -0.001389719               0.004887134               0.003497415               0.000000000               0.000000000               0.000000000               0.000000000              -0.000234020               0.011461690               0.000442974              -0.001520465               0.004327347               0.002806882               0.000000000               0.000000000               0.000000000               0.000000000              -0.000813344               0.010199058               0.001141161              -0.001579883               0.003926279               0.002346397               0.000000000               0.000000000               0.000000000               0.000000000              -0.001120123               0.009209419               0.001338578              -0.001571220               0.003593516               0.002022295               0.000000000               0.000000000               0.000000000               0.000000000              -0.001251002               0.008369943               0.001351807              -0.001515365               0.003295075               0.001779709               0.000000000               0.000000000               0.000000000               0.000000000              -0.001274215               0.007616591               0.001289689              -0.001429901               0.003015472               0.001585571               0.000000000               0.000000000               0.000000000               0.000000000              -0.001228420               0.006932124               0.001199853              -0.001327170               0.002753075               0.001425905               0.000000000               0.000000000               0.000000000               0.000000000              -0.001138061               0.006301593               0.001107000              -0.001214469               0.002505333               0.001290863               0.000000000               0.000000000               0.000000000               0.000000000              -0.001012992               0.005715955               0.001017441              -0.001094364               0.002270087               0.001175723               0.000000000               0.000000000               0.000000000               0.000000000              -0.000861468               0.005170256               0.000929205              -0.000969331               0.002046511               0.001077181               0.000000000               0.000000000               0.000000000               0.000000000              -0.000694706               0.004662222               0.000833732              -0.000843291               0.001835155               0.000991864               0.000000000               0.000000000               0.000000000               0.000000000              -0.000522897               0.004206846               0.000712823              -0.000721941               0.001642915               0.000920974               0.000000000               0.000000000               0.000000000               0.000000000              -0.000354640               0.003820945               0.000558276              -0.000610607               0.001477171               0.000866564               0.000000000               0.000000000               0.000000000               0.000000000              -0.000202653               0.003515590               0.000382704              -0.000515442               0.001343666               0.000828223               0.000000000               0.000000000               0.000000000               0.000000000              -0.000086280               0.003313742               0.000196902              -0.000446572               0.001253427               0.000806855               0.000000000               0.000000000               0.000000000               0.000000000              -0.000040791               0.003237634               0.000103531              -0.000420000               0.001219200               0.000799201               0.000000000               0.000000000               0.000000000               0.000000000               0.001824577               0.013209043              -0.003796806              -0.000966915               0.004725275               0.003758360               0.000000000               0.000000000               0.000000000               0.000000000              -0.000092984               0.011616998              -0.001669595              -0.001486991               0.004367957               0.002880966               0.000000000               0.000000000               0.000000000               0.000000000              -0.001447222               0.010818601               0.000293339              -0.001895029               0.004237840               0.002342812               0.000000000               0.000000000               0.000000000               0.000000000              -0.001987385               0.009953375               0.000888488              -0.001989436               0.003980904               0.001991467               0.000000000               0.000000000               0.000000000               0.000000000              -0.002129568               0.009128875               0.001037208              -0.001939693               0.003689492               0.001749799               0.000000000               0.000000000               0.000000000               0.000000000              -0.002071436               0.008354232               0.001035438              -0.001821063               0.003391737               0.001570674               0.000000000               0.000000000               0.000000000               0.000000000              -0.001915486               0.007635154               0.000979030              -0.001672698               0.003102592               0.001429894               0.000000000               0.000000000               0.000000000               0.000000000              -0.001708139               0.006984225               0.000902587              -0.001513577               0.002832577               0.001319001               0.000000000               0.000000000               0.000000000               0.000000000              -0.001471419               0.006385961               0.000822442              -0.001350024               0.002578640               0.001228616               0.000000000               0.000000000               0.000000000               0.000000000              -0.001219966               0.005833257               0.000744255              -0.001186642               0.002339947               0.001153305               0.000000000               0.000000000               0.000000000               0.000000000              -0.000961621               0.005328286               0.000661235              -0.001026641               0.002118291               0.001091650               0.000000000               0.000000000               0.000000000               0.000000000              -0.000710615               0.004875081               0.000571604              -0.000875864               0.001916965               0.001041101               0.000000000               0.000000000               0.000000000               0.000000000              -0.000481321               0.004493430               0.000468870              -0.000742172               0.001745186               0.001003013               0.000000000               0.000000000               0.000000000               0.000000000              -0.000285649               0.004200493               0.000341508              -0.000632178               0.001610876               0.000978698               0.000000000               0.000000000               0.000000000               0.000000000              -0.000136823               0.004004147               0.000206902              -0.000551826               0.001518644               0.000966819               0.000000000               0.000000000               0.000000000               0.000000000              -0.000044773               0.003907955               0.000092221              -0.000505283               0.001471066               0.000965783               0.000000000               0.000000000               0.000000000               0.000000000              -0.000010135               0.003894584               0.000039959              -0.000490622               0.001461722               0.000971100               0.000000000               0.000000000               0.000000000               0.000000000               0.001017043               0.010436568              -0.003299516              -0.000923180               0.003786547               0.002863367               0.000000000               0.000000000               0.000000000               0.000000000              -0.001037725               0.010010803              -0.001577756              -0.001640494               0.003883732               0.002243238               0.000000000               0.000000000               0.000000000               0.000000000              -0.002588594               0.010137097               0.000005497              -0.002237855               0.004124950               0.001887096               0.000000000               0.000000000               0.000000000               0.000000000              -0.002963807               0.009597967               0.000457756              -0.002311168               0.003969679               0.001658512               0.000000000               0.000000000               0.000000000               0.000000000              -0.002886864               0.008903849               0.000569925              -0.002195550               0.003699770               0.001504220               0.000000000               0.000000000               0.000000000               0.000000000              -0.002623505               0.008197055               0.000576366              -0.002008441               0.003401805               0.001393364               0.000000000               0.000000000               0.000000000               0.000000000              -0.002287581               0.007533407               0.000550104              -0.001799514               0.003110948               0.001311434               0.000000000               0.000000000               0.000000000               0.000000000              -0.001930195               0.006925861               0.000505649              -0.001589552               0.002838448               0.001248896               0.000000000               0.000000000               0.000000000               0.000000000              -0.001566991               0.006363867               0.000450512              -0.001383101               0.002582301               0.001199200               0.000000000               0.000000000               0.000000000               0.000000000              -0.001218402               0.005850502               0.000393859              -0.001188211               0.002346218               0.001158007               0.000000000               0.000000000               0.000000000               0.000000000              -0.000896710               0.005391125               0.000330543              -0.001010155               0.002133742               0.001123587               0.000000000               0.000000000               0.000000000               0.000000000              -0.000605454               0.005001910               0.000266429              -0.000852282               0.001951380               0.001099099               0.000000000               0.000000000               0.000000000               0.000000000              -0.000361823               0.004694775               0.000202828              -0.000722529               0.001805752               0.001083224               0.000000000               0.000000000               0.000000000               0.000000000              -0.000178817               0.004477732               0.000129884              -0.000626771               0.001701486               0.001074715               0.000000000               0.000000000               0.000000000               0.000000000              -0.000063625               0.004353069               0.000062675              -0.000567992               0.001640339               0.001072347               0.000000000               0.000000000               0.000000000               0.000000000              -0.000011194               0.004308612               0.000021699              -0.000542773               0.001617114               0.001074341               0.000000000               0.000000000               0.000000000               0.000000000               0.000001372               0.004308596               0.000008687              -0.000538059               0.001615537               0.001077479               0.000000000               0.000000000               0.000000000               0.000000000              -0.000108605               0.007899465              -0.002543640              -0.001028159               0.002975847               0.001947688               0.000000000               0.000000000               0.000000000               0.000000000              -0.002060920               0.008551605              -0.001440845              -0.001841792               0.003464437               0.001622645               0.000000000               0.000000000               0.000000000               0.000000000              -0.003554570               0.009419092              -0.000398471              -0.002510344               0.003976447               0.001466103               0.000000000               0.000000000               0.000000000               0.000000000              -0.003658268               0.009119649              -0.000075103              -0.002511801               0.003877120               0.001365319               0.000000000               0.000000000               0.000000000               0.000000000              -0.003329723               0.008541495               0.000039032              -0.002316327               0.003619245               0.001302918               0.000000000               0.000000000               0.000000000               0.000000000              -0.002868382               0.007919353               0.000082107              -0.002065557               0.003328277               0.001262720               0.000000000               0.000000000               0.000000000               0.000000000              -0.002374486               0.007323766               0.000098594              -0.001805898               0.003043197               0.001237299               0.000000000               0.000000000               0.000000000               0.000000000              -0.001896349               0.006760222               0.000095948              -0.001556155               0.002772103               0.001215948               0.000000000               0.000000000               0.000000000               0.000000000              -0.001444798               0.006239422               0.000078126              -0.001321724               0.002520361               0.001198637               0.000000000               0.000000000               0.000000000               0.000000000              -0.001036712               0.005771698               0.000056657              -0.001110226               0.002293956               0.001183729               0.000000000               0.000000000               0.000000000               0.000000000              -0.000686549               0.005364882               0.000034876              -0.000928064               0.002097631               0.001169567               0.000000000               0.000000000               0.000000000               0.000000000              -0.000398860               0.005040980               0.000018661              -0.000779693               0.001940207               0.001160514               0.000000000               0.000000000               0.000000000               0.000000000              -0.000186563               0.004805745               0.000011252              -0.000670678               0.001825458               0.001154781               0.000000000               0.000000000               0.000000000               0.000000000              -0.000051582               0.004661854               0.000002137              -0.000602074               0.001754627               0.001152553               0.000000000               0.000000000               0.000000000               0.000000000               0.000006142               0.004600321              -0.000004026              -0.000572736               0.001724337               0.001151601               0.000000000               0.000000000               0.000000000               0.000000000               0.000012350               0.004600075              -0.000001153              -0.000570377               0.001723468               0.001153092               0.000000000               0.000000000               0.000000000               0.000000000               0.000008274               0.004619038               0.000000066              -0.000574276               0.001731089               0.001156813               0.000000000               0.000000000               0.000000000               0.000000000              -0.001419710               0.005783882              -0.001646741              -0.001255374               0.002346399               0.001091025               0.000000000               0.000000000               0.000000000               0.000000000              -0.003060710               0.007253279              -0.001295958              -0.002054421               0.003102542               0.001048121               0.000000000               0.000000000               0.000000000               0.000000000              -0.004315258               0.008681005              -0.000879003              -0.002703341               0.003794753               0.001091412               0.000000000               0.000000000               0.000000000               0.000000000              -0.004136344               0.008628902              -0.000636691              -0.002629735               0.003752850               0.001123115               0.000000000               0.000000000               0.000000000               0.000000000              -0.003592110               0.008197043              -0.000486705              -0.002371666               0.003522876               0.001151210               0.000000000               0.000000000               0.000000000               0.000000000              -0.002969431               0.007675591              -0.000390004              -0.002072980               0.003249498               0.001176518               0.000000000               0.000000000               0.000000000               0.000000000              -0.002352602               0.007153963              -0.000326842              -0.001776467               0.002976786               0.001200319               0.000000000               0.000000000               0.000000000               0.000000000              -0.001780145               0.006644128              -0.000280282              -0.001498067               0.002714043               0.001215976               0.000000000               0.000000000               0.000000000               0.000000000              -0.001266338               0.006168419              -0.000248952              -0.001245926               0.002471428               0.001225502               0.000000000               0.000000000               0.000000000               0.000000000              -0.000820342               0.005738672              -0.000224753              -0.001024960               0.002254525               0.001229565               0.000000000               0.000000000               0.000000000               0.000000000              -0.000453359               0.005369361              -0.000198856              -0.000841177               0.002070161               0.001228984               0.000000000               0.000000000               0.000000000               0.000000000              -0.000172068               0.005087409              -0.000160765              -0.000700450               0.001929269               0.001228820               0.000000000               0.000000000               0.000000000               0.000000000               0.000011296               0.004897497              -0.000110164              -0.000607949               0.001835133               0.001227183               0.000000000               0.000000000               0.000000000               0.000000000               0.000095567               0.004794225              -0.000062470              -0.000563439               0.001785872               0.001222433               0.000000000               0.000000000               0.000000000               0.000000000               0.000102331               0.004773932              -0.000025745              -0.000558366               0.001777417               0.001219051               0.000000000               0.000000000               0.000000000               0.000000000               0.000073476               0.004812358              -0.000001700              -0.000573990               0.001795433               0.001221443               0.000000000               0.000000000               0.000000000               0.000000000               0.000054653               0.004847066               0.000005499              -0.000585387               0.001810801               0.001225415               0.000000000               0.000000000               0.000000000               0.000000000              -0.002931984               0.003844375              -0.000717442              -0.001580038               0.001808124               0.000228087               0.000000000               0.000000000               0.000000000               0.000000000              -0.003914608               0.005748812              -0.001142004              -0.002186574               0.002645109               0.000458535               0.000000000               0.000000000               0.000000000               0.000000000              -0.004789675               0.007571477              -0.001379083              -0.002742556               0.003437986               0.000695430               0.000000000               0.000000000               0.000000000               0.000000000              -0.004457306               0.007901426              -0.001224981              -0.002659161               0.003520169               0.000861008               0.000000000               0.000000000               0.000000000               0.000000000              -0.003827654               0.007739825              -0.001041235              -0.002402842               0.003380863               0.000978021               0.000000000               0.000000000               0.000000000               0.000000000              -0.003139289               0.007417464              -0.000889028              -0.002104411               0.003173934               0.001069522               0.000000000               0.000000000               0.000000000               0.000000000              -0.002474468               0.007048302              -0.000767886              -0.001808959               0.002952397               0.001143438               0.000000000               0.000000000               0.000000000               0.000000000              -0.001863302               0.006665039              -0.000664005              -0.001531864               0.002732279               0.001200414               0.000000000               0.000000000               0.000000000               0.000000000              -0.001321025               0.006284662              -0.000577684              -0.001280964               0.002521854               0.001240891               0.000000000               0.000000000               0.000000000               0.000000000              -0.000850906               0.005910521              -0.000508267              -0.001057902               0.002322788               0.001264886               0.000000000               0.000000000               0.000000000               0.000000000              -0.000452770               0.005560683              -0.000440206              -0.000864872               0.002141833               0.001276961               0.000000000               0.000000000               0.000000000               0.000000000              -0.000137373               0.005269512              -0.000355891              -0.000710202               0.001993221               0.001283018               0.000000000               0.000000000               0.000000000               0.000000000               0.000083194               0.005054136              -0.000257384              -0.000600568               0.001884884               0.001284316               0.000000000               0.000000000               0.000000000               0.000000000               0.000204588               0.004925470              -0.000159426              -0.000538962               0.001821461               0.001282499               0.000000000               0.000000000               0.000000000               0.000000000               0.000241081               0.004887269              -0.000077766              -0.000520502               0.001802574               0.001282072               0.000000000               0.000000000               0.000000000               0.000000000               0.000221526               0.004921943              -0.000024732              -0.000532169               0.001818021               0.001285852               0.000000000               0.000000000               0.000000000               0.000000000               0.000185386               0.004942546              -0.000000456              -0.000548297               0.001830265               0.001281967               0.000000000               0.000000000               0.000000000               0.000000000              -0.004836670               0.002100409               0.000167701              -0.002076299               0.001392226              -0.000684072               0.000000000               0.000000000               0.000000000               0.000000000              -0.004878769               0.004230581              -0.000934535              -0.002358356               0.002196297              -0.000162059               0.000000000               0.000000000               0.000000000               0.000000000              -0.005191504               0.006249533              -0.001781386              -0.002727999               0.002992489               0.000264490               0.000000000               0.000000000               0.000000000               0.000000000              -0.004722441               0.006939732              -0.001783474              -0.002638376               0.003192679               0.000554303               0.000000000               0.000000000               0.000000000               0.000000000              -0.004044912               0.007086959              -0.001604805              -0.002402706               0.003163198               0.000760491               0.000000000               0.000000000               0.000000000               0.000000000              -0.003335917               0.007000781              -0.001411274              -0.002126061               0.003042257               0.000916196               0.000000000               0.000000000               0.000000000               0.000000000              -0.002651918               0.006821056              -0.001235435              -0.001847097               0.002889361               0.001042265               0.000000000               0.000000000               0.000000000               0.000000000              -0.002017323               0.006593626              -0.001076592              -0.001580696               0.002724752               0.001144056               0.000000000               0.000000000               0.000000000               0.000000000              -0.001443521               0.006336744              -0.000940136              -0.001333410               0.002556697               0.001223287               0.000000000               0.000000000               0.000000000               0.000000000              -0.000936752               0.006051064              -0.000830322              -0.001107662               0.002386222               0.001278559               0.000000000               0.000000000               0.000000000               0.000000000              -0.000492804               0.005753120              -0.000730155              -0.000903939               0.002219000               0.001315061               0.000000000               0.000000000               0.000000000               0.000000000              -0.000112528               0.005475295              -0.000615984              -0.000726608               0.002067283               0.001340674               0.000000000               0.000000000               0.000000000               0.000000000               0.000191230               0.005244472              -0.000481912              -0.000583846               0.001942755               0.001358909               0.000000000               0.000000000               0.000000000               0.000000000               0.000397137               0.005076946              -0.000336890              -0.000485691               0.001854195               0.001368505               0.000000000               0.000000000               0.000000000               0.000000000               0.000498908               0.004984382              -0.000201699              -0.000435956               0.001806763               0.001370807               0.000000000               0.000000000               0.000000000               0.000000000               0.000507151               0.004966842              -0.000089920              -0.000430673               0.001799155               0.001368482               0.000000000               0.000000000               0.000000000               0.000000000               0.000461017               0.004954369              -0.000030005              -0.000446414               0.001800244               0.001353831               0.000000000               0.000000000               0.000000000               0.000000000              -0.006997110               0.000700351               0.000920582              -0.002711457               0.001137262              -0.001574196               0.000000000               0.000000000               0.000000000               0.000000000              -0.005987657               0.002802758              -0.000668079              -0.002595712               0.001799478              -0.000796234               0.000000000               0.000000000               0.000000000               0.000000000              -0.005536009               0.004739846              -0.001986558              -0.002668479               0.002469424              -0.000199054               0.000000000               0.000000000               0.000000000               0.000000000              -0.004848979               0.005675288              -0.002177899              -0.002527773               0.002734334               0.000206561               0.000000000               0.000000000               0.000000000               0.000000000              -0.004116202               0.006104855              -0.002054595              -0.002306678               0.002803823               0.000497146               0.000000000               0.000000000               0.000000000               0.000000000              -0.003397226               0.006270477              -0.001857094              -0.002057765               0.002776059               0.000718294               0.000000000               0.000000000               0.000000000               0.000000000              -0.002709670               0.006305816              -0.001653636              -0.001804349               0.002703367               0.000899018               0.000000000               0.000000000               0.000000000               0.000000000              -0.002063490               0.006255357              -0.001459677              -0.001555725               0.002603673               0.001047948               0.000000000               0.000000000               0.000000000               0.000000000              -0.001468731               0.006141843              -0.001289784              -0.001318502               0.002486761               0.001168259               0.000000000               0.000000000               0.000000000               0.000000000              -0.000927732               0.005985293              -0.001148326              -0.001096059               0.002360430               0.001264372               0.000000000               0.000000000               0.000000000               0.000000000              -0.000440578               0.005791163              -0.001021765              -0.000889110               0.002226738               0.001337628               0.000000000               0.000000000               0.000000000               0.000000000              -0.000005413               0.005573019              -0.000887445              -0.000698656               0.002090539               0.001391884               0.000000000               0.000000000               0.000000000               0.000000000               0.000374855               0.005366991              -0.000729829              -0.000530302               0.001965747               0.001435444               0.000000000               0.000000000               0.000000000               0.000000000               0.000678008               0.005194864              -0.000547795              -0.000395104               0.001863305               0.001468201               0.000000000               0.000000000               0.000000000               0.000000000               0.000883324               0.005078463              -0.000361728              -0.000303561               0.001793991               0.001490430               0.000000000               0.000000000               0.000000000               0.000000000               0.000972944               0.005020088              -0.000181756              -0.000262656               0.001760898               0.001498242               0.000000000               0.000000000               0.000000000               0.000000000               0.000963609               0.004988767              -0.000086507              -0.000262242               0.001750320               0.001488078               0.000000000               0.000000000               0.000000000               0.000000000              -0.009264791              -0.000285463               0.001425640              -0.003438611               0.001051042              -0.002387569               0.000000000               0.000000000               0.000000000               0.000000000              -0.007172296               0.001541872              -0.000385225              -0.002882341               0.001474727              -0.001407614               0.000000000               0.000000000               0.000000000               0.000000000              -0.005845151               0.003170474              -0.001964120              -0.002588237               0.001919557              -0.000668680               0.000000000               0.000000000               0.000000000               0.000000000              -0.004859054               0.004219528              -0.002318171              -0.002349582               0.002189688              -0.000159894               0.000000000               0.000000000               0.000000000               0.000000000              -0.004037942               0.004872336              -0.002275024              -0.002123266               0.002331850               0.000208585               0.000000000               0.000000000               0.000000000               0.000000000              -0.003299363               0.005270247              -0.002111631              -0.001896038               0.002388743               0.000492706               0.000000000               0.000000000               0.000000000               0.000000000              -0.002618112               0.005511233              -0.001916546              -0.001670692               0.002393956               0.000723264               0.000000000               0.000000000               0.000000000               0.000000000              -0.001973142               0.005647961              -0.001719284              -0.001445921               0.002364608               0.000918687               0.000000000               0.000000000               0.000000000               0.000000000              -0.001370089               0.005701963              -0.001538904              -0.001226526               0.002309477               0.001082951               0.000000000               0.000000000               0.000000000               0.000000000              -0.000807699               0.005690215              -0.001385793              -0.001014162               0.002234773               0.001220611               0.000000000               0.000000000               0.000000000               0.000000000              -0.000282930               0.005621294              -0.001246739              -0.000808759               0.002143332               0.001334573               0.000000000               0.000000000               0.000000000               0.000000000               0.000207951               0.005509032              -0.001102923              -0.000610646               0.002039874               0.001429228               0.000000000               0.000000000               0.000000000               0.000000000               0.000660619               0.005374319              -0.000934389              -0.000424057               0.001932774               0.001508717               0.000000000               0.000000000               0.000000000               0.000000000               0.001065834               0.005238907              -0.000734230              -0.000255175               0.001831343               0.001576168               0.000000000               0.000000000               0.000000000               0.000000000               0.001403127               0.005129359              -0.000513535              -0.000114997               0.001748102               0.001633104               0.000000000               0.000000000               0.000000000               0.000000000               0.001638989               0.005053386              -0.000270476              -0.000017053               0.001690130               0.001673077               0.000000000               0.000000000               0.000000000               0.000000000               0.001735390               0.005026818              -0.000145269               0.000022418               0.001668117               0.001690535               0.000000000               0.000000000               0.000000000               0.000000000              -0.011428132              -0.000891921               0.001582123              -0.004174057               0.001094037              -0.003080019               0.000000000               0.000000000               0.000000000               0.000000000              -0.008336071               0.000518548              -0.000144336              -0.003190842               0.001236455              -0.001954387               0.000000000               0.000000000               0.000000000               0.000000000              -0.006123099               0.001711188              -0.001705298              -0.002510057               0.001407072              -0.001102986               0.000000000               0.000000000               0.000000000               0.000000000              -0.004789289               0.002746992              -0.002144866              -0.002139354               0.001628770              -0.000510584               0.000000000               0.000000000               0.000000000               0.000000000              -0.003840634               0.003536584              -0.002178913              -0.001882307               0.001806284              -0.000076023               0.000000000               0.000000000               0.000000000               0.000000000              -0.003070191               0.004117398              -0.002067347              -0.001665993               0.001927783               0.000261789               0.000000000               0.000000000               0.000000000               0.000000000              -0.002389860               0.004543888              -0.001907819              -0.001464181               0.002002674               0.000538493               0.000000000               0.000000000               0.000000000               0.000000000              -0.001752643               0.004859691              -0.001736700              -0.001264700               0.002041447               0.000776747               0.000000000               0.000000000               0.000000000               0.000000000              -0.001147775               0.005070797              -0.001572949              -0.001064263               0.002045003               0.000980740               0.000000000               0.000000000               0.000000000               0.000000000              -0.000573310               0.005195887              -0.001432231              -0.000864476               0.002020103               0.001155628               0.000000000               0.000000000               0.000000000               0.000000000              -0.000022288               0.005257675              -0.001305077              -0.000665566               0.001974396               0.001308830               0.000000000               0.000000000               0.000000000               0.000000000               0.000514865               0.005271581              -0.001171613              -0.000465873               0.001912467               0.001446594               0.000000000               0.000000000               0.000000000               0.000000000               0.001040641               0.005240095              -0.001014173              -0.000264771               0.001834938               0.001570167               0.000000000               0.000000000               0.000000000               0.000000000               0.001553554               0.005179606              -0.000822701              -0.000064868               0.001748141               0.001683272               0.000000000               0.000000000               0.000000000               0.000000000               0.002036950               0.005114479              -0.000592970               0.000124545               0.001663294               0.001787839               0.000000000               0.000000000               0.000000000               0.000000000               0.002464185               0.005053855              -0.000320276               0.000292334               0.001587157               0.001879491               0.000000000               0.000000000               0.000000000               0.000000000               0.002720621               0.005050508              -0.000185591               0.000388916               0.001553847               0.001942763               0.000000000               0.000000000               0.000000000               0.000000000              -0.013225676              -0.001186543               0.001352175              -0.004811307               0.001208246              -0.003603061               0.000000000               0.000000000               0.000000000               0.000000000              -0.009338543              -0.000211263               0.000003760              -0.003475543               0.001088086              -0.002387457               0.000000000               0.000000000               0.000000000               0.000000000              -0.006365427               0.000528430              -0.001247667              -0.002453086               0.000993832              -0.001459255               0.000000000               0.000000000               0.000000000               0.000000000              -0.004693753               0.001472648              -0.001648287              -0.001944236               0.001138953              -0.000805283               0.000000000               0.000000000               0.000000000               0.000000000              -0.003601363               0.002320658              -0.001721538              -0.001640591               0.001320407              -0.000320184               0.000000000               0.000000000               0.000000000               0.000000000              -0.002783067               0.003019927              -0.001663403              -0.001421138               0.001480344               0.000059206               0.000000000               0.000000000               0.000000000               0.000000000              -0.002094372               0.003584812              -0.001555829              -0.001233489               0.001606088               0.000372599               0.000000000               0.000000000               0.000000000               0.000000000              -0.001464880               0.004033131              -0.001432062              -0.001053469               0.001695519               0.000642050               0.000000000               0.000000000               0.000000000               0.000000000              -0.000862305               0.004372374              -0.001308242              -0.000869909               0.001747413               0.000877503               0.000000000               0.000000000               0.000000000               0.000000000              -0.000278652               0.004625329              -0.001198544              -0.000682660               0.001769314               0.001086654               0.000000000               0.000000000               0.000000000               0.000000000               0.000288893               0.004809488              -0.001100598              -0.000492851               0.001767430               0.001274579               0.000000000               0.000000000               0.000000000               0.000000000               0.000857110               0.004934891              -0.001004061              -0.000295445               0.001743429               0.001447984               0.000000000               0.000000000               0.000000000               0.000000000               0.001443592               0.005007475              -0.000889143              -0.000084588               0.001697337               0.001612749               0.000000000               0.000000000               0.000000000               0.000000000               0.002048404               0.005037697              -0.000736954               0.000138438               0.001633070               0.001771507               0.000000000               0.000000000               0.000000000               0.000000000               0.002672601               0.005041454              -0.000541407               0.000372040               0.001556455               0.001928495               0.000000000               0.000000000               0.000000000               0.000000000               0.003312994               0.005027512              -0.000297203               0.000613928               0.001471178               0.002085105               0.000000000               0.000000000               0.000000000               0.000000000               0.003756368               0.005061780              -0.000178741               0.000775908               0.001428607               0.002204515               0.000000000               0.000000000               0.000000000               0.000000000              -0.014416528              -0.001289071               0.000776696              -0.005245061               0.001318654              -0.003926407               0.000000000               0.000000000               0.000000000               0.000000000              -0.010016367              -0.000635882               0.000040574              -0.003676650               0.001013582              -0.002663068               0.000000000               0.000000000               0.000000000               0.000000000              -0.006537763              -0.000238651              -0.000654296              -0.002421828               0.000727720              -0.001694107               0.000000000               0.000000000               0.000000000               0.000000000              -0.004622666               0.000605345              -0.000892617              -0.001809166               0.000804831              -0.001004335               0.000000000               0.000000000               0.000000000               0.000000000              -0.003409058               0.001467041              -0.000949668              -0.001461775               0.000976265              -0.000485510               0.000000000               0.000000000               0.000000000               0.000000000              -0.002539760               0.002224931              -0.000930323              -0.001230524               0.001151810              -0.000078714               0.000000000               0.000000000               0.000000000               0.000000000              -0.001838509               0.002863022              -0.000877513              -0.001047316               0.001303436               0.000256120               0.000000000               0.000000000               0.000000000               0.000000000              -0.001217328               0.003392203              -0.000812144              -0.000880521               0.001424230               0.000543709               0.000000000               0.000000000               0.000000000               0.000000000              -0.000626695               0.003822943              -0.000745492              -0.000712877               0.001511927               0.000799050               0.000000000               0.000000000               0.000000000               0.000000000              -0.000044238               0.004170786              -0.000684101              -0.000537936               0.001569560               0.001031624               0.000000000               0.000000000               0.000000000               0.000000000               0.000538924               0.004445383              -0.000630464              -0.000353576               0.001599638               0.001246062               0.000000000               0.000000000               0.000000000               0.000000000               0.001131194               0.004653021              -0.000585205              -0.000157430               0.001603468               0.001446038               0.000000000               0.000000000               0.000000000               0.000000000               0.001747809               0.004804268              -0.000527662               0.000054894               0.001583109               0.001638003               0.000000000               0.000000000               0.000000000               0.000000000               0.002411604               0.004909163              -0.000442372               0.000290703               0.001539470               0.001830173               0.000000000               0.000000000               0.000000000               0.000000000               0.003145887               0.004973188              -0.000331778               0.000558053               0.001471695               0.002029748               0.000000000               0.000000000               0.000000000               0.000000000               0.003966673               0.004999105              -0.000186420               0.000862606               0.001378816               0.002241422               0.000000000               0.000000000               0.000000000               0.000000000               0.004579476               0.005065843              -0.000115066               0.001084062               0.001327243               0.002411306               0.000000000               0.000000000               0.000000000               0.000000000               0.000000000               0.000000000               0.000000000               0.000000000               0.000000000               0.000000000               0.000000000               0.000000000               0.000000000               0.000000000               0.000000000               0.000000000               0.000000000               0.000000000               0.000000000               0.000000000               0.000000000               0.000000000               0.000000000               0.000000000               0.000000000               0.000000000               0.000000000               0.000000000               0.000000000               0.000000000               0.000000000               0.000000000               0.000000000               0.000000000               0.000000000               0.000000000               0.000000000               0.000000000               0.000000000               0.000000000               0.000000000               0.000000000               0.000000000               0.000000000               0.000000000               0.000000000               0.000000000               0.000000000               0.000000000               0.000000000               0.000000000               0.000000000               0.000000000               0.000000000               0.000000000               0.000000000               0.000000000               0.000000000               0.000000000               0.000000000               0.000000000               0.000000000               0.000000000               0.000000000               0.000000000               0.000000000               0.000000000               0.000000000               0.000000000               0.000000000               0.000000000               0.000000000               0.000000000               0.000000000               0.000000000               0.000000000               0.000000000               0.000000000               0.000000000               0.000000000               0.000000000               0.000000000               0.000000000               0.000000000               0.000000000               0.000000000               0.000000000               0.000000000               0.000000000               0.000000000               0.000000000               0.000000000               0.000000000               0.000000000               0.000000000               0.000000000               0.000000000               0.000000000               0.000000000               0.000000000               0.000000000               0.000000000               0.000000000               0.000000000               0.000000000               0.000000000               0.000000000               0.000000000               0.000000000               0.000000000               0.000000000               0.000000000               0.000000000               0.000000000               0.000000000               0.000000000               0.000000000               0.000000000               0.000000000               0.000000000               0.000000000               0.000000000               0.000000000               0.000000000               0.000000000               0.000000000               0.000000000               0.000000000               0.000000000               0.000000000               0.000000000               0.000000000               0.000000000               0.000000000               0.000000000               0.000000000               0.000000000               0.000000000               0.000000000               0.000000000               0.000000000               0.000000000               0.000000000               0.000000000               0.000000000               0.000000000               0.000000000               0.000000000               0.000000000               0.000000000               0.000000000               0.000000000               0.000000000               0.000000000               0.000000000               0.000000000               0.000000000               0.000000000               0.000000000               0.000000000               0.000000000               0.000000000               0.000000000               0.000000000               0.000000000               0.000000000               0.000000000               0.000000000               0.000000000               0.000000000               0.000000000               0.000000000               0.000000000               0.000000000               0.000000000               0.000000000               0.000000000               0.000000000               0.000000000               0.000000000               0.000000000               0.000000000               0.000000000               0.000000000               0.000000000               0.000000000               0.000000000               0.000000000               0.000000000               0.000000000               0.000000000               0.000000000               0.000000000               0.000000000               0.000000000               0.000000000               0.000000000               0.000000000               0.000000000               0.000000000               0.000000000               0.000000000               0.000000000               0.000000000               0.000000000               0.000000000               0.000000000               0.000000000               0.000000000               0.000000000               0.000000000               0.000000000               0.000000000               0.000000000               0.000000000               0.000000000               0.000000000               0.000000000               0.000000000               0.000000000               0.000000000               0.000000000               0.000000000               0.000000000               0.000000000               0.000000000               0.000000000               0.000000000               0.000000000               0.000000000               0.000000000               0.000000000               0.000000000               0.000000000               0.000000000               0.000000000               0.000000000               0.000000000               0.000000000               0.000000000               0.000000000               0.000000000               0.000000000               0.000000000               0.000000000               0.000000000               0.000000000               0.000000000               0.000000000               0.000000000               0.000000000               0.000000000               0.000000000               0.000000000               0.000000000               0.000000000               0.000000000               0.000000000               0.000000000               0.000000000               0.000000000               0.000000000               0.000000000               0.000000000               0.000000000               0.000000000               0.000000000               0.000000000               0.000000000               0.000000000               0.000000000               0.000000000               0.000000000               0.000000000               0.000000000               0.000000000               0.000000000               0.000000000               0.000000000               0.000000000               0.000000000               0.000000000               0.000000000               0.000000000               0.000000000               0.000000000               0.000000000               0.000000000               0.000000000               0.000000000               0.000000000               0.000000000               0.000000000               0.000000000               0.000000000               0.000000000               0.000000000               0.000000000               0.000000000               0.000000000               0.000000000               0.000000000               0.000000000               0.000000000               0.000000000               0.000000000               0.000000000               0.000000000               0.000000000               0.000000000               0.000000000               0.000000000               0.000000000               0.000000000               0.000000000               0.000000000               0.000000000               0.000000000               0.000000000               0.000000000               0.000000000               0.000000000               0.000000000               0.000000000               0.000000000               0.000000000               0.000000000               0.000000000               0.000000000               0.000000000               0.000000000               0.000000000               0.000000000               0.000000000               0.000000000               0.000000000               0.000000000               0.000000000               0.000000000               0.000000000               0.000000000               0.000000000               0.000000000               0.000000000               0.002226745               0.022258815               0.001483124              -0.001947318               0.008068637               0.006121319               0.000000000               0.000000000               0.000000000               0.000000000               0.002002657               0.017057550               0.000634221              -0.001381194               0.006146191               0.004764997               0.000000000               0.000000000               0.000000000               0.000000000               0.002456537               0.012883277              -0.000193890              -0.000689206               0.004524118               0.003834912               0.000000000               0.000000000               0.000000000               0.000000000               0.002210395               0.010511900              -0.000522923              -0.000485088               0.003665628               0.003180540               0.000000000               0.000000000               0.000000000               0.000000000               0.001802482               0.008993691              -0.000646299              -0.000448280               0.003147294               0.002699014               0.000000000               0.000000000               0.000000000               0.000000000               0.001390097               0.007916932              -0.000679170              -0.000468329               0.002795061               0.002326731               0.000000000               0.000000000               0.000000000               0.000000000               0.001016798               0.007076198              -0.000666685              -0.000503225               0.002526451               0.002023226               0.000000000               0.000000000               0.000000000               0.000000000               0.000700019               0.006358997              -0.000636532              -0.000532367               0.002297100               0.001764733               0.000000000               0.000000000               0.000000000               0.000000000               0.000440093               0.005705047              -0.000602135              -0.000548095               0.002084362               0.001536267               0.000000000               0.000000000               0.000000000               0.000000000               0.000232673               0.005082789              -0.000565895              -0.000548095               0.001876944               0.001328849               0.000000000               0.000000000               0.000000000               0.000000000               0.000069627               0.004471331              -0.000532922              -0.000532805               0.001668030               0.001135225               0.000000000               0.000000000               0.000000000               0.000000000              -0.000054730               0.003860741              -0.000496686              -0.000503115               0.001454606               0.000951491               0.000000000               0.000000000               0.000000000               0.000000000              -0.000138254               0.003230727              -0.000447593              -0.000455685               0.001228793               0.000773108               0.000000000               0.000000000               0.000000000               0.000000000              -0.000175409               0.002564861              -0.000381679              -0.000386385               0.000983740               0.000597355               0.000000000               0.000000000               0.000000000               0.000000000              -0.000161304               0.001852001              -0.000291058              -0.000291989               0.000714657               0.000422668               0.000000000               0.000000000               0.000000000               0.000000000              -0.000094925               0.001078140              -0.000165157              -0.000170364               0.000416164               0.000245800               0.000000000               0.000000000               0.000000000               0.000000000              -0.000111519               0.000500836              -0.000103988              -0.000104424               0.000201751               0.000097327               0.000000000               0.000000000               0.000000000               0.000000000               0.002345677               0.020823279               0.002735204              -0.001723278               0.007515449               0.005792171               0.000000000               0.000000000               0.000000000               0.000000000               0.001768000               0.016166470               0.001165986              -0.001357806               0.005841371               0.004483566               0.000000000               0.000000000               0.000000000               0.000000000               0.001845116               0.012544075              -0.000353444              -0.000876089               0.004473346               0.003597257               0.000000000               0.000000000               0.000000000               0.000000000               0.001474906               0.010456578              -0.000936854              -0.000753981               0.003736818               0.002982837               0.000000000               0.000000000               0.000000000               0.000000000               0.001056577               0.009086023              -0.001143286              -0.000739535               0.003275156               0.002535621               0.000000000               0.000000000               0.000000000               0.000000000               0.000686192               0.008077999              -0.001190043              -0.000752427               0.002943448               0.002191021               0.000000000               0.000000000               0.000000000               0.000000000               0.000386106               0.007263032              -0.001161187              -0.000763088               0.002675349               0.001912261               0.000000000               0.000000000               0.000000000               0.000000000               0.000157987               0.006552167              -0.001101620              -0.000759774               0.002437292               0.001677517               0.000000000               0.000000000               0.000000000               0.000000000              -0.000015060               0.005898249              -0.001035691              -0.000742927               0.002213706               0.001470778               0.000000000               0.000000000               0.000000000               0.000000000              -0.000141812               0.005278891              -0.000967805              -0.000713040               0.001997293               0.001284253               0.000000000               0.000000000               0.000000000               0.000000000              -0.000229053               0.004680063              -0.000904748              -0.000670901               0.001783639               0.001112738               0.000000000               0.000000000               0.000000000               0.000000000              -0.000282333               0.004089890              -0.000835764              -0.000617110               0.001568986               0.000951876               0.000000000               0.000000000               0.000000000               0.000000000              -0.000294055               0.003499565              -0.000741491              -0.000547715               0.001349081               0.000801366               0.000000000               0.000000000               0.000000000               0.000000000              -0.000265712               0.002902856              -0.000621070              -0.000462498               0.001121775               0.000659277               0.000000000               0.000000000               0.000000000               0.000000000              -0.000201250               0.002301870              -0.000466831              -0.000363202               0.000888349               0.000525148               0.000000000               0.000000000               0.000000000               0.000000000              -0.000106979               0.001703001              -0.000260709              -0.000252992               0.000651992               0.000399000               0.000000000               0.000000000               0.000000000               0.000000000              -0.000097411               0.001291485              -0.000158161              -0.000197964               0.000496479               0.000298515               0.000000000               0.000000000               0.000000000               0.000000000               0.002408160               0.018662668               0.003573104              -0.001429772               0.006697417               0.005267645               0.000000000               0.000000000               0.000000000               0.000000000               0.001346226               0.014843075               0.001514208              -0.001350547               0.005397824               0.004047277               0.000000000               0.000000000               0.000000000               0.000000000               0.000911239               0.012048335              -0.000451329              -0.001164325               0.004404180               0.003239855               0.000000000               0.000000000               0.000000000               0.000000000               0.000405018               0.010359018              -0.001159205              -0.001142993               0.003833969               0.002690976               0.000000000               0.000000000               0.000000000               0.000000000               0.000009625               0.009179400              -0.001386366              -0.001143813               0.003441040               0.002297227               0.000000000               0.000000000               0.000000000               0.000000000              -0.000270782               0.008259185              -0.001421680              -0.001133939               0.003131014               0.001997074               0.000000000               0.000000000               0.000000000               0.000000000              -0.000453447               0.007474387              -0.001372971              -0.001104339               0.002859550               0.001755212               0.000000000               0.000000000               0.000000000               0.000000000              -0.000555097               0.006770373              -0.001292330              -0.001054456               0.002608253               0.001553798               0.000000000               0.000000000               0.000000000               0.000000000              -0.000604817               0.006121413              -0.001204626              -0.000991981               0.002371111               0.001379130               0.000000000               0.000000000               0.000000000               0.000000000              -0.000616046               0.005511952              -0.001116949              -0.000920009               0.002143969               0.001223959               0.000000000               0.000000000               0.000000000               0.000000000              -0.000590315               0.004935694              -0.001033170              -0.000838328               0.001924657               0.001086329               0.000000000               0.000000000               0.000000000               0.000000000              -0.000535258               0.004380552              -0.000942708              -0.000748289               0.001709599               0.000961310               0.000000000               0.000000000               0.000000000               0.000000000              -0.000451994               0.003853135              -0.000824281              -0.000651138               0.001501411               0.000850273               0.000000000               0.000000000               0.000000000               0.000000000              -0.000344557               0.003358583              -0.000673987              -0.000549031               0.001302527               0.000753496               0.000000000               0.000000000               0.000000000               0.000000000              -0.000226413               0.002906514              -0.000489922              -0.000448218               0.001118234               0.000670016               0.000000000               0.000000000               0.000000000               0.000000000              -0.000111809               0.002521192              -0.000265672              -0.000357076               0.000959414               0.000602338               0.000000000               0.000000000               0.000000000               0.000000000              -0.000076160               0.002300740              -0.000153350              -0.000316152               0.000872290               0.000556138               0.000000000               0.000000000               0.000000000               0.000000000               0.002269529               0.016034566               0.003918985              -0.001153247               0.005729217               0.004575970               0.000000000               0.000000000               0.000000000               0.000000000               0.000718014               0.013271816               0.001667581              -0.001389719               0.004887134               0.003497415               0.000000000               0.000000000               0.000000000               0.000000000              -0.000234020               0.011461690              -0.000442974              -0.001520465               0.004327347               0.002806882               0.000000000               0.000000000               0.000000000               0.000000000              -0.000813344               0.010199058              -0.001141161              -0.001579883               0.003926279               0.002346397               0.000000000               0.000000000               0.000000000               0.000000000              -0.001120123               0.009209419              -0.001338578              -0.001571220               0.003593516               0.002022295               0.000000000               0.000000000               0.000000000               0.000000000              -0.001251002               0.008369943              -0.001351807              -0.001515365               0.003295075               0.001779709               0.000000000               0.000000000               0.000000000               0.000000000              -0.001274215               0.007616591              -0.001289689              -0.001429901               0.003015472               0.001585571               0.000000000               0.000000000               0.000000000               0.000000000              -0.001228420               0.006932124              -0.001199853              -0.001327170               0.002753075               0.001425905               0.000000000               0.000000000               0.000000000               0.000000000              -0.001138061               0.006301593              -0.001107000              -0.001214469               0.002505333               0.001290863               0.000000000               0.000000000               0.000000000               0.000000000              -0.001012992               0.005715955              -0.001017441              -0.001094364               0.002270087               0.001175723               0.000000000               0.000000000               0.000000000               0.000000000              -0.000861468               0.005170256              -0.000929205              -0.000969331               0.002046511               0.001077181               0.000000000               0.000000000               0.000000000               0.000000000              -0.000694706               0.004662222              -0.000833732              -0.000843291               0.001835155               0.000991864               0.000000000               0.000000000               0.000000000               0.000000000              -0.000522897               0.004206846              -0.000712823              -0.000721941               0.001642915               0.000920974               0.000000000               0.000000000               0.000000000               0.000000000              -0.000354640               0.003820945              -0.000558276              -0.000610607               0.001477171               0.000866564               0.000000000               0.000000000               0.000000000               0.000000000              -0.000202653               0.003515590              -0.000382704              -0.000515442               0.001343666               0.000828223               0.000000000               0.000000000               0.000000000               0.000000000              -0.000086280               0.003313742              -0.000196902              -0.000446572               0.001253427               0.000806855               0.000000000               0.000000000               0.000000000               0.000000000              -0.000040791               0.003237634              -0.000103531              -0.000420000               0.001219200               0.000799201               0.000000000               0.000000000               0.000000000               0.000000000               0.001824577               0.013209043               0.003796806              -0.000966915               0.004725275               0.003758360               0.000000000               0.000000000               0.000000000               0.000000000              -0.000092984               0.011616998               0.001669595              -0.001486991               0.004367957               0.002880966               0.000000000               0.000000000               0.000000000               0.000000000              -0.001447222               0.010818601              -0.000293339              -0.001895029               0.004237840               0.002342812               0.000000000               0.000000000               0.000000000               0.000000000              -0.001987385               0.009953375              -0.000888488              -0.001989436               0.003980904               0.001991467               0.000000000               0.000000000               0.000000000               0.000000000              -0.002129568               0.009128875              -0.001037208              -0.001939693               0.003689492               0.001749799               0.000000000               0.000000000               0.000000000               0.000000000              -0.002071436               0.008354232              -0.001035438              -0.001821063               0.003391737               0.001570674               0.000000000               0.000000000               0.000000000               0.000000000              -0.001915486               0.007635154              -0.000979030              -0.001672698               0.003102592               0.001429894               0.000000000               0.000000000               0.000000000               0.000000000              -0.001708139               0.006984225              -0.000902587              -0.001513577               0.002832577               0.001319001               0.000000000               0.000000000               0.000000000               0.000000000              -0.001471419               0.006385961              -0.000822442              -0.001350024               0.002578640               0.001228616               0.000000000               0.000000000               0.000000000               0.000000000              -0.001219966               0.005833257              -0.000744255              -0.001186642               0.002339947               0.001153305               0.000000000               0.000000000               0.000000000               0.000000000              -0.000961621               0.005328286              -0.000661235              -0.001026641               0.002118291               0.001091650               0.000000000               0.000000000               0.000000000               0.000000000              -0.000710615               0.004875081              -0.000571604              -0.000875864               0.001916965               0.001041101               0.000000000               0.000000000               0.000000000               0.000000000              -0.000481321               0.004493430              -0.000468870              -0.000742172               0.001745186               0.001003013               0.000000000               0.000000000               0.000000000               0.000000000              -0.000285649               0.004200493              -0.000341508              -0.000632178               0.001610876               0.000978698               0.000000000               0.000000000               0.000000000               0.000000000              -0.000136823               0.004004147              -0.000206902              -0.000551826               0.001518644               0.000966819               0.000000000               0.000000000               0.000000000               0.000000000              -0.000044773               0.003907955              -0.000092221              -0.000505283               0.001471066               0.000965783               0.000000000               0.000000000               0.000000000               0.000000000              -0.000010135               0.003894584              -0.000039959              -0.000490622               0.001461722               0.000971100               0.000000000               0.000000000               0.000000000               0.000000000               0.001017043               0.010436568               0.003299516              -0.000923180               0.003786547               0.002863367               0.000000000               0.000000000               0.000000000               0.000000000              -0.001037725               0.010010803               0.001577756              -0.001640494               0.003883732               0.002243238               0.000000000               0.000000000               0.000000000               0.000000000              -0.002588594               0.010137097              -0.000005497              -0.002237855               0.004124950               0.001887096               0.000000000               0.000000000               0.000000000               0.000000000              -0.002963807               0.009597967              -0.000457756              -0.002311168               0.003969679               0.001658512               0.000000000               0.000000000               0.000000000               0.000000000              -0.002886864               0.008903849              -0.000569925              -0.002195550               0.003699770               0.001504220               0.000000000               0.000000000               0.000000000               0.000000000              -0.002623505               0.008197055              -0.000576366              -0.002008441               0.003401805               0.001393364               0.000000000               0.000000000               0.000000000               0.000000000              -0.002287581               0.007533407              -0.000550104              -0.001799514               0.003110948               0.001311434               0.000000000               0.000000000               0.000000000               0.000000000              -0.001930195               0.006925861              -0.000505649              -0.001589552               0.002838448               0.001248896               0.000000000               0.000000000               0.000000000               0.000000000              -0.001566991               0.006363867              -0.000450512              -0.001383101               0.002582301               0.001199200               0.000000000               0.000000000               0.000000000               0.000000000              -0.001218402               0.005850502              -0.000393859              -0.001188211               0.002346218               0.001158007               0.000000000               0.000000000               0.000000000               0.000000000              -0.000896710               0.005391125              -0.000330543              -0.001010155               0.002133742               0.001123587               0.000000000               0.000000000               0.000000000               0.000000000              -0.000605454               0.005001910              -0.000266429              -0.000852282               0.001951380               0.001099099               0.000000000               0.000000000               0.000000000               0.000000000              -0.000361823               0.004694775              -0.000202828              -0.000722529               0.001805752               0.001083224               0.000000000               0.000000000               0.000000000               0.000000000              -0.000178817               0.004477732              -0.000129884              -0.000626771               0.001701486               0.001074715               0.000000000               0.000000000               0.000000000               0.000000000              -0.000063625               0.004353069              -0.000062675              -0.000567992               0.001640339               0.001072347               0.000000000               0.000000000               0.000000000               0.000000000              -0.000011194               0.004308612              -0.000021699              -0.000542773               0.001617114               0.001074341               0.000000000               0.000000000               0.000000000               0.000000000               0.000001372               0.004308596              -0.000008687              -0.000538059               0.001615537               0.001077479               0.000000000               0.000000000               0.000000000               0.000000000              -0.000108605               0.007899465               0.002543640              -0.001028159               0.002975847               0.001947688               0.000000000               0.000000000               0.000000000               0.000000000              -0.002060920               0.008551605               0.001440845              -0.001841792               0.003464437               0.001622645               0.000000000               0.000000000               0.000000000               0.000000000              -0.003554570               0.009419092               0.000398471              -0.002510344               0.003976447               0.001466103               0.000000000               0.000000000               0.000000000               0.000000000              -0.003658268               0.009119649               0.000075103              -0.002511801               0.003877120               0.001365319               0.000000000               0.000000000               0.000000000               0.000000000              -0.003329723               0.008541495              -0.000039032              -0.002316327               0.003619245               0.001302918               0.000000000               0.000000000               0.000000000               0.000000000              -0.002868382               0.007919353              -0.000082107              -0.002065557               0.003328277               0.001262720               0.000000000               0.000000000               0.000000000               0.000000000              -0.002374486               0.007323766              -0.000098594              -0.001805898               0.003043197               0.001237299               0.000000000               0.000000000               0.000000000               0.000000000              -0.001896349               0.006760222              -0.000095948              -0.001556155               0.002772103               0.001215948               0.000000000               0.000000000               0.000000000               0.000000000              -0.001444798               0.006239422              -0.000078126              -0.001321724               0.002520361               0.001198637               0.000000000               0.000000000               0.000000000               0.000000000              -0.001036712               0.005771698              -0.000056657              -0.001110226               0.002293956               0.001183729               0.000000000               0.000000000               0.000000000               0.000000000              -0.000686549               0.005364882              -0.000034876              -0.000928064               0.002097631               0.001169567               0.000000000               0.000000000               0.000000000               0.000000000              -0.000398860               0.005040980              -0.000018661              -0.000779693               0.001940207               0.001160514               0.000000000               0.000000000               0.000000000               0.000000000              -0.000186563               0.004805745              -0.000011252              -0.000670678               0.001825458               0.001154781               0.000000000               0.000000000               0.000000000               0.000000000              -0.000051582               0.004661854              -0.000002137              -0.000602074               0.001754627               0.001152553               0.000000000               0.000000000               0.000000000               0.000000000               0.000006142               0.004600321               0.000004026              -0.000572736               0.001724337               0.001151601               0.000000000               0.000000000               0.000000000               0.000000000               0.000012350               0.004600075               0.000001153              -0.000570377               0.001723468               0.001153092               0.000000000               0.000000000               0.000000000               0.000000000               0.000008274               0.004619038              -0.000000066              -0.000574276               0.001731089               0.001156813               0.000000000               0.000000000               0.000000000               0.000000000              -0.001419710               0.005783882               0.001646741              -0.001255374               0.002346399               0.001091025               0.000000000               0.000000000               0.000000000               0.000000000              -0.003060710               0.007253279               0.001295958              -0.002054421               0.003102542               0.001048121               0.000000000               0.000000000               0.000000000               0.000000000              -0.004315258               0.008681005               0.000879003              -0.002703341               0.003794753               0.001091412               0.000000000               0.000000000               0.000000000               0.000000000              -0.004136344               0.008628902               0.000636691              -0.002629735               0.003752850               0.001123115               0.000000000               0.000000000               0.000000000               0.000000000              -0.003592110               0.008197043               0.000486705              -0.002371666               0.003522876               0.001151210               0.000000000               0.000000000               0.000000000               0.000000000              -0.002969431               0.007675591               0.000390004              -0.002072980               0.003249498               0.001176518               0.000000000               0.000000000               0.000000000               0.000000000              -0.002352602               0.007153963               0.000326842              -0.001776467               0.002976786               0.001200319               0.000000000               0.000000000               0.000000000               0.000000000              -0.001780145               0.006644128               0.000280282              -0.001498067               0.002714043               0.001215976               0.000000000               0.000000000               0.000000000               0.000000000              -0.001266338               0.006168419               0.000248952              -0.001245926               0.002471428               0.001225502               0.000000000               0.000000000               0.000000000               0.000000000              -0.000820342               0.005738672               0.000224753              -0.001024960               0.002254525               0.001229565               0.000000000               0.000000000               0.000000000               0.000000000              -0.000453359               0.005369361               0.000198856              -0.000841177               0.002070161               0.001228984               0.000000000               0.000000000               0.000000000               0.000000000              -0.000172068               0.005087409               0.000160765              -0.000700450               0.001929269               0.001228820               0.000000000               0.000000000               0.000000000               0.000000000               0.000011296               0.004897497               0.000110164              -0.000607949               0.001835133               0.001227183               0.000000000               0.000000000               0.000000000               0.000000000               0.000095567               0.004794225               0.000062470              -0.000563439               0.001785872               0.001222433               0.000000000               0.000000000               0.000000000               0.000000000               0.000102331               0.004773932               0.000025745              -0.000558366               0.001777417               0.001219051               0.000000000               0.000000000               0.000000000               0.000000000               0.000073476               0.004812358               0.000001700              -0.000573990               0.001795433               0.001221443               0.000000000               0.000000000               0.000000000               0.000000000               0.000054653               0.004847066              -0.000005499              -0.000585387               0.001810801               0.001225415               0.000000000               0.000000000               0.000000000               0.000000000              -0.002931984               0.003844375               0.000717442              -0.001580038               0.001808124               0.000228087               0.000000000               0.000000000               0.000000000               0.000000000              -0.003914608               0.005748812               0.001142004              -0.002186574               0.002645109               0.000458535               0.000000000               0.000000000               0.000000000               0.000000000              -0.004789675               0.007571477               0.001379083              -0.002742556               0.003437986               0.000695430               0.000000000               0.000000000               0.000000000               0.000000000              -0.004457306               0.007901426               0.001224981              -0.002659161               0.003520169               0.000861008               0.000000000               0.000000000               0.000000000               0.000000000              -0.003827654               0.007739825               0.001041235              -0.002402842               0.003380863               0.000978021               0.000000000               0.000000000               0.000000000               0.000000000              -0.003139289               0.007417464               0.000889028              -0.002104411               0.003173934               0.001069522               0.000000000               0.000000000               0.000000000               0.000000000              -0.002474468               0.007048302               0.000767886              -0.001808959               0.002952397               0.001143438               0.000000000               0.000000000               0.000000000               0.000000000              -0.001863302               0.006665039               0.000664005              -0.001531864               0.002732279               0.001200414               0.000000000               0.000000000               0.000000000               0.000000000              -0.001321025               0.006284662               0.000577684              -0.001280964               0.002521854               0.001240891               0.000000000               0.000000000               0.000000000               0.000000000              -0.000850906               0.005910521               0.000508267              -0.001057902               0.002322788               0.001264886               0.000000000               0.000000000               0.000000000               0.000000000              -0.000452770               0.005560683               0.000440206              -0.000864872               0.002141833               0.001276961               0.000000000               0.000000000               0.000000000               0.000000000              -0.000137373               0.005269512               0.000355891              -0.000710202               0.001993221               0.001283018               0.000000000               0.000000000               0.000000000               0.000000000               0.000083194               0.005054136               0.000257384              -0.000600568               0.001884884               0.001284316               0.000000000               0.000000000               0.000000000               0.000000000               0.000204588               0.004925470               0.000159426              -0.000538962               0.001821461               0.001282499               0.000000000               0.000000000               0.000000000               0.000000000               0.000241081               0.004887269               0.000077766              -0.000520502               0.001802574               0.001282072               0.000000000               0.000000000               0.000000000               0.000000000               0.000221526               0.004921943               0.000024732              -0.000532169               0.001818021               0.001285852               0.000000000               0.000000000               0.000000000               0.000000000               0.000185386               0.004942546               0.000000456              -0.000548297               0.001830265               0.001281967               0.000000000               0.000000000               0.000000000               0.000000000              -0.004836670               0.002100409              -0.000167701              -0.002076299               0.001392226              -0.000684072               0.000000000               0.000000000               0.000000000               0.000000000              -0.004878769               0.004230581               0.000934535              -0.002358356               0.002196297              -0.000162059               0.000000000               0.000000000               0.000000000               0.000000000              -0.005191504               0.006249533               0.001781386              -0.002727999               0.002992489               0.000264490               0.000000000               0.000000000               0.000000000               0.000000000              -0.004722441               0.006939732               0.001783474              -0.002638376               0.003192679               0.000554303               0.000000000               0.000000000               0.000000000               0.000000000              -0.004044912               0.007086959               0.001604805              -0.002402706               0.003163198               0.000760491               0.000000000               0.000000000               0.000000000               0.000000000              -0.003335917               0.007000781               0.001411274              -0.002126061               0.003042257               0.000916196               0.000000000               0.000000000               0.000000000               0.000000000              -0.002651918               0.006821056               0.001235435              -0.001847097               0.002889361               0.001042265               0.000000000               0.000000000               0.000000000               0.000000000              -0.002017323               0.006593626               0.001076592              -0.001580696               0.002724752               0.001144056               0.000000000               0.000000000               0.000000000               0.000000000              -0.001443521               0.006336744               0.000940136              -0.001333410               0.002556697               0.001223287               0.000000000               0.000000000               0.000000000               0.000000000              -0.000936752               0.006051064               0.000830322              -0.001107662               0.002386222               0.001278559               0.000000000               0.000000000               0.000000000               0.000000000              -0.000492804               0.005753120               0.000730155              -0.000903939               0.002219000               0.001315061               0.000000000               0.000000000               0.000000000               0.000000000              -0.000112528               0.005475295               0.000615984              -0.000726608               0.002067283               0.001340674               0.000000000               0.000000000               0.000000000               0.000000000               0.000191230               0.005244472               0.000481912              -0.000583846               0.001942755               0.001358909               0.000000000               0.000000000               0.000000000               0.000000000               0.000397137               0.005076946               0.000336890              -0.000485691               0.001854195               0.001368505               0.000000000               0.000000000               0.000000000               0.000000000               0.000498908               0.004984382               0.000201699              -0.000435956               0.001806763               0.001370807               0.000000000               0.000000000               0.000000000               0.000000000               0.000507151               0.004966842               0.000089920              -0.000430673               0.001799155               0.001368482               0.000000000               0.000000000               0.000000000               0.000000000               0.000461017               0.004954369               0.000030005              -0.000446414               0.001800244               0.001353831               0.000000000               0.000000000               0.000000000               0.000000000              -0.006997110               0.000700351              -0.000920582              -0.002711457               0.001137262              -0.001574196               0.000000000               0.000000000               0.000000000               0.000000000              -0.005987657               0.002802758               0.000668079              -0.002595712               0.001799478              -0.000796234               0.000000000               0.000000000               0.000000000               0.000000000              -0.005536009               0.004739846               0.001986558              -0.002668479               0.002469424              -0.000199054               0.000000000               0.000000000               0.000000000               0.000000000              -0.004848979               0.005675288               0.002177899              -0.002527773               0.002734334               0.000206561               0.000000000               0.000000000               0.000000000               0.000000000              -0.004116202               0.006104855               0.002054595              -0.002306678               0.002803823               0.000497146               0.000000000               0.000000000               0.000000000               0.000000000              -0.003397226               0.006270477               0.001857094              -0.002057765               0.002776059               0.000718294               0.000000000               0.000000000               0.000000000               0.000000000              -0.002709670               0.006305816               0.001653636              -0.001804349               0.002703367               0.000899018               0.000000000               0.000000000               0.000000000               0.000000000              -0.002063490               0.006255357               0.001459677              -0.001555725               0.002603673               0.001047948               0.000000000               0.000000000               0.000000000               0.000000000              -0.001468731               0.006141843               0.001289784              -0.001318502               0.002486761               0.001168259               0.000000000               0.000000000               0.000000000               0.000000000              -0.000927732               0.005985293               0.001148326              -0.001096059               0.002360430               0.001264372               0.000000000               0.000000000               0.000000000               0.000000000              -0.000440578               0.005791163               0.001021765              -0.000889110               0.002226738               0.001337628               0.000000000               0.000000000               0.000000000               0.000000000              -0.000005413               0.005573019               0.000887445              -0.000698656               0.002090539               0.001391884               0.000000000               0.000000000               0.000000000               0.000000000               0.000374855               0.005366991               0.000729829              -0.000530302               0.001965747               0.001435444               0.000000000               0.000000000               0.000000000               0.000000000               0.000678008               0.005194864               0.000547795              -0.000395104               0.001863305               0.001468201               0.000000000               0.000000000               0.000000000               0.000000000               0.000883324               0.005078463               0.000361728              -0.000303561               0.001793991               0.001490430               0.000000000               0.000000000               0.000000000               0.000000000               0.000972944               0.005020088               0.000181756              -0.000262656               0.001760898               0.001498242               0.000000000               0.000000000               0.000000000               0.000000000               0.000963609               0.004988767               0.000086507              -0.000262242               0.001750320               0.001488078               0.000000000               0.000000000               0.000000000               0.000000000              -0.009264791              -0.000285463              -0.001425640              -0.003438611               0.001051042              -0.002387569               0.000000000               0.000000000               0.000000000               0.000000000              -0.007172296               0.001541872               0.000385225              -0.002882341               0.001474727              -0.001407614               0.000000000               0.000000000               0.000000000               0.000000000              -0.005845151               0.003170474               0.001964120              -0.002588237               0.001919557              -0.000668680               0.000000000               0.000000000               0.000000000               0.000000000              -0.004859054               0.004219528               0.002318171              -0.002349582               0.002189688              -0.000159894               0.000000000               0.000000000               0.000000000               0.000000000              -0.004037942               0.004872336               0.002275024              -0.002123266               0.002331850               0.000208585               0.000000000               0.000000000               0.000000000               0.000000000              -0.003299363               0.005270247               0.002111631              -0.001896038               0.002388743               0.000492706               0.000000000               0.000000000               0.000000000               0.000000000              -0.002618112               0.005511233               0.001916546              -0.001670692               0.002393956               0.000723264               0.000000000               0.000000000               0.000000000               0.000000000              -0.001973142               0.005647961               0.001719284              -0.001445921               0.002364608               0.000918687               0.000000000               0.000000000               0.000000000               0.000000000              -0.001370089               0.005701963               0.001538904              -0.001226526               0.002309477               0.001082951               0.000000000               0.000000000               0.000000000               0.000000000              -0.000807699               0.005690215               0.001385793              -0.001014162               0.002234773               0.001220611               0.000000000               0.000000000               0.000000000               0.000000000              -0.000282930               0.005621294               0.001246739              -0.000808759               0.002143332               0.001334573               0.000000000               0.000000000               0.000000000               0.000000000               0.000207951               0.005509032               0.001102923              -0.000610646               0.002039874               0.001429228               0.000000000               0.000000000               0.000000000               0.000000000               0.000660619               0.005374319               0.000934389              -0.000424057               0.001932774               0.001508717               0.000000000               0.000000000               0.000000000               0.000000000               0.001065834               0.005238907               0.000734230              -0.000255175               0.001831343               0.001576168               0.000000000               0.000000000               0.000000000               0.000000000               0.001403127               0.005129359               0.000513535              -0.000114997               0.001748102               0.001633104               0.000000000               0.000000000               0.000000000               0.000000000               0.001638989               0.005053386               0.000270476              -0.000017053               0.001690130               0.001673077               0.000000000               0.000000000               0.000000000               0.000000000               0.001735390               0.005026818               0.000145269               0.000022418               0.001668117               0.001690535               0.000000000               0.000000000               0.000000000               0.000000000              -0.011428132              -0.000891921              -0.001582123              -0.004174057               0.001094037              -0.003080019               0.000000000               0.000000000               0.000000000               0.000000000              -0.008336071               0.000518548               0.000144336              -0.003190842               0.001236455              -0.001954387               0.000000000               0.000000000               0.000000000               0.000000000              -0.006123099               0.001711188               0.001705298              -0.002510057               0.001407072              -0.001102986               0.000000000               0.000000000               0.000000000               0.000000000              -0.004789289               0.002746992               0.002144866              -0.002139354               0.001628770              -0.000510584               0.000000000               0.000000000               0.000000000               0.000000000              -0.003840634               0.003536584               0.002178913              -0.001882307               0.001806284              -0.000076023               0.000000000               0.000000000               0.000000000               0.000000000              -0.003070191               0.004117398               0.002067347              -0.001665993               0.001927783               0.000261789               0.000000000               0.000000000               0.000000000               0.000000000              -0.002389860               0.004543888               0.001907819              -0.001464181               0.002002674               0.000538493               0.000000000               0.000000000               0.000000000               0.000000000              -0.001752643               0.004859691               0.001736700              -0.001264700               0.002041447               0.000776747               0.000000000               0.000000000               0.000000000               0.000000000              -0.001147775               0.005070797               0.001572949              -0.001064263               0.002045003               0.000980740               0.000000000               0.000000000               0.000000000               0.000000000              -0.000573310               0.005195887               0.001432231              -0.000864476               0.002020103               0.001155628               0.000000000               0.000000000               0.000000000               0.000000000              -0.000022288               0.005257675               0.001305077              -0.000665566               0.001974396               0.001308830               0.000000000               0.000000000               0.000000000               0.000000000               0.000514865               0.005271581               0.001171613              -0.000465873               0.001912467               0.001446594               0.000000000               0.000000000               0.000000000               0.000000000               0.001040641               0.005240095               0.001014173              -0.000264771               0.001834938               0.001570167               0.000000000               0.000000000               0.000000000               0.000000000               0.001553554               0.005179606               0.000822701              -0.000064868               0.001748141               0.001683272               0.000000000               0.000000000               0.000000000               0.000000000               0.002036950               0.005114479               0.000592970               0.000124545               0.001663294               0.001787839               0.000000000               0.000000000               0.000000000               0.000000000               0.002464185               0.005053855               0.000320276               0.000292334               0.001587157               0.001879491               0.000000000               0.000000000               0.000000000               0.000000000               0.002720621               0.005050508               0.000185591               0.000388916               0.001553847               0.001942763               0.000000000               0.000000000               0.000000000               0.000000000              -0.013225676              -0.001186543              -0.001352175              -0.004811307               0.001208246              -0.003603061               0.000000000               0.000000000               0.000000000               0.000000000              -0.009338543              -0.000211263              -0.000003760              -0.003475543               0.001088086              -0.002387457               0.000000000               0.000000000               0.000000000               0.000000000              -0.006365427               0.000528430               0.001247667              -0.002453086               0.000993832              -0.001459255               0.000000000               0.000000000               0.000000000               0.000000000              -0.004693753               0.001472648               0.001648287              -0.001944236               0.001138953              -0.000805283               0.000000000               0.000000000               0.000000000               0.000000000              -0.003601363               0.002320658               0.001721538              -0.001640591               0.001320407              -0.000320184               0.000000000               0.000000000               0.000000000               0.000000000              -0.002783067               0.003019927               0.001663403              -0.001421138               0.001480344               0.000059206               0.000000000               0.000000000               0.000000000               0.000000000              -0.002094372               0.003584812               0.001555829              -0.001233489               0.001606088               0.000372599               0.000000000               0.000000000               0.000000000               0.000000000              -0.001464880               0.004033131               0.001432062              -0.001053469               0.001695519               0.000642050               0.000000000               0.000000000               0.000000000               0.000000000              -0.000862305               0.004372374               0.001308242              -0.000869909               0.001747413               0.000877503               0.000000000               0.000000000               0.000000000               0.000000000              -0.000278652               0.004625329               0.001198544              -0.000682660               0.001769314               0.001086654               0.000000000               0.000000000               0.000000000               0.000000000               0.000288893               0.004809488               0.001100598              -0.000492851               0.001767430               0.001274579               0.000000000               0.000000000               0.000000000               0.000000000               0.000857110               0.004934891               0.001004061              -0.000295445               0.001743429               0.001447984               0.000000000               0.000000000               0.000000000               0.000000000               0.001443592               0.005007475               0.000889143              -0.000084588               0.001697337               0.001612749               0.000000000               0.000000000               0.000000000               0.000000000               0.002048404               0.005037697               0.000736954               0.000138438               0.001633070               0.001771507               0.000000000               0.000000000               0.000000000               0.000000000               0.002672601               0.005041454               0.000541407               0.000372040               0.001556455               0.001928495               0.000000000               0.000000000               0.000000000               0.000000000               0.003312994               0.005027512               0.000297203               0.000613928               0.001471178               0.002085105               0.000000000               0.000000000               0.000000000               0.000000000               0.003756368               0.005061780               0.000178741               0.000775908               0.001428607               0.002204515               0.000000000               0.000000000               0.000000000               0.000000000              -0.014416528              -0.001289071              -0.000776696              -0.005245061               0.001318654              -0.003926407               0.000000000               0.000000000               0.000000000               0.000000000              -0.010016367              -0.000635882              -0.000040574              -0.003676650               0.001013582              -0.002663068               0.000000000               0.000000000               0.000000000               0.000000000              -0.006537763              -0.000238651               0.000654296              -0.002421828               0.000727720              -0.001694107               0.000000000               0.000000000               0.000000000               0.000000000              -0.004622666               0.000605345               0.000892617              -0.001809166               0.000804831              -0.001004335               0.000000000               0.000000000               0.000000000               0.000000000              -0.003409058               0.001467041               0.000949668              -0.001461775               0.000976265              -0.000485510               0.000000000               0.000000000               0.000000000               0.000000000              -0.002539760               0.002224931               0.000930323              -0.001230524               0.001151810              -0.000078714               0.000000000               0.000000000               0.000000000               0.000000000              -0.001838509               0.002863022               0.000877513              -0.001047316               0.001303436               0.000256120               0.000000000               0.000000000               0.000000000               0.000000000              -0.001217328               0.003392203               0.000812144              -0.000880521               0.001424230               0.000543709               0.000000000               0.000000000               0.000000000               0.000000000              -0.000626695               0.003822943               0.000745492              -0.000712877               0.001511927               0.000799050               0.000000000               0.000000000               0.000000000               0.000000000              -0.000044238               0.004170786               0.000684101              -0.000537936               0.001569560               0.001031624               0.000000000               0.000000000               0.000000000               0.000000000               0.000538924               0.004445383               0.000630464              -0.000353576               0.001599638               0.001246062               0.000000000               0.000000000               0.000000000               0.000000000               0.001131194               0.004653021               0.000585205              -0.000157430               0.001603468               0.001446038               0.000000000               0.000000000               0.000000000               0.000000000               0.001747809               0.004804268               0.000527662               0.000054894               0.001583109               0.001638003               0.000000000               0.000000000               0.000000000               0.000000000               0.002411604               0.004909163               0.000442372               0.000290703               0.001539470               0.001830173               0.000000000               0.000000000               0.000000000               0.000000000               0.003145887               0.004973188               0.000331778               0.000558053               0.001471695               0.002029748               0.000000000               0.000000000               0.000000000               0.000000000               0.003966673               0.004999105               0.000186420               0.000862606               0.001378816               0.002241422               0.000000000               0.000000000               0.000000000               0.000000000               0.004579476               0.005065843               0.000115066               0.001084062               0.001327243               0.002411306               0.000000000               0.000000000               0.000000000               0.000000000               0.000000000               0.000000000               0.000000000               0.000000000               0.000000000               0.000000000               0.000000000               0.000000000               0.000000000               0.000000000               0.000000000               0.000000000               0.000000000               0.000000000               0.000000000               0.000000000               0.000000000               0.000000000               0.000000000               0.000000000               0.000000000               0.000000000               0.000000000               0.000000000               0.000000000               0.000000000               0.000000000               0.000000000               0.000000000               0.000000000               0.000000000               0.000000000               0.000000000               0.000000000               0.000000000               0.000000000               0.000000000               0.000000000               0.000000000               0.000000000               0.000000000               0.000000000               0.000000000               0.000000000               0.000000000               0.000000000               0.000000000               0.000000000               0.000000000               0.000000000               0.000000000               0.000000000               0.000000000               0.000000000               0.000000000               0.000000000               0.000000000               0.000000000               0.000000000               0.000000000               0.000000000               0.000000000               0.000000000               0.000000000               0.000000000               0.000000000               0.000000000               0.000000000               0.000000000               0.000000000               0.000000000               0.000000000               0.000000000               0.000000000               0.000000000               0.000000000               0.000000000               0.000000000               0.000000000               0.000000000               0.000000000               0.000000000               0.000000000               0.000000000               0.000000000               0.000000000               0.000000000               0.000000000               0.000000000               0.000000000               0.000000000               0.000000000               0.000000000               0.000000000               0.000000000               0.000000000               0.000000000               0.000000000               0.000000000               0.000000000               0.000000000               0.000000000               0.000000000               0.000000000               0.000000000               0.000000000               0.000000000               0.000000000               0.000000000               0.000000000               0.000000000               0.000000000               0.000000000               0.000000000               0.000000000               0.000000000               0.000000000               0.000000000               0.000000000               0.000000000               0.000000000               0.000000000               0.000000000               0.000000000               0.000000000               0.000000000               0.000000000               0.000000000               0.000000000               0.000000000               0.000000000               0.000000000               0.000000000               0.000000000               0.000000000               0.000000000               0.000000000               0.000000000               0.000000000               0.000000000               0.000000000               0.000000000               0.000000000               0.000000000               0.000000000               0.000000000               0.000000000               0.000000000               0.000000000               0.000000000               0.000000000               0.000000000               0.000000000               0.000000000               0.000000000               0.000000000               0.000000000               0.000000000               0.000000000               0.000000000               0.000000000               0.000000000               0.000000000               0.000000000               0.000000000               0.000000000               0.000000000               0.000000000               0.000000000               0.000000000 </DataArray>
</PointData>
</Piece>
</UnstructuredGrid> </VTKFile>
