<?xml version="1.0"?>
<VTKFile type="UnstructuredGrid" version="0.1">
<UnstructuredGrid>
<Piece NumberOfPoints="      1156" NumberOfCells="      1024">
<Points>
<DataArray type="Float64"                                    Name="coordinates"                                                      NumberOfComponents=" 3" format="ascii">
              0.133000000               0.000000000               0.000000000               0.155937500               0.000000000               0.000000000               0.178875000               0.000000000               0.000000000               0.201812500               0.000000000               0.000000000               0.224750000               0.000000000               0.000000000               0.247687500               0.000000000               0.000000000               0.270625000               0.000000000               0.000000000               0.293562500               0.000000000               0.000000000               0.316500000               0.000000000               0.000000000               0.339437500               0.000000000               0.000000000               0.362375000               0.000000000               0.000000000               0.385312500               0.000000000               0.000000000               0.408250000               0.000000000               0.000000000               0.431187500               0.000000000               0.000000000               0.454125000               0.000000000               0.000000000               0.477062500               0.000000000               0.000000000               0.500000000               0.000000000               0.000000000               0.132359569               0.013036280               0.000000000               0.155337096               0.016127762               0.000000000               0.178314623               0.019219245               0.000000000               0.201292150               0.022310727               0.000000000               0.224269676               0.025402210               0.000000000               0.247247203               0.028493692               0.000000000               0.270224730               0.031585175               0.000000000               0.293202257               0.034676657               0.000000000               0.316179784               0.037768140               0.000000000               0.339157311               0.040859622               0.000000000               0.362134838               0.043951105               0.000000000               0.385112365               0.047042587               0.000000000               0.408089892               0.050134070               0.000000000               0.431067419               0.053225552               0.000000000               0.454044946               0.056317035               0.000000000               0.477022473               0.059408517               0.000000000               0.500000000               0.062500000               0.000000000               0.130444442               0.025947013               0.000000000               0.153541665               0.032137825               0.000000000               0.176638887               0.038328636               0.000000000               0.199736109               0.044519448               0.000000000               0.222833332               0.050710260               0.000000000               0.245930554               0.056901071               0.000000000               0.269027776               0.063091883               0.000000000               0.292124999               0.069282695               0.000000000               0.315222221               0.075473506               0.000000000               0.338319444               0.081664318               0.000000000               0.361416666               0.087855130               0.000000000               0.384513888               0.094045942               0.000000000               0.407611111               0.100236753               0.000000000               0.430708333               0.106427565               0.000000000               0.453805555               0.112618377               0.000000000               0.476902778               0.118809188               0.000000000               0.500000000               0.125000000               0.000000000               0.127273065               0.038607862               0.000000000               0.150568498               0.047913621               0.000000000               0.173863932               0.057219379               0.000000000               0.197159365               0.066525138               0.000000000               0.220454798               0.075830897               0.000000000               0.243750232               0.085136655               0.000000000               0.267045665               0.094442414               0.000000000               0.290341099               0.103748172               0.000000000               0.313636532               0.113053931               0.000000000               0.336931966               0.122359690               0.000000000               0.360227399               0.131665448               0.000000000               0.383522833               0.140971207               0.000000000               0.406818266               0.150276966               0.000000000               0.430113700               0.159582724               0.000000000               0.453409133               0.168888483               0.000000000               0.476704567               0.178194241               0.000000000               0.500000000               0.187500000               0.000000000               0.122875978               0.050896897               0.000000000               0.146446229               0.063340840               0.000000000               0.170016481               0.075784784               0.000000000               0.193586732               0.088228728               0.000000000               0.217156983               0.100672672               0.000000000               0.240727235               0.113116616               0.000000000               0.264297486               0.125560560               0.000000000               0.287867738               0.138004504               0.000000000               0.311437989               0.150448448               0.000000000               0.335008240               0.162892392               0.000000000               0.358578492               0.175336336               0.000000000               0.382148743               0.187780280               0.000000000               0.405718994               0.200224224               0.000000000               0.429289246               0.212668168               0.000000000               0.452859497               0.225112112               0.000000000               0.476429749               0.237556056               0.000000000               0.500000000               0.250000000               0.000000000               0.117295528               0.062695766               0.000000000               0.141214558               0.078308531               0.000000000               0.165133587               0.093921295               0.000000000               0.189052617               0.109534060               0.000000000               0.212971646               0.125146824               0.000000000               0.236890676               0.140759589               0.000000000               0.260809705               0.156372354               0.000000000               0.284728735               0.171985118               0.000000000               0.308647764               0.187597883               0.000000000               0.332566794               0.203210648               0.000000000               0.356485823               0.218823412               0.000000000               0.380404853               0.234436177               0.000000000               0.404323882               0.250048941               0.000000000               0.428242912               0.265661706               0.000000000               0.452161941               0.281274471               0.000000000               0.476080971               0.296887235               0.000000000               0.500000000               0.312500000               0.000000000               0.110585458               0.073890841               0.000000000               0.134923867               0.092710163               0.000000000               0.159262276               0.111529486               0.000000000               0.183600685               0.130348808               0.000000000               0.207939094               0.149168131               0.000000000               0.232277503               0.167987453               0.000000000               0.256615912               0.186806776               0.000000000               0.280954320               0.205626098               0.000000000               0.305292729               0.224445420               0.000000000               0.329631138               0.243264743               0.000000000               0.353969547               0.262084065               0.000000000               0.378307956               0.280903388               0.000000000               0.402646365               0.299722710               0.000000000               0.426984773               0.318542033               0.000000000               0.451323182               0.337361355               0.000000000               0.475661591               0.356180678               0.000000000               0.500000000               0.375000000               0.000000000               0.102810390               0.084374307               0.000000000               0.127634741               0.106444663               0.000000000               0.152459092               0.128515018               0.000000000               0.177283442               0.150585374               0.000000000               0.202107793               0.172655730               0.000000000               0.226932143               0.194726086               0.000000000               0.251756494               0.216796442               0.000000000               0.276580845               0.238866798               0.000000000               0.301405195               0.260937153               0.000000000               0.326229546               0.283007509               0.000000000               0.351053896               0.305077865               0.000000000               0.375878247               0.327148221               0.000000000               0.400702598               0.349218577               0.000000000               0.425526948               0.371288933               0.000000000               0.450351299               0.393359288               0.000000000               0.475175649               0.415429644               0.000000000               0.500000000               0.437500000               0.000000000               0.094045202               0.094045202               0.000000000               0.119417377               0.119417377               0.000000000               0.144789552               0.144789552               0.000000000               0.170161727               0.170161727               0.000000000               0.195533901               0.195533901               0.000000000               0.220906076               0.220906076               0.000000000               0.246278251               0.246278251               0.000000000               0.271650426               0.271650426               0.000000000               0.297022601               0.297022601               0.000000000               0.322394776               0.322394776               0.000000000               0.347766951               0.347766951               0.000000000               0.373139126               0.373139126               0.000000000               0.398511300               0.398511300               0.000000000               0.423883475               0.423883475               0.000000000               0.449255650               0.449255650               0.000000000               0.474627825               0.474627825               0.000000000               0.500000000               0.500000000               0.000000000               0.084374307               0.102810390               0.000000000               0.106444663               0.127634741               0.000000000               0.128515018               0.152459092               0.000000000               0.150585374               0.177283442               0.000000000               0.172655730               0.202107793               0.000000000               0.194726086               0.226932143               0.000000000               0.216796442               0.251756494               0.000000000               0.238866798               0.276580845               0.000000000               0.260937153               0.301405195               0.000000000               0.283007509               0.326229546               0.000000000               0.305077865               0.351053896               0.000000000               0.327148221               0.375878247               0.000000000               0.349218577               0.400702598               0.000000000               0.371288933               0.425526948               0.000000000               0.393359288               0.450351299               0.000000000               0.415429644               0.475175649               0.000000000               0.437500000               0.500000000               0.000000000               0.073890841               0.110585458               0.000000000               0.092710163               0.134923867               0.000000000               0.111529486               0.159262276               0.000000000               0.130348808               0.183600685               0.000000000               0.149168131               0.207939094               0.000000000               0.167987453               0.232277503               0.000000000               0.186806776               0.256615912               0.000000000               0.205626098               0.280954320               0.000000000               0.224445420               0.305292729               0.000000000               0.243264743               0.329631138               0.000000000               0.262084065               0.353969547               0.000000000               0.280903388               0.378307956               0.000000000               0.299722710               0.402646365               0.000000000               0.318542033               0.426984773               0.000000000               0.337361355               0.451323182               0.000000000               0.356180678               0.475661591               0.000000000               0.375000000               0.500000000               0.000000000               0.062695766               0.117295528               0.000000000               0.078308531               0.141214558               0.000000000               0.093921295               0.165133587               0.000000000               0.109534060               0.189052617               0.000000000               0.125146824               0.212971646               0.000000000               0.140759589               0.236890676               0.000000000               0.156372354               0.260809705               0.000000000               0.171985118               0.284728735               0.000000000               0.187597883               0.308647764               0.000000000               0.203210648               0.332566794               0.000000000               0.218823412               0.356485823               0.000000000               0.234436177               0.380404853               0.000000000               0.250048941               0.404323882               0.000000000               0.265661706               0.428242912               0.000000000               0.281274471               0.452161941               0.000000000               0.296887235               0.476080971               0.000000000               0.312500000               0.500000000               0.000000000               0.050896897               0.122875978               0.000000000               0.063340840               0.146446229               0.000000000               0.075784784               0.170016481               0.000000000               0.088228728               0.193586732               0.000000000               0.100672672               0.217156983               0.000000000               0.113116616               0.240727235               0.000000000               0.125560560               0.264297486               0.000000000               0.138004504               0.287867738               0.000000000               0.150448448               0.311437989               0.000000000               0.162892392               0.335008240               0.000000000               0.175336336               0.358578492               0.000000000               0.187780280               0.382148743               0.000000000               0.200224224               0.405718994               0.000000000               0.212668168               0.429289246               0.000000000               0.225112112               0.452859497               0.000000000               0.237556056               0.476429749               0.000000000               0.250000000               0.500000000               0.000000000               0.038607862               0.127273065               0.000000000               0.047913621               0.150568498               0.000000000               0.057219379               0.173863932               0.000000000               0.066525138               0.197159365               0.000000000               0.075830897               0.220454798               0.000000000               0.085136655               0.243750232               0.000000000               0.094442414               0.267045665               0.000000000               0.103748172               0.290341099               0.000000000               0.113053931               0.313636532               0.000000000               0.122359690               0.336931966               0.000000000               0.131665448               0.360227399               0.000000000               0.140971207               0.383522833               0.000000000               0.150276966               0.406818266               0.000000000               0.159582724               0.430113700               0.000000000               0.168888483               0.453409133               0.000000000               0.178194241               0.476704567               0.000000000               0.187500000               0.500000000               0.000000000               0.025947013               0.130444442               0.000000000               0.032137825               0.153541665               0.000000000               0.038328636               0.176638887               0.000000000               0.044519448               0.199736109               0.000000000               0.050710260               0.222833332               0.000000000               0.056901071               0.245930554               0.000000000               0.063091883               0.269027776               0.000000000               0.069282695               0.292124999               0.000000000               0.075473506               0.315222221               0.000000000               0.081664318               0.338319444               0.000000000               0.087855130               0.361416666               0.000000000               0.094045942               0.384513888               0.000000000               0.100236753               0.407611111               0.000000000               0.106427565               0.430708333               0.000000000               0.112618377               0.453805555               0.000000000               0.118809188               0.476902778               0.000000000               0.125000000               0.500000000               0.000000000               0.013036280               0.132359569               0.000000000               0.016127762               0.155337096               0.000000000               0.019219245               0.178314623               0.000000000               0.022310727               0.201292150               0.000000000               0.025402210               0.224269676               0.000000000               0.028493692               0.247247203               0.000000000               0.031585175               0.270224730               0.000000000               0.034676657               0.293202257               0.000000000               0.037768140               0.316179784               0.000000000               0.040859622               0.339157311               0.000000000               0.043951105               0.362134838               0.000000000               0.047042587               0.385112365               0.000000000               0.050134070               0.408089892               0.000000000               0.053225552               0.431067419               0.000000000               0.056317035               0.454044946               0.000000000               0.059408517               0.477022473               0.000000000               0.062500000               0.500000000               0.000000000               0.000000000               0.133000000               0.000000000               0.000000000               0.155937500               0.000000000               0.000000000               0.178875000               0.000000000               0.000000000               0.201812500               0.000000000               0.000000000               0.224750000               0.000000000               0.000000000               0.247687500               0.000000000               0.000000000               0.270625000               0.000000000               0.000000000               0.293562500               0.000000000               0.000000000               0.316500000               0.000000000               0.000000000               0.339437500               0.000000000               0.000000000               0.362375000               0.000000000               0.000000000               0.385312500               0.000000000               0.000000000               0.408250000               0.000000000               0.000000000               0.431187500               0.000000000               0.000000000               0.454125000               0.000000000               0.000000000               0.477062500               0.000000000               0.000000000               0.500000000               0.000000000               0.133000000               0.000000000               0.000000000               0.155937500               0.000000000               0.000000000               0.178875000               0.000000000               0.000000000               0.201812500               0.000000000               0.000000000               0.224750000               0.000000000               0.000000000               0.247687500               0.000000000               0.000000000               0.270625000               0.000000000               0.000000000               0.293562500               0.000000000               0.000000000               0.316500000               0.000000000               0.000000000               0.339437500               0.000000000               0.000000000               0.362375000               0.000000000               0.000000000               0.385312500               0.000000000               0.000000000               0.408250000               0.000000000               0.000000000               0.431187500               0.000000000               0.000000000               0.454125000               0.000000000               0.000000000               0.477062500               0.000000000               0.000000000               0.500000000               0.000000000               0.000000000               0.132359569              -0.013036280               0.000000000               0.155337096              -0.016127762               0.000000000               0.178314623              -0.019219245               0.000000000               0.201292150              -0.022310727               0.000000000               0.224269676              -0.025402210               0.000000000               0.247247203              -0.028493692               0.000000000               0.270224730              -0.031585175               0.000000000               0.293202257              -0.034676657               0.000000000               0.316179784              -0.037768140               0.000000000               0.339157311              -0.040859622               0.000000000               0.362134838              -0.043951105               0.000000000               0.385112365              -0.047042587               0.000000000               0.408089892              -0.050134070               0.000000000               0.431067419              -0.053225552               0.000000000               0.454044946              -0.056317035               0.000000000               0.477022473              -0.059408517               0.000000000               0.500000000              -0.062500000               0.000000000               0.130444442              -0.025947013               0.000000000               0.153541665              -0.032137825               0.000000000               0.176638887              -0.038328636               0.000000000               0.199736109              -0.044519448               0.000000000               0.222833332              -0.050710260               0.000000000               0.245930554              -0.056901071               0.000000000               0.269027776              -0.063091883               0.000000000               0.292124999              -0.069282695               0.000000000               0.315222221              -0.075473506               0.000000000               0.338319444              -0.081664318               0.000000000               0.361416666              -0.087855130               0.000000000               0.384513888              -0.094045942               0.000000000               0.407611111              -0.100236753               0.000000000               0.430708333              -0.106427565               0.000000000               0.453805555              -0.112618377               0.000000000               0.476902778              -0.118809188               0.000000000               0.500000000              -0.125000000               0.000000000               0.127273065              -0.038607862               0.000000000               0.150568498              -0.047913621               0.000000000               0.173863932              -0.057219379               0.000000000               0.197159365              -0.066525138               0.000000000               0.220454798              -0.075830897               0.000000000               0.243750232              -0.085136655               0.000000000               0.267045665              -0.094442414               0.000000000               0.290341099              -0.103748172               0.000000000               0.313636532              -0.113053931               0.000000000               0.336931966              -0.122359690               0.000000000               0.360227399              -0.131665448               0.000000000               0.383522833              -0.140971207               0.000000000               0.406818266              -0.150276966               0.000000000               0.430113700              -0.159582724               0.000000000               0.453409133              -0.168888483               0.000000000               0.476704567              -0.178194241               0.000000000               0.500000000              -0.187500000               0.000000000               0.122875978              -0.050896897               0.000000000               0.146446229              -0.063340840               0.000000000               0.170016481              -0.075784784               0.000000000               0.193586732              -0.088228728               0.000000000               0.217156983              -0.100672672               0.000000000               0.240727235              -0.113116616               0.000000000               0.264297486              -0.125560560               0.000000000               0.287867738              -0.138004504               0.000000000               0.311437989              -0.150448448               0.000000000               0.335008240              -0.162892392               0.000000000               0.358578492              -0.175336336               0.000000000               0.382148743              -0.187780280               0.000000000               0.405718994              -0.200224224               0.000000000               0.429289246              -0.212668168               0.000000000               0.452859497              -0.225112112               0.000000000               0.476429749              -0.237556056               0.000000000               0.500000000              -0.250000000               0.000000000               0.117295528              -0.062695766               0.000000000               0.141214558              -0.078308531               0.000000000               0.165133587              -0.093921295               0.000000000               0.189052617              -0.109534060               0.000000000               0.212971646              -0.125146824               0.000000000               0.236890676              -0.140759589               0.000000000               0.260809705              -0.156372354               0.000000000               0.284728735              -0.171985118               0.000000000               0.308647764              -0.187597883               0.000000000               0.332566794              -0.203210648               0.000000000               0.356485823              -0.218823412               0.000000000               0.380404853              -0.234436177               0.000000000               0.404323882              -0.250048941               0.000000000               0.428242912              -0.265661706               0.000000000               0.452161941              -0.281274471               0.000000000               0.476080971              -0.296887235               0.000000000               0.500000000              -0.312500000               0.000000000               0.110585458              -0.073890841               0.000000000               0.134923867              -0.092710163               0.000000000               0.159262276              -0.111529486               0.000000000               0.183600685              -0.130348808               0.000000000               0.207939094              -0.149168131               0.000000000               0.232277503              -0.167987453               0.000000000               0.256615912              -0.186806776               0.000000000               0.280954320              -0.205626098               0.000000000               0.305292729              -0.224445420               0.000000000               0.329631138              -0.243264743               0.000000000               0.353969547              -0.262084065               0.000000000               0.378307956              -0.280903388               0.000000000               0.402646365              -0.299722710               0.000000000               0.426984773              -0.318542033               0.000000000               0.451323182              -0.337361355               0.000000000               0.475661591              -0.356180678               0.000000000               0.500000000              -0.375000000               0.000000000               0.102810390              -0.084374307               0.000000000               0.127634741              -0.106444663               0.000000000               0.152459092              -0.128515018               0.000000000               0.177283442              -0.150585374               0.000000000               0.202107793              -0.172655730               0.000000000               0.226932143              -0.194726086               0.000000000               0.251756494              -0.216796442               0.000000000               0.276580845              -0.238866798               0.000000000               0.301405195              -0.260937153               0.000000000               0.326229546              -0.283007509               0.000000000               0.351053896              -0.305077865               0.000000000               0.375878247              -0.327148221               0.000000000               0.400702598              -0.349218577               0.000000000               0.425526948              -0.371288933               0.000000000               0.450351299              -0.393359288               0.000000000               0.475175649              -0.415429644               0.000000000               0.500000000              -0.437500000               0.000000000               0.094045202              -0.094045202               0.000000000               0.119417377              -0.119417377               0.000000000               0.144789552              -0.144789552               0.000000000               0.170161727              -0.170161727               0.000000000               0.195533901              -0.195533901               0.000000000               0.220906076              -0.220906076               0.000000000               0.246278251              -0.246278251               0.000000000               0.271650426              -0.271650426               0.000000000               0.297022601              -0.297022601               0.000000000               0.322394776              -0.322394776               0.000000000               0.347766951              -0.347766951               0.000000000               0.373139126              -0.373139126               0.000000000               0.398511300              -0.398511300               0.000000000               0.423883475              -0.423883475               0.000000000               0.449255650              -0.449255650               0.000000000               0.474627825              -0.474627825               0.000000000               0.500000000              -0.500000000               0.000000000               0.084374307              -0.102810390               0.000000000               0.106444663              -0.127634741               0.000000000               0.128515018              -0.152459092               0.000000000               0.150585374              -0.177283442               0.000000000               0.172655730              -0.202107793               0.000000000               0.194726086              -0.226932143               0.000000000               0.216796442              -0.251756494               0.000000000               0.238866798              -0.276580845               0.000000000               0.260937153              -0.301405195               0.000000000               0.283007509              -0.326229546               0.000000000               0.305077865              -0.351053896               0.000000000               0.327148221              -0.375878247               0.000000000               0.349218577              -0.400702598               0.000000000               0.371288933              -0.425526948               0.000000000               0.393359288              -0.450351299               0.000000000               0.415429644              -0.475175649               0.000000000               0.437500000              -0.500000000               0.000000000               0.073890841              -0.110585458               0.000000000               0.092710163              -0.134923867               0.000000000               0.111529486              -0.159262276               0.000000000               0.130348808              -0.183600685               0.000000000               0.149168131              -0.207939094               0.000000000               0.167987453              -0.232277503               0.000000000               0.186806776              -0.256615912               0.000000000               0.205626098              -0.280954320               0.000000000               0.224445420              -0.305292729               0.000000000               0.243264743              -0.329631138               0.000000000               0.262084065              -0.353969547               0.000000000               0.280903388              -0.378307956               0.000000000               0.299722710              -0.402646365               0.000000000               0.318542033              -0.426984773               0.000000000               0.337361355              -0.451323182               0.000000000               0.356180678              -0.475661591               0.000000000               0.375000000              -0.500000000               0.000000000               0.062695766              -0.117295528               0.000000000               0.078308531              -0.141214558               0.000000000               0.093921295              -0.165133587               0.000000000               0.109534060              -0.189052617               0.000000000               0.125146824              -0.212971646               0.000000000               0.140759589              -0.236890676               0.000000000               0.156372354              -0.260809705               0.000000000               0.171985118              -0.284728735               0.000000000               0.187597883              -0.308647764               0.000000000               0.203210648              -0.332566794               0.000000000               0.218823412              -0.356485823               0.000000000               0.234436177              -0.380404853               0.000000000               0.250048941              -0.404323882               0.000000000               0.265661706              -0.428242912               0.000000000               0.281274471              -0.452161941               0.000000000               0.296887235              -0.476080971               0.000000000               0.312500000              -0.500000000               0.000000000               0.050896897              -0.122875978               0.000000000               0.063340840              -0.146446229               0.000000000               0.075784784              -0.170016481               0.000000000               0.088228728              -0.193586732               0.000000000               0.100672672              -0.217156983               0.000000000               0.113116616              -0.240727235               0.000000000               0.125560560              -0.264297486               0.000000000               0.138004504              -0.287867738               0.000000000               0.150448448              -0.311437989               0.000000000               0.162892392              -0.335008240               0.000000000               0.175336336              -0.358578492               0.000000000               0.187780280              -0.382148743               0.000000000               0.200224224              -0.405718994               0.000000000               0.212668168              -0.429289246               0.000000000               0.225112112              -0.452859497               0.000000000               0.237556056              -0.476429749               0.000000000               0.250000000              -0.500000000               0.000000000               0.038607862              -0.127273065               0.000000000               0.047913621              -0.150568498               0.000000000               0.057219379              -0.173863932               0.000000000               0.066525138              -0.197159365               0.000000000               0.075830897              -0.220454798               0.000000000               0.085136655              -0.243750232               0.000000000               0.094442414              -0.267045665               0.000000000               0.103748172              -0.290341099               0.000000000               0.113053931              -0.313636532               0.000000000               0.122359690              -0.336931966               0.000000000               0.131665448              -0.360227399               0.000000000               0.140971207              -0.383522833               0.000000000               0.150276966              -0.406818266               0.000000000               0.159582724              -0.430113700               0.000000000               0.168888483              -0.453409133               0.000000000               0.178194241              -0.476704567               0.000000000               0.187500000              -0.500000000               0.000000000               0.025947013              -0.130444442               0.000000000               0.032137825              -0.153541665               0.000000000               0.038328636              -0.176638887               0.000000000               0.044519448              -0.199736109               0.000000000               0.050710260              -0.222833332               0.000000000               0.056901071              -0.245930554               0.000000000               0.063091883              -0.269027776               0.000000000               0.069282695              -0.292124999               0.000000000               0.075473506              -0.315222221               0.000000000               0.081664318              -0.338319444               0.000000000               0.087855130              -0.361416666               0.000000000               0.094045942              -0.384513888               0.000000000               0.100236753              -0.407611111               0.000000000               0.106427565              -0.430708333               0.000000000               0.112618377              -0.453805555               0.000000000               0.118809188              -0.476902778               0.000000000               0.125000000              -0.500000000               0.000000000               0.013036280              -0.132359569               0.000000000               0.016127762              -0.155337096               0.000000000               0.019219245              -0.178314623               0.000000000               0.022310727              -0.201292150               0.000000000               0.025402210              -0.224269676               0.000000000               0.028493692              -0.247247203               0.000000000               0.031585175              -0.270224730               0.000000000               0.034676657              -0.293202257               0.000000000               0.037768140              -0.316179784               0.000000000               0.040859622              -0.339157311               0.000000000               0.043951105              -0.362134838               0.000000000               0.047042587              -0.385112365               0.000000000               0.050134070              -0.408089892               0.000000000               0.053225552              -0.431067419               0.000000000               0.056317035              -0.454044946               0.000000000               0.059408517              -0.477022473               0.000000000               0.062500000              -0.500000000               0.000000000               0.000000000              -0.133000000               0.000000000               0.000000000              -0.155937500               0.000000000               0.000000000              -0.178875000               0.000000000               0.000000000              -0.201812500               0.000000000               0.000000000              -0.224750000               0.000000000               0.000000000              -0.247687500               0.000000000               0.000000000              -0.270625000               0.000000000               0.000000000              -0.293562500               0.000000000               0.000000000              -0.316500000               0.000000000               0.000000000              -0.339437500               0.000000000               0.000000000              -0.362375000               0.000000000               0.000000000              -0.385312500               0.000000000               0.000000000              -0.408250000               0.000000000               0.000000000              -0.431187500               0.000000000               0.000000000              -0.454125000               0.000000000               0.000000000              -0.477062500               0.000000000               0.000000000              -0.500000000               0.000000000              -0.133000000               0.000000000               0.000000000              -0.155937500               0.000000000               0.000000000              -0.178875000               0.000000000               0.000000000              -0.201812500               0.000000000               0.000000000              -0.224750000               0.000000000               0.000000000              -0.247687500               0.000000000               0.000000000              -0.270625000               0.000000000               0.000000000              -0.293562500               0.000000000               0.000000000              -0.316500000               0.000000000               0.000000000              -0.339437500               0.000000000               0.000000000              -0.362375000               0.000000000               0.000000000              -0.385312500               0.000000000               0.000000000              -0.408250000               0.000000000               0.000000000              -0.431187500               0.000000000               0.000000000              -0.454125000               0.000000000               0.000000000              -0.477062500               0.000000000               0.000000000              -0.500000000               0.000000000               0.000000000              -0.132359569              -0.013036280               0.000000000              -0.155337096              -0.016127762               0.000000000              -0.178314623              -0.019219245               0.000000000              -0.201292150              -0.022310727               0.000000000              -0.224269676              -0.025402210               0.000000000              -0.247247203              -0.028493692               0.000000000              -0.270224730              -0.031585175               0.000000000              -0.293202257              -0.034676657               0.000000000              -0.316179784              -0.037768140               0.000000000              -0.339157311              -0.040859622               0.000000000              -0.362134838              -0.043951105               0.000000000              -0.385112365              -0.047042587               0.000000000              -0.408089892              -0.050134070               0.000000000              -0.431067419              -0.053225552               0.000000000              -0.454044946              -0.056317035               0.000000000              -0.477022473              -0.059408517               0.000000000              -0.500000000              -0.062500000               0.000000000              -0.130444442              -0.025947013               0.000000000              -0.153541665              -0.032137825               0.000000000              -0.176638887              -0.038328636               0.000000000              -0.199736109              -0.044519448               0.000000000              -0.222833332              -0.050710260               0.000000000              -0.245930554              -0.056901071               0.000000000              -0.269027776              -0.063091883               0.000000000              -0.292124999              -0.069282695               0.000000000              -0.315222221              -0.075473506               0.000000000              -0.338319444              -0.081664318               0.000000000              -0.361416666              -0.087855130               0.000000000              -0.384513888              -0.094045942               0.000000000              -0.407611111              -0.100236753               0.000000000              -0.430708333              -0.106427565               0.000000000              -0.453805555              -0.112618377               0.000000000              -0.476902778              -0.118809188               0.000000000              -0.500000000              -0.125000000               0.000000000              -0.127273065              -0.038607862               0.000000000              -0.150568498              -0.047913621               0.000000000              -0.173863932              -0.057219379               0.000000000              -0.197159365              -0.066525138               0.000000000              -0.220454798              -0.075830897               0.000000000              -0.243750232              -0.085136655               0.000000000              -0.267045665              -0.094442414               0.000000000              -0.290341099              -0.103748172               0.000000000              -0.313636532              -0.113053931               0.000000000              -0.336931966              -0.122359690               0.000000000              -0.360227399              -0.131665448               0.000000000              -0.383522833              -0.140971207               0.000000000              -0.406818266              -0.150276966               0.000000000              -0.430113700              -0.159582724               0.000000000              -0.453409133              -0.168888483               0.000000000              -0.476704567              -0.178194241               0.000000000              -0.500000000              -0.187500000               0.000000000              -0.122875978              -0.050896897               0.000000000              -0.146446229              -0.063340840               0.000000000              -0.170016481              -0.075784784               0.000000000              -0.193586732              -0.088228728               0.000000000              -0.217156983              -0.100672672               0.000000000              -0.240727235              -0.113116616               0.000000000              -0.264297486              -0.125560560               0.000000000              -0.287867738              -0.138004504               0.000000000              -0.311437989              -0.150448448               0.000000000              -0.335008240              -0.162892392               0.000000000              -0.358578492              -0.175336336               0.000000000              -0.382148743              -0.187780280               0.000000000              -0.405718994              -0.200224224               0.000000000              -0.429289246              -0.212668168               0.000000000              -0.452859497              -0.225112112               0.000000000              -0.476429749              -0.237556056               0.000000000              -0.500000000              -0.250000000               0.000000000              -0.117295528              -0.062695766               0.000000000              -0.141214558              -0.078308531               0.000000000              -0.165133587              -0.093921295               0.000000000              -0.189052617              -0.109534060               0.000000000              -0.212971646              -0.125146824               0.000000000              -0.236890676              -0.140759589               0.000000000              -0.260809705              -0.156372354               0.000000000              -0.284728735              -0.171985118               0.000000000              -0.308647764              -0.187597883               0.000000000              -0.332566794              -0.203210648               0.000000000              -0.356485823              -0.218823412               0.000000000              -0.380404853              -0.234436177               0.000000000              -0.404323882              -0.250048941               0.000000000              -0.428242912              -0.265661706               0.000000000              -0.452161941              -0.281274471               0.000000000              -0.476080971              -0.296887235               0.000000000              -0.500000000              -0.312500000               0.000000000              -0.110585458              -0.073890841               0.000000000              -0.134923867              -0.092710163               0.000000000              -0.159262276              -0.111529486               0.000000000              -0.183600685              -0.130348808               0.000000000              -0.207939094              -0.149168131               0.000000000              -0.232277503              -0.167987453               0.000000000              -0.256615912              -0.186806776               0.000000000              -0.280954320              -0.205626098               0.000000000              -0.305292729              -0.224445420               0.000000000              -0.329631138              -0.243264743               0.000000000              -0.353969547              -0.262084065               0.000000000              -0.378307956              -0.280903388               0.000000000              -0.402646365              -0.299722710               0.000000000              -0.426984773              -0.318542033               0.000000000              -0.451323182              -0.337361355               0.000000000              -0.475661591              -0.356180678               0.000000000              -0.500000000              -0.375000000               0.000000000              -0.102810390              -0.084374307               0.000000000              -0.127634741              -0.106444663               0.000000000              -0.152459092              -0.128515018               0.000000000              -0.177283442              -0.150585374               0.000000000              -0.202107793              -0.172655730               0.000000000              -0.226932143              -0.194726086               0.000000000              -0.251756494              -0.216796442               0.000000000              -0.276580845              -0.238866798               0.000000000              -0.301405195              -0.260937153               0.000000000              -0.326229546              -0.283007509               0.000000000              -0.351053896              -0.305077865               0.000000000              -0.375878247              -0.327148221               0.000000000              -0.400702598              -0.349218577               0.000000000              -0.425526948              -0.371288933               0.000000000              -0.450351299              -0.393359288               0.000000000              -0.475175649              -0.415429644               0.000000000              -0.500000000              -0.437500000               0.000000000              -0.094045202              -0.094045202               0.000000000              -0.119417377              -0.119417377               0.000000000              -0.144789552              -0.144789552               0.000000000              -0.170161727              -0.170161727               0.000000000              -0.195533901              -0.195533901               0.000000000              -0.220906076              -0.220906076               0.000000000              -0.246278251              -0.246278251               0.000000000              -0.271650426              -0.271650426               0.000000000              -0.297022601              -0.297022601               0.000000000              -0.322394776              -0.322394776               0.000000000              -0.347766951              -0.347766951               0.000000000              -0.373139126              -0.373139126               0.000000000              -0.398511300              -0.398511300               0.000000000              -0.423883475              -0.423883475               0.000000000              -0.449255650              -0.449255650               0.000000000              -0.474627825              -0.474627825               0.000000000              -0.500000000              -0.500000000               0.000000000              -0.084374307              -0.102810390               0.000000000              -0.106444663              -0.127634741               0.000000000              -0.128515018              -0.152459092               0.000000000              -0.150585374              -0.177283442               0.000000000              -0.172655730              -0.202107793               0.000000000              -0.194726086              -0.226932143               0.000000000              -0.216796442              -0.251756494               0.000000000              -0.238866798              -0.276580845               0.000000000              -0.260937153              -0.301405195               0.000000000              -0.283007509              -0.326229546               0.000000000              -0.305077865              -0.351053896               0.000000000              -0.327148221              -0.375878247               0.000000000              -0.349218577              -0.400702598               0.000000000              -0.371288933              -0.425526948               0.000000000              -0.393359288              -0.450351299               0.000000000              -0.415429644              -0.475175649               0.000000000              -0.437500000              -0.500000000               0.000000000              -0.073890841              -0.110585458               0.000000000              -0.092710163              -0.134923867               0.000000000              -0.111529486              -0.159262276               0.000000000              -0.130348808              -0.183600685               0.000000000              -0.149168131              -0.207939094               0.000000000              -0.167987453              -0.232277503               0.000000000              -0.186806776              -0.256615912               0.000000000              -0.205626098              -0.280954320               0.000000000              -0.224445420              -0.305292729               0.000000000              -0.243264743              -0.329631138               0.000000000              -0.262084065              -0.353969547               0.000000000              -0.280903388              -0.378307956               0.000000000              -0.299722710              -0.402646365               0.000000000              -0.318542033              -0.426984773               0.000000000              -0.337361355              -0.451323182               0.000000000              -0.356180678              -0.475661591               0.000000000              -0.375000000              -0.500000000               0.000000000              -0.062695766              -0.117295528               0.000000000              -0.078308531              -0.141214558               0.000000000              -0.093921295              -0.165133587               0.000000000              -0.109534060              -0.189052617               0.000000000              -0.125146824              -0.212971646               0.000000000              -0.140759589              -0.236890676               0.000000000              -0.156372354              -0.260809705               0.000000000              -0.171985118              -0.284728735               0.000000000              -0.187597883              -0.308647764               0.000000000              -0.203210648              -0.332566794               0.000000000              -0.218823412              -0.356485823               0.000000000              -0.234436177              -0.380404853               0.000000000              -0.250048941              -0.404323882               0.000000000              -0.265661706              -0.428242912               0.000000000              -0.281274471              -0.452161941               0.000000000              -0.296887235              -0.476080971               0.000000000              -0.312500000              -0.500000000               0.000000000              -0.050896897              -0.122875978               0.000000000              -0.063340840              -0.146446229               0.000000000              -0.075784784              -0.170016481               0.000000000              -0.088228728              -0.193586732               0.000000000              -0.100672672              -0.217156983               0.000000000              -0.113116616              -0.240727235               0.000000000              -0.125560560              -0.264297486               0.000000000              -0.138004504              -0.287867738               0.000000000              -0.150448448              -0.311437989               0.000000000              -0.162892392              -0.335008240               0.000000000              -0.175336336              -0.358578492               0.000000000              -0.187780280              -0.382148743               0.000000000              -0.200224224              -0.405718994               0.000000000              -0.212668168              -0.429289246               0.000000000              -0.225112112              -0.452859497               0.000000000              -0.237556056              -0.476429749               0.000000000              -0.250000000              -0.500000000               0.000000000              -0.038607862              -0.127273065               0.000000000              -0.047913621              -0.150568498               0.000000000              -0.057219379              -0.173863932               0.000000000              -0.066525138              -0.197159365               0.000000000              -0.075830897              -0.220454798               0.000000000              -0.085136655              -0.243750232               0.000000000              -0.094442414              -0.267045665               0.000000000              -0.103748172              -0.290341099               0.000000000              -0.113053931              -0.313636532               0.000000000              -0.122359690              -0.336931966               0.000000000              -0.131665448              -0.360227399               0.000000000              -0.140971207              -0.383522833               0.000000000              -0.150276966              -0.406818266               0.000000000              -0.159582724              -0.430113700               0.000000000              -0.168888483              -0.453409133               0.000000000              -0.178194241              -0.476704567               0.000000000              -0.187500000              -0.500000000               0.000000000              -0.025947013              -0.130444442               0.000000000              -0.032137825              -0.153541665               0.000000000              -0.038328636              -0.176638887               0.000000000              -0.044519448              -0.199736109               0.000000000              -0.050710260              -0.222833332               0.000000000              -0.056901071              -0.245930554               0.000000000              -0.063091883              -0.269027776               0.000000000              -0.069282695              -0.292124999               0.000000000              -0.075473506              -0.315222221               0.000000000              -0.081664318              -0.338319444               0.000000000              -0.087855130              -0.361416666               0.000000000              -0.094045942              -0.384513888               0.000000000              -0.100236753              -0.407611111               0.000000000              -0.106427565              -0.430708333               0.000000000              -0.112618377              -0.453805555               0.000000000              -0.118809188              -0.476902778               0.000000000              -0.125000000              -0.500000000               0.000000000              -0.013036280              -0.132359569               0.000000000              -0.016127762              -0.155337096               0.000000000              -0.019219245              -0.178314623               0.000000000              -0.022310727              -0.201292150               0.000000000              -0.025402210              -0.224269676               0.000000000              -0.028493692              -0.247247203               0.000000000              -0.031585175              -0.270224730               0.000000000              -0.034676657              -0.293202257               0.000000000              -0.037768140              -0.316179784               0.000000000              -0.040859622              -0.339157311               0.000000000              -0.043951105              -0.362134838               0.000000000              -0.047042587              -0.385112365               0.000000000              -0.050134070              -0.408089892               0.000000000              -0.053225552              -0.431067419               0.000000000              -0.056317035              -0.454044946               0.000000000              -0.059408517              -0.477022473               0.000000000              -0.062500000              -0.500000000               0.000000000               0.000000000              -0.133000000               0.000000000               0.000000000              -0.155937500               0.000000000               0.000000000              -0.178875000               0.000000000               0.000000000              -0.201812500               0.000000000               0.000000000              -0.224750000               0.000000000               0.000000000              -0.247687500               0.000000000               0.000000000              -0.270625000               0.000000000               0.000000000              -0.293562500               0.000000000               0.000000000              -0.316500000               0.000000000               0.000000000              -0.339437500               0.000000000               0.000000000              -0.362375000               0.000000000               0.000000000              -0.385312500               0.000000000               0.000000000              -0.408250000               0.000000000               0.000000000              -0.431187500               0.000000000               0.000000000              -0.454125000               0.000000000               0.000000000              -0.477062500               0.000000000               0.000000000              -0.500000000               0.000000000              -0.133000000               0.000000000               0.000000000              -0.155937500               0.000000000               0.000000000              -0.178875000               0.000000000               0.000000000              -0.201812500               0.000000000               0.000000000              -0.224750000               0.000000000               0.000000000              -0.247687500               0.000000000               0.000000000              -0.270625000               0.000000000               0.000000000              -0.293562500               0.000000000               0.000000000              -0.316500000               0.000000000               0.000000000              -0.339437500               0.000000000               0.000000000              -0.362375000               0.000000000               0.000000000              -0.385312500               0.000000000               0.000000000              -0.408250000               0.000000000               0.000000000              -0.431187500               0.000000000               0.000000000              -0.454125000               0.000000000               0.000000000              -0.477062500               0.000000000               0.000000000              -0.500000000               0.000000000               0.000000000              -0.132359569               0.013036280               0.000000000              -0.155337096               0.016127762               0.000000000              -0.178314623               0.019219245               0.000000000              -0.201292150               0.022310727               0.000000000              -0.224269676               0.025402210               0.000000000              -0.247247203               0.028493692               0.000000000              -0.270224730               0.031585175               0.000000000              -0.293202257               0.034676657               0.000000000              -0.316179784               0.037768140               0.000000000              -0.339157311               0.040859622               0.000000000              -0.362134838               0.043951105               0.000000000              -0.385112365               0.047042587               0.000000000              -0.408089892               0.050134070               0.000000000              -0.431067419               0.053225552               0.000000000              -0.454044946               0.056317035               0.000000000              -0.477022473               0.059408517               0.000000000              -0.500000000               0.062500000               0.000000000              -0.130444442               0.025947013               0.000000000              -0.153541665               0.032137825               0.000000000              -0.176638887               0.038328636               0.000000000              -0.199736109               0.044519448               0.000000000              -0.222833332               0.050710260               0.000000000              -0.245930554               0.056901071               0.000000000              -0.269027776               0.063091883               0.000000000              -0.292124999               0.069282695               0.000000000              -0.315222221               0.075473506               0.000000000              -0.338319444               0.081664318               0.000000000              -0.361416666               0.087855130               0.000000000              -0.384513888               0.094045942               0.000000000              -0.407611111               0.100236753               0.000000000              -0.430708333               0.106427565               0.000000000              -0.453805555               0.112618377               0.000000000              -0.476902778               0.118809188               0.000000000              -0.500000000               0.125000000               0.000000000              -0.127273065               0.038607862               0.000000000              -0.150568498               0.047913621               0.000000000              -0.173863932               0.057219379               0.000000000              -0.197159365               0.066525138               0.000000000              -0.220454798               0.075830897               0.000000000              -0.243750232               0.085136655               0.000000000              -0.267045665               0.094442414               0.000000000              -0.290341099               0.103748172               0.000000000              -0.313636532               0.113053931               0.000000000              -0.336931966               0.122359690               0.000000000              -0.360227399               0.131665448               0.000000000              -0.383522833               0.140971207               0.000000000              -0.406818266               0.150276966               0.000000000              -0.430113700               0.159582724               0.000000000              -0.453409133               0.168888483               0.000000000              -0.476704567               0.178194241               0.000000000              -0.500000000               0.187500000               0.000000000              -0.122875978               0.050896897               0.000000000              -0.146446229               0.063340840               0.000000000              -0.170016481               0.075784784               0.000000000              -0.193586732               0.088228728               0.000000000              -0.217156983               0.100672672               0.000000000              -0.240727235               0.113116616               0.000000000              -0.264297486               0.125560560               0.000000000              -0.287867738               0.138004504               0.000000000              -0.311437989               0.150448448               0.000000000              -0.335008240               0.162892392               0.000000000              -0.358578492               0.175336336               0.000000000              -0.382148743               0.187780280               0.000000000              -0.405718994               0.200224224               0.000000000              -0.429289246               0.212668168               0.000000000              -0.452859497               0.225112112               0.000000000              -0.476429749               0.237556056               0.000000000              -0.500000000               0.250000000               0.000000000              -0.117295528               0.062695766               0.000000000              -0.141214558               0.078308531               0.000000000              -0.165133587               0.093921295               0.000000000              -0.189052617               0.109534060               0.000000000              -0.212971646               0.125146824               0.000000000              -0.236890676               0.140759589               0.000000000              -0.260809705               0.156372354               0.000000000              -0.284728735               0.171985118               0.000000000              -0.308647764               0.187597883               0.000000000              -0.332566794               0.203210648               0.000000000              -0.356485823               0.218823412               0.000000000              -0.380404853               0.234436177               0.000000000              -0.404323882               0.250048941               0.000000000              -0.428242912               0.265661706               0.000000000              -0.452161941               0.281274471               0.000000000              -0.476080971               0.296887235               0.000000000              -0.500000000               0.312500000               0.000000000              -0.110585458               0.073890841               0.000000000              -0.134923867               0.092710163               0.000000000              -0.159262276               0.111529486               0.000000000              -0.183600685               0.130348808               0.000000000              -0.207939094               0.149168131               0.000000000              -0.232277503               0.167987453               0.000000000              -0.256615912               0.186806776               0.000000000              -0.280954320               0.205626098               0.000000000              -0.305292729               0.224445420               0.000000000              -0.329631138               0.243264743               0.000000000              -0.353969547               0.262084065               0.000000000              -0.378307956               0.280903388               0.000000000              -0.402646365               0.299722710               0.000000000              -0.426984773               0.318542033               0.000000000              -0.451323182               0.337361355               0.000000000              -0.475661591               0.356180678               0.000000000              -0.500000000               0.375000000               0.000000000              -0.102810390               0.084374307               0.000000000              -0.127634741               0.106444663               0.000000000              -0.152459092               0.128515018               0.000000000              -0.177283442               0.150585374               0.000000000              -0.202107793               0.172655730               0.000000000              -0.226932143               0.194726086               0.000000000              -0.251756494               0.216796442               0.000000000              -0.276580845               0.238866798               0.000000000              -0.301405195               0.260937153               0.000000000              -0.326229546               0.283007509               0.000000000              -0.351053896               0.305077865               0.000000000              -0.375878247               0.327148221               0.000000000              -0.400702598               0.349218577               0.000000000              -0.425526948               0.371288933               0.000000000              -0.450351299               0.393359288               0.000000000              -0.475175649               0.415429644               0.000000000              -0.500000000               0.437500000               0.000000000              -0.094045202               0.094045202               0.000000000              -0.119417377               0.119417377               0.000000000              -0.144789552               0.144789552               0.000000000              -0.170161727               0.170161727               0.000000000              -0.195533901               0.195533901               0.000000000              -0.220906076               0.220906076               0.000000000              -0.246278251               0.246278251               0.000000000              -0.271650426               0.271650426               0.000000000              -0.297022601               0.297022601               0.000000000              -0.322394776               0.322394776               0.000000000              -0.347766951               0.347766951               0.000000000              -0.373139126               0.373139126               0.000000000              -0.398511300               0.398511300               0.000000000              -0.423883475               0.423883475               0.000000000              -0.449255650               0.449255650               0.000000000              -0.474627825               0.474627825               0.000000000              -0.500000000               0.500000000               0.000000000              -0.084374307               0.102810390               0.000000000              -0.106444663               0.127634741               0.000000000              -0.128515018               0.152459092               0.000000000              -0.150585374               0.177283442               0.000000000              -0.172655730               0.202107793               0.000000000              -0.194726086               0.226932143               0.000000000              -0.216796442               0.251756494               0.000000000              -0.238866798               0.276580845               0.000000000              -0.260937153               0.301405195               0.000000000              -0.283007509               0.326229546               0.000000000              -0.305077865               0.351053896               0.000000000              -0.327148221               0.375878247               0.000000000              -0.349218577               0.400702598               0.000000000              -0.371288933               0.425526948               0.000000000              -0.393359288               0.450351299               0.000000000              -0.415429644               0.475175649               0.000000000              -0.437500000               0.500000000               0.000000000              -0.073890841               0.110585458               0.000000000              -0.092710163               0.134923867               0.000000000              -0.111529486               0.159262276               0.000000000              -0.130348808               0.183600685               0.000000000              -0.149168131               0.207939094               0.000000000              -0.167987453               0.232277503               0.000000000              -0.186806776               0.256615912               0.000000000              -0.205626098               0.280954320               0.000000000              -0.224445420               0.305292729               0.000000000              -0.243264743               0.329631138               0.000000000              -0.262084065               0.353969547               0.000000000              -0.280903388               0.378307956               0.000000000              -0.299722710               0.402646365               0.000000000              -0.318542033               0.426984773               0.000000000              -0.337361355               0.451323182               0.000000000              -0.356180678               0.475661591               0.000000000              -0.375000000               0.500000000               0.000000000              -0.062695766               0.117295528               0.000000000              -0.078308531               0.141214558               0.000000000              -0.093921295               0.165133587               0.000000000              -0.109534060               0.189052617               0.000000000              -0.125146824               0.212971646               0.000000000              -0.140759589               0.236890676               0.000000000              -0.156372354               0.260809705               0.000000000              -0.171985118               0.284728735               0.000000000              -0.187597883               0.308647764               0.000000000              -0.203210648               0.332566794               0.000000000              -0.218823412               0.356485823               0.000000000              -0.234436177               0.380404853               0.000000000              -0.250048941               0.404323882               0.000000000              -0.265661706               0.428242912               0.000000000              -0.281274471               0.452161941               0.000000000              -0.296887235               0.476080971               0.000000000              -0.312500000               0.500000000               0.000000000              -0.050896897               0.122875978               0.000000000              -0.063340840               0.146446229               0.000000000              -0.075784784               0.170016481               0.000000000              -0.088228728               0.193586732               0.000000000              -0.100672672               0.217156983               0.000000000              -0.113116616               0.240727235               0.000000000              -0.125560560               0.264297486               0.000000000              -0.138004504               0.287867738               0.000000000              -0.150448448               0.311437989               0.000000000              -0.162892392               0.335008240               0.000000000              -0.175336336               0.358578492               0.000000000              -0.187780280               0.382148743               0.000000000              -0.200224224               0.405718994               0.000000000              -0.212668168               0.429289246               0.000000000              -0.225112112               0.452859497               0.000000000              -0.237556056               0.476429749               0.000000000              -0.250000000               0.500000000               0.000000000              -0.038607862               0.127273065               0.000000000              -0.047913621               0.150568498               0.000000000              -0.057219379               0.173863932               0.000000000              -0.066525138               0.197159365               0.000000000              -0.075830897               0.220454798               0.000000000              -0.085136655               0.243750232               0.000000000              -0.094442414               0.267045665               0.000000000              -0.103748172               0.290341099               0.000000000              -0.113053931               0.313636532               0.000000000              -0.122359690               0.336931966               0.000000000              -0.131665448               0.360227399               0.000000000              -0.140971207               0.383522833               0.000000000              -0.150276966               0.406818266               0.000000000              -0.159582724               0.430113700               0.000000000              -0.168888483               0.453409133               0.000000000              -0.178194241               0.476704567               0.000000000              -0.187500000               0.500000000               0.000000000              -0.025947013               0.130444442               0.000000000              -0.032137825               0.153541665               0.000000000              -0.038328636               0.176638887               0.000000000              -0.044519448               0.199736109               0.000000000              -0.050710260               0.222833332               0.000000000              -0.056901071               0.245930554               0.000000000              -0.063091883               0.269027776               0.000000000              -0.069282695               0.292124999               0.000000000              -0.075473506               0.315222221               0.000000000              -0.081664318               0.338319444               0.000000000              -0.087855130               0.361416666               0.000000000              -0.094045942               0.384513888               0.000000000              -0.100236753               0.407611111               0.000000000              -0.106427565               0.430708333               0.000000000              -0.112618377               0.453805555               0.000000000              -0.118809188               0.476902778               0.000000000              -0.125000000               0.500000000               0.000000000              -0.013036280               0.132359569               0.000000000              -0.016127762               0.155337096               0.000000000              -0.019219245               0.178314623               0.000000000              -0.022310727               0.201292150               0.000000000              -0.025402210               0.224269676               0.000000000              -0.028493692               0.247247203               0.000000000              -0.031585175               0.270224730               0.000000000              -0.034676657               0.293202257               0.000000000              -0.037768140               0.316179784               0.000000000              -0.040859622               0.339157311               0.000000000              -0.043951105               0.362134838               0.000000000              -0.047042587               0.385112365               0.000000000              -0.050134070               0.408089892               0.000000000              -0.053225552               0.431067419               0.000000000              -0.056317035               0.454044946               0.000000000              -0.059408517               0.477022473               0.000000000              -0.062500000               0.500000000               0.000000000               0.000000000               0.133000000               0.000000000               0.000000000               0.155937500               0.000000000               0.000000000               0.178875000               0.000000000               0.000000000               0.201812500               0.000000000               0.000000000               0.224750000               0.000000000               0.000000000               0.247687500               0.000000000               0.000000000               0.270625000               0.000000000               0.000000000               0.293562500               0.000000000               0.000000000               0.316500000               0.000000000               0.000000000               0.339437500               0.000000000               0.000000000               0.362375000               0.000000000               0.000000000               0.385312500               0.000000000               0.000000000               0.408250000               0.000000000               0.000000000               0.431187500               0.000000000               0.000000000               0.454125000               0.000000000               0.000000000               0.477062500               0.000000000               0.000000000               0.500000000               0.000000000 </DataArray>
</Points>
<Cells>
<DataArray type="Int32"                                    Name="connectivity"                                                      NumberOfComponents=" 1" format="ascii">
         0          1         18         17          1          2         19         18          2          3         20         19          3          4         21         20          4          5         22         21          5          6         23         22          6          7         24         23          7          8         25         24          8          9         26         25          9         10         27         26         10         11         28         27         11         12         29         28         12         13         30         29         13         14         31         30         14         15         32         31         15         16         33         32         17         18         35         34         18         19         36         35         19         20         37         36         20         21         38         37         21         22         39         38         22         23         40         39         23         24         41         40         24         25         42         41         25         26         43         42         26         27         44         43         27         28         45         44         28         29         46         45         29         30         47         46         30         31         48         47         31         32         49         48         32         33         50         49         34         35         52         51         35         36         53         52         36         37         54         53         37         38         55         54         38         39         56         55         39         40         57         56         40         41         58         57         41         42         59         58         42         43         60         59         43         44         61         60         44         45         62         61         45         46         63         62         46         47         64         63         47         48         65         64         48         49         66         65         49         50         67         66         51         52         69         68         52         53         70         69         53         54         71         70         54         55         72         71         55         56         73         72         56         57         74         73         57         58         75         74         58         59         76         75         59         60         77         76         60         61         78         77         61         62         79         78         62         63         80         79         63         64         81         80         64         65         82         81         65         66         83         82         66         67         84         83         68         69         86         85         69         70         87         86         70         71         88         87         71         72         89         88         72         73         90         89         73         74         91         90         74         75         92         91         75         76         93         92         76         77         94         93         77         78         95         94         78         79         96         95         79         80         97         96         80         81         98         97         81         82         99         98         82         83        100         99         83         84        101        100         85         86        103        102         86         87        104        103         87         88        105        104         88         89        106        105         89         90        107        106         90         91        108        107         91         92        109        108         92         93        110        109         93         94        111        110         94         95        112        111         95         96        113        112         96         97        114        113         97         98        115        114         98         99        116        115         99        100        117        116        100        101        118        117        102        103        120        119        103        104        121        120        104        105        122        121        105        106        123        122        106        107        124        123        107        108        125        124        108        109        126        125        109        110        127        126        110        111        128        127        111        112        129        128        112        113        130        129        113        114        131        130        114        115        132        131        115        116        133        132        116        117        134        133        117        118        135        134        119        120        137        136        120        121        138        137        121        122        139        138        122        123        140        139        123        124        141        140        124        125        142        141        125        126        143        142        126        127        144        143        127        128        145        144        128        129        146        145        129        130        147        146        130        131        148        147        131        132        149        148        132        133        150        149        133        134        151        150        134        135        152        151        136        137        154        153        137        138        155        154        138        139        156        155        139        140        157        156        140        141        158        157        141        142        159        158        142        143        160        159        143        144        161        160        144        145        162        161        145        146        163        162        146        147        164        163        147        148        165        164        148        149        166        165        149        150        167        166        150        151        168        167        151        152        169        168        153        154        171        170        154        155        172        171        155        156        173        172        156        157        174        173        157        158        175        174        158        159        176        175        159        160        177        176        160        161        178        177        161        162        179        178        162        163        180        179        163        164        181        180        164        165        182        181        165        166        183        182        166        167        184        183        167        168        185        184        168        169        186        185        170        171        188        187        171        172        189        188        172        173        190        189        173        174        191        190        174        175        192        191        175        176        193        192        176        177        194        193        177        178        195        194        178        179        196        195        179        180        197        196        180        181        198        197        181        182        199        198        182        183        200        199        183        184        201        200        184        185        202        201        185        186        203        202        187        188        205        204        188        189        206        205        189        190        207        206        190        191        208        207        191        192        209        208        192        193        210        209        193        194        211        210        194        195        212        211        195        196        213        212        196        197        214        213        197        198        215        214        198        199        216        215        199        200        217        216        200        201        218        217        201        202        219        218        202        203        220        219        204        205        222        221        205        206        223        222        206        207        224        223        207        208        225        224        208        209        226        225        209        210        227        226        210        211        228        227        211        212        229        228        212        213        230        229        213        214        231        230        214        215        232        231        215        216        233        232        216        217        234        233        217        218        235        234        218        219        236        235        219        220        237        236        221        222        239        238        222        223        240        239        223        224        241        240        224        225        242        241        225        226        243        242        226        227        244        243        227        228        245        244        228        229        246        245        229        230        247        246        230        231        248        247        231        232        249        248        232        233        250        249        233        234        251        250        234        235        252        251        235        236        253        252        236        237        254        253        238        239        256        255        239        240        257        256        240        241        258        257        241        242        259        258        242        243        260        259        243        244        261        260        244        245        262        261        245        246        263        262        246        247        264        263        247        248        265        264        248        249        266        265        249        250        267        266        250        251        268        267        251        252        269        268        252        253        270        269        253        254        271        270        255        256        273        272        256        257        274        273        257        258        275        274        258        259        276        275        259        260        277        276        260        261        278        277        261        262        279        278        262        263        280        279        263        264        281        280        264        265        282        281        265        266        283        282        266        267        284        283        267        268        285        284        268        269        286        285        269        270        287        286        270        271        288        287        306        307          1          0        307        308          2          1        308        309          3          2        309        310          4          3        310        311          5          4        311        312          6          5        312        313          7          6        313        314          8          7        314        315          9          8        315        316         10          9        316        317         11         10        317        318         12         11        318        319         13         12        319        320         14         13        320        321         15         14        321        322         16         15        323        324        307        306        324        325        308        307        325        326        309        308        326        327        310        309        327        328        311        310        328        329        312        311        329        330        313        312        330        331        314        313        331        332        315        314        332        333        316        315        333        334        317        316        334        335        318        317        335        336        319        318        336        337        320        319        337        338        321        320        338        339        322        321        340        341        324        323        341        342        325        324        342        343        326        325        343        344        327        326        344        345        328        327        345        346        329        328        346        347        330        329        347        348        331        330        348        349        332        331        349        350        333        332        350        351        334        333        351        352        335        334        352        353        336        335        353        354        337        336        354        355        338        337        355        356        339        338        357        358        341        340        358        359        342        341        359        360        343        342        360        361        344        343        361        362        345        344        362        363        346        345        363        364        347        346        364        365        348        347        365        366        349        348        366        367        350        349        367        368        351        350        368        369        352        351        369        370        353        352        370        371        354        353        371        372        355        354        372        373        356        355        374        375        358        357        375        376        359        358        376        377        360        359        377        378        361        360        378        379        362        361        379        380        363        362        380        381        364        363        381        382        365        364        382        383        366        365        383        384        367        366        384        385        368        367        385        386        369        368        386        387        370        369        387        388        371        370        388        389        372        371        389        390        373        372        391        392        375        374        392        393        376        375        393        394        377        376        394        395        378        377        395        396        379        378        396        397        380        379        397        398        381        380        398        399        382        381        399        400        383        382        400        401        384        383        401        402        385        384        402        403        386        385        403        404        387        386        404        405        388        387        405        406        389        388        406        407        390        389        408        409        392        391        409        410        393        392        410        411        394        393        411        412        395        394        412        413        396        395        413        414        397        396        414        415        398        397        415        416        399        398        416        417        400        399        417        418        401        400        418        419        402        401        419        420        403        402        420        421        404        403        421        422        405        404        422        423        406        405        423        424        407        406        425        426        409        408        426        427        410        409        427        428        411        410        428        429        412        411        429        430        413        412        430        431        414        413        431        432        415        414        432        433        416        415        433        434        417        416        434        435        418        417        435        436        419        418        436        437        420        419        437        438        421        420        438        439        422        421        439        440        423        422        440        441        424        423        442        443        426        425        443        444        427        426        444        445        428        427        445        446        429        428        446        447        430        429        447        448        431        430        448        449        432        431        449        450        433        432        450        451        434        433        451        452        435        434        452        453        436        435        453        454        437        436        454        455        438        437        455        456        439        438        456        457        440        439        457        458        441        440        459        460        443        442        460        461        444        443        461        462        445        444        462        463        446        445        463        464        447        446        464        465        448        447        465        466        449        448        466        467        450        449        467        468        451        450        468        469        452        451        469        470        453        452        470        471        454        453        471        472        455        454        472        473        456        455        473        474        457        456        474        475        458        457        476        477        460        459        477        478        461        460        478        479        462        461        479        480        463        462        480        481        464        463        481        482        465        464        482        483        466        465        483        484        467        466        484        485        468        467        485        486        469        468        486        487        470        469        487        488        471        470        488        489        472        471        489        490        473        472        490        491        474        473        491        492        475        474        493        494        477        476        494        495        478        477        495        496        479        478        496        497        480        479        497        498        481        480        498        499        482        481        499        500        483        482        500        501        484        483        501        502        485        484        502        503        486        485        503        504        487        486        504        505        488        487        505        506        489        488        506        507        490        489        507        508        491        490        508        509        492        491        510        511        494        493        511        512        495        494        512        513        496        495        513        514        497        496        514        515        498        497        515        516        499        498        516        517        500        499        517        518        501        500        518        519        502        501        519        520        503        502        520        521        504        503        521        522        505        504        522        523        506        505        523        524        507        506        524        525        508        507        525        526        509        508        527        528        511        510        528        529        512        511        529        530        513        512        530        531        514        513        531        532        515        514        532        533        516        515        533        534        517        516        534        535        518        517        535        536        519        518        536        537        520        519        537        538        521        520        538        539        522        521        539        540        523        522        540        541        524        523        541        542        525        524        542        543        526        525        544        545        528        527        545        546        529        528        546        547        530        529        547        548        531        530        548        549        532        531        549        550        533        532        550        551        534        533        551        552        535        534        552        553        536        535        553        554        537        536        554        555        538        537        555        556        539        538        556        557        540        539        557        558        541        540        558        559        542        541        559        560        543        542        561        562        545        544        562        563        546        545        563        564        547        546        564        565        548        547        565        566        549        548        566        567        550        549        567        568        551        550        568        569        552        551        569        570        553        552        570        571        554        553        571        572        555        554        572        573        556        555        573        574        557        556        574        575        558        557        575        576        559        558        576        577        560        559        578        579        596        595        579        580        597        596        580        581        598        597        581        582        599        598        582        583        600        599        583        584        601        600        584        585        602        601        585        586        603        602        586        587        604        603        587        588        605        604        588        589        606        605        589        590        607        606        590        591        608        607        591        592        609        608        592        593        610        609        593        594        611        610        595        596        613        612        596        597        614        613        597        598        615        614        598        599        616        615        599        600        617        616        600        601        618        617        601        602        619        618        602        603        620        619        603        604        621        620        604        605        622        621        605        606        623        622        606        607        624        623        607        608        625        624        608        609        626        625        609        610        627        626        610        611        628        627        612        613        630        629        613        614        631        630        614        615        632        631        615        616        633        632        616        617        634        633        617        618        635        634        618        619        636        635        619        620        637        636        620        621        638        637        621        622        639        638        622        623        640        639        623        624        641        640        624        625        642        641        625        626        643        642        626        627        644        643        627        628        645        644        629        630        647        646        630        631        648        647        631        632        649        648        632        633        650        649        633        634        651        650        634        635        652        651        635        636        653        652        636        637        654        653        637        638        655        654        638        639        656        655        639        640        657        656        640        641        658        657        641        642        659        658        642        643        660        659        643        644        661        660        644        645        662        661        646        647        664        663        647        648        665        664        648        649        666        665        649        650        667        666        650        651        668        667        651        652        669        668        652        653        670        669        653        654        671        670        654        655        672        671        655        656        673        672        656        657        674        673        657        658        675        674        658        659        676        675        659        660        677        676        660        661        678        677        661        662        679        678        663        664        681        680        664        665        682        681        665        666        683        682        666        667        684        683        667        668        685        684        668        669        686        685        669        670        687        686        670        671        688        687        671        672        689        688        672        673        690        689        673        674        691        690        674        675        692        691        675        676        693        692        676        677        694        693        677        678        695        694        678        679        696        695        680        681        698        697        681        682        699        698        682        683        700        699        683        684        701        700        684        685        702        701        685        686        703        702        686        687        704        703        687        688        705        704        688        689        706        705        689        690        707        706        690        691        708        707        691        692        709        708        692        693        710        709        693        694        711        710        694        695        712        711        695        696        713        712        697        698        715        714        698        699        716        715        699        700        717        716        700        701        718        717        701        702        719        718        702        703        720        719        703        704        721        720        704        705        722        721        705        706        723        722        706        707        724        723        707        708        725        724        708        709        726        725        709        710        727        726        710        711        728        727        711        712        729        728        712        713        730        729        714        715        732        731        715        716        733        732        716        717        734        733        717        718        735        734        718        719        736        735        719        720        737        736        720        721        738        737        721        722        739        738        722        723        740        739        723        724        741        740        724        725        742        741        725        726        743        742        726        727        744        743        727        728        745        744        728        729        746        745        729        730        747        746        731        732        749        748        732        733        750        749        733        734        751        750        734        735        752        751        735        736        753        752        736        737        754        753        737        738        755        754        738        739        756        755        739        740        757        756        740        741        758        757        741        742        759        758        742        743        760        759        743        744        761        760        744        745        762        761        745        746        763        762        746        747        764        763        748        749        766        765        749        750        767        766        750        751        768        767        751        752        769        768        752        753        770        769        753        754        771        770        754        755        772        771        755        756        773        772        756        757        774        773        757        758        775        774        758        759        776        775        759        760        777        776        760        761        778        777        761        762        779        778        762        763        780        779        763        764        781        780        765        766        783        782        766        767        784        783        767        768        785        784        768        769        786        785        769        770        787        786        770        771        788        787        771        772        789        788        772        773        790        789        773        774        791        790        774        775        792        791        775        776        793        792        776        777        794        793        777        778        795        794        778        779        796        795        779        780        797        796        780        781        798        797        782        783        800        799        783        784        801        800        784        785        802        801        785        786        803        802        786        787        804        803        787        788        805        804        788        789        806        805        789        790        807        806        790        791        808        807        791        792        809        808        792        793        810        809        793        794        811        810        794        795        812        811        795        796        813        812        796        797        814        813        797        798        815        814        799        800        817        816        800        801        818        817        801        802        819        818        802        803        820        819        803        804        821        820        804        805        822        821        805        806        823        822        806        807        824        823        807        808        825        824        808        809        826        825        809        810        827        826        810        811        828        827        811        812        829        828        812        813        830        829        813        814        831        830        814        815        832        831        816        817        834        833        817        818        835        834        818        819        836        835        819        820        837        836        820        821        838        837        821        822        839        838        822        823        840        839        823        824        841        840        824        825        842        841        825        826        843        842        826        827        844        843        827        828        845        844        828        829        846        845        829        830        847        846        830        831        848        847        831        832        849        848        833        834        562        561        834        835        563        562        835        836        564        563        836        837        565        564        837        838        566        565        838        839        567        566        839        840        568        567        840        841        569        568        841        842        570        569        842        843        571        570        843        844        572        571        844        845        573        572        845        846        574        573        846        847        575        574        847        848        576        575        848        849        577        576        884        885        579        578        885        886        580        579        886        887        581        580        887        888        582        581        888        889        583        582        889        890        584        583        890        891        585        584        891        892        586        585        892        893        587        586        893        894        588        587        894        895        589        588        895        896        590        589        896        897        591        590        897        898        592        591        898        899        593        592        899        900        594        593        901        902        885        884        902        903        886        885        903        904        887        886        904        905        888        887        905        906        889        888        906        907        890        889        907        908        891        890        908        909        892        891        909        910        893        892        910        911        894        893        911        912        895        894        912        913        896        895        913        914        897        896        914        915        898        897        915        916        899        898        916        917        900        899        918        919        902        901        919        920        903        902        920        921        904        903        921        922        905        904        922        923        906        905        923        924        907        906        924        925        908        907        925        926        909        908        926        927        910        909        927        928        911        910        928        929        912        911        929        930        913        912        930        931        914        913        931        932        915        914        932        933        916        915        933        934        917        916        935        936        919        918        936        937        920        919        937        938        921        920        938        939        922        921        939        940        923        922        940        941        924        923        941        942        925        924        942        943        926        925        943        944        927        926        944        945        928        927        945        946        929        928        946        947        930        929        947        948        931        930        948        949        932        931        949        950        933        932        950        951        934        933        952        953        936        935        953        954        937        936        954        955        938        937        955        956        939        938        956        957        940        939        957        958        941        940        958        959        942        941        959        960        943        942        960        961        944        943        961        962        945        944        962        963        946        945        963        964        947        946        964        965        948        947        965        966        949        948        966        967        950        949        967        968        951        950        969        970        953        952        970        971        954        953        971        972        955        954        972        973        956        955        973        974        957        956        974        975        958        957        975        976        959        958        976        977        960        959        977        978        961        960        978        979        962        961        979        980        963        962        980        981        964        963        981        982        965        964        982        983        966        965        983        984        967        966        984        985        968        967        986        987        970        969        987        988        971        970        988        989        972        971        989        990        973        972        990        991        974        973        991        992        975        974        992        993        976        975        993        994        977        976        994        995        978        977        995        996        979        978        996        997        980        979        997        998        981        980        998        999        982        981        999       1000        983        982       1000       1001        984        983       1001       1002        985        984       1003       1004        987        986       1004       1005        988        987       1005       1006        989        988       1006       1007        990        989       1007       1008        991        990       1008       1009        992        991       1009       1010        993        992       1010       1011        994        993       1011       1012        995        994       1012       1013        996        995       1013       1014        997        996       1014       1015        998        997       1015       1016        999        998       1016       1017       1000        999       1017       1018       1001       1000       1018       1019       1002       1001       1020       1021       1004       1003       1021       1022       1005       1004       1022       1023       1006       1005       1023       1024       1007       1006       1024       1025       1008       1007       1025       1026       1009       1008       1026       1027       1010       1009       1027       1028       1011       1010       1028       1029       1012       1011       1029       1030       1013       1012       1030       1031       1014       1013       1031       1032       1015       1014       1032       1033       1016       1015       1033       1034       1017       1016       1034       1035       1018       1017       1035       1036       1019       1018       1037       1038       1021       1020       1038       1039       1022       1021       1039       1040       1023       1022       1040       1041       1024       1023       1041       1042       1025       1024       1042       1043       1026       1025       1043       1044       1027       1026       1044       1045       1028       1027       1045       1046       1029       1028       1046       1047       1030       1029       1047       1048       1031       1030       1048       1049       1032       1031       1049       1050       1033       1032       1050       1051       1034       1033       1051       1052       1035       1034       1052       1053       1036       1035       1054       1055       1038       1037       1055       1056       1039       1038       1056       1057       1040       1039       1057       1058       1041       1040       1058       1059       1042       1041       1059       1060       1043       1042       1060       1061       1044       1043       1061       1062       1045       1044       1062       1063       1046       1045       1063       1064       1047       1046       1064       1065       1048       1047       1065       1066       1049       1048       1066       1067       1050       1049       1067       1068       1051       1050       1068       1069       1052       1051       1069       1070       1053       1052       1071       1072       1055       1054       1072       1073       1056       1055       1073       1074       1057       1056       1074       1075       1058       1057       1075       1076       1059       1058       1076       1077       1060       1059       1077       1078       1061       1060       1078       1079       1062       1061       1079       1080       1063       1062       1080       1081       1064       1063       1081       1082       1065       1064       1082       1083       1066       1065       1083       1084       1067       1066       1084       1085       1068       1067       1085       1086       1069       1068       1086       1087       1070       1069       1088       1089       1072       1071       1089       1090       1073       1072       1090       1091       1074       1073       1091       1092       1075       1074       1092       1093       1076       1075       1093       1094       1077       1076       1094       1095       1078       1077       1095       1096       1079       1078       1096       1097       1080       1079       1097       1098       1081       1080       1098       1099       1082       1081       1099       1100       1083       1082       1100       1101       1084       1083       1101       1102       1085       1084       1102       1103       1086       1085       1103       1104       1087       1086       1105       1106       1089       1088       1106       1107       1090       1089       1107       1108       1091       1090       1108       1109       1092       1091       1109       1110       1093       1092       1110       1111       1094       1093       1111       1112       1095       1094       1112       1113       1096       1095       1113       1114       1097       1096       1114       1115       1098       1097       1115       1116       1099       1098       1116       1117       1100       1099       1117       1118       1101       1100       1118       1119       1102       1101       1119       1120       1103       1102       1120       1121       1104       1103       1122       1123       1106       1105       1123       1124       1107       1106       1124       1125       1108       1107       1125       1126       1109       1108       1126       1127       1110       1109       1127       1128       1111       1110       1128       1129       1112       1111       1129       1130       1113       1112       1130       1131       1114       1113       1131       1132       1115       1114       1132       1133       1116       1115       1133       1134       1117       1116       1134       1135       1118       1117       1135       1136       1119       1118       1136       1137       1120       1119       1137       1138       1121       1120        272        273       1123       1122        273        274       1124       1123        274        275       1125       1124        275        276       1126       1125        276        277       1127       1126        277        278       1128       1127        278        279       1129       1128        279        280       1130       1129        280        281       1131       1130        281        282       1132       1131        282        283       1133       1132        283        284       1134       1133        284        285       1135       1134        285        286       1136       1135        286        287       1137       1136        287        288       1138       1137 </DataArray>
<DataArray type="Int32"                                    Name="offsets"                                                      NumberOfComponents=" 1" format="ascii">
         4          8         12         16         20         24         28         32         36         40         44         48         52         56         60         64         68         72         76         80         84         88         92         96        100        104        108        112        116        120        124        128        132        136        140        144        148        152        156        160        164        168        172        176        180        184        188        192        196        200        204        208        212        216        220        224        228        232        236        240        244        248        252        256        260        264        268        272        276        280        284        288        292        296        300        304        308        312        316        320        324        328        332        336        340        344        348        352        356        360        364        368        372        376        380        384        388        392        396        400        404        408        412        416        420        424        428        432        436        440        444        448        452        456        460        464        468        472        476        480        484        488        492        496        500        504        508        512        516        520        524        528        532        536        540        544        548        552        556        560        564        568        572        576        580        584        588        592        596        600        604        608        612        616        620        624        628        632        636        640        644        648        652        656        660        664        668        672        676        680        684        688        692        696        700        704        708        712        716        720        724        728        732        736        740        744        748        752        756        760        764        768        772        776        780        784        788        792        796        800        804        808        812        816        820        824        828        832        836        840        844        848        852        856        860        864        868        872        876        880        884        888        892        896        900        904        908        912        916        920        924        928        932        936        940        944        948        952        956        960        964        968        972        976        980        984        988        992        996       1000       1004       1008       1012       1016       1020       1024       1028       1032       1036       1040       1044       1048       1052       1056       1060       1064       1068       1072       1076       1080       1084       1088       1092       1096       1100       1104       1108       1112       1116       1120       1124       1128       1132       1136       1140       1144       1148       1152       1156       1160       1164       1168       1172       1176       1180       1184       1188       1192       1196       1200       1204       1208       1212       1216       1220       1224       1228       1232       1236       1240       1244       1248       1252       1256       1260       1264       1268       1272       1276       1280       1284       1288       1292       1296       1300       1304       1308       1312       1316       1320       1324       1328       1332       1336       1340       1344       1348       1352       1356       1360       1364       1368       1372       1376       1380       1384       1388       1392       1396       1400       1404       1408       1412       1416       1420       1424       1428       1432       1436       1440       1444       1448       1452       1456       1460       1464       1468       1472       1476       1480       1484       1488       1492       1496       1500       1504       1508       1512       1516       1520       1524       1528       1532       1536       1540       1544       1548       1552       1556       1560       1564       1568       1572       1576       1580       1584       1588       1592       1596       1600       1604       1608       1612       1616       1620       1624       1628       1632       1636       1640       1644       1648       1652       1656       1660       1664       1668       1672       1676       1680       1684       1688       1692       1696       1700       1704       1708       1712       1716       1720       1724       1728       1732       1736       1740       1744       1748       1752       1756       1760       1764       1768       1772       1776       1780       1784       1788       1792       1796       1800       1804       1808       1812       1816       1820       1824       1828       1832       1836       1840       1844       1848       1852       1856       1860       1864       1868       1872       1876       1880       1884       1888       1892       1896       1900       1904       1908       1912       1916       1920       1924       1928       1932       1936       1940       1944       1948       1952       1956       1960       1964       1968       1972       1976       1980       1984       1988       1992       1996       2000       2004       2008       2012       2016       2020       2024       2028       2032       2036       2040       2044       2048       2052       2056       2060       2064       2068       2072       2076       2080       2084       2088       2092       2096       2100       2104       2108       2112       2116       2120       2124       2128       2132       2136       2140       2144       2148       2152       2156       2160       2164       2168       2172       2176       2180       2184       2188       2192       2196       2200       2204       2208       2212       2216       2220       2224       2228       2232       2236       2240       2244       2248       2252       2256       2260       2264       2268       2272       2276       2280       2284       2288       2292       2296       2300       2304       2308       2312       2316       2320       2324       2328       2332       2336       2340       2344       2348       2352       2356       2360       2364       2368       2372       2376       2380       2384       2388       2392       2396       2400       2404       2408       2412       2416       2420       2424       2428       2432       2436       2440       2444       2448       2452       2456       2460       2464       2468       2472       2476       2480       2484       2488       2492       2496       2500       2504       2508       2512       2516       2520       2524       2528       2532       2536       2540       2544       2548       2552       2556       2560       2564       2568       2572       2576       2580       2584       2588       2592       2596       2600       2604       2608       2612       2616       2620       2624       2628       2632       2636       2640       2644       2648       2652       2656       2660       2664       2668       2672       2676       2680       2684       2688       2692       2696       2700       2704       2708       2712       2716       2720       2724       2728       2732       2736       2740       2744       2748       2752       2756       2760       2764       2768       2772       2776       2780       2784       2788       2792       2796       2800       2804       2808       2812       2816       2820       2824       2828       2832       2836       2840       2844       2848       2852       2856       2860       2864       2868       2872       2876       2880       2884       2888       2892       2896       2900       2904       2908       2912       2916       2920       2924       2928       2932       2936       2940       2944       2948       2952       2956       2960       2964       2968       2972       2976       2980       2984       2988       2992       2996       3000       3004       3008       3012       3016       3020       3024       3028       3032       3036       3040       3044       3048       3052       3056       3060       3064       3068       3072       3076       3080       3084       3088       3092       3096       3100       3104       3108       3112       3116       3120       3124       3128       3132       3136       3140       3144       3148       3152       3156       3160       3164       3168       3172       3176       3180       3184       3188       3192       3196       3200       3204       3208       3212       3216       3220       3224       3228       3232       3236       3240       3244       3248       3252       3256       3260       3264       3268       3272       3276       3280       3284       3288       3292       3296       3300       3304       3308       3312       3316       3320       3324       3328       3332       3336       3340       3344       3348       3352       3356       3360       3364       3368       3372       3376       3380       3384       3388       3392       3396       3400       3404       3408       3412       3416       3420       3424       3428       3432       3436       3440       3444       3448       3452       3456       3460       3464       3468       3472       3476       3480       3484       3488       3492       3496       3500       3504       3508       3512       3516       3520       3524       3528       3532       3536       3540       3544       3548       3552       3556       3560       3564       3568       3572       3576       3580       3584       3588       3592       3596       3600       3604       3608       3612       3616       3620       3624       3628       3632       3636       3640       3644       3648       3652       3656       3660       3664       3668       3672       3676       3680       3684       3688       3692       3696       3700       3704       3708       3712       3716       3720       3724       3728       3732       3736       3740       3744       3748       3752       3756       3760       3764       3768       3772       3776       3780       3784       3788       3792       3796       3800       3804       3808       3812       3816       3820       3824       3828       3832       3836       3840       3844       3848       3852       3856       3860       3864       3868       3872       3876       3880       3884       3888       3892       3896       3900       3904       3908       3912       3916       3920       3924       3928       3932       3936       3940       3944       3948       3952       3956       3960       3964       3968       3972       3976       3980       3984       3988       3992       3996       4000       4004       4008       4012       4016       4020       4024       4028       4032       4036       4040       4044       4048       4052       4056       4060       4064       4068       4072       4076       4080       4084       4088       4092       4096 </DataArray>
<DataArray type="UInt8"                                    Name="types"                                                      NumberOfComponents=" 1" format="ascii">
         9          9          9          9          9          9          9          9          9          9          9          9          9          9          9          9          9          9          9          9          9          9          9          9          9          9          9          9          9          9          9          9          9          9          9          9          9          9          9          9          9          9          9          9          9          9          9          9          9          9          9          9          9          9          9          9          9          9          9          9          9          9          9          9          9          9          9          9          9          9          9          9          9          9          9          9          9          9          9          9          9          9          9          9          9          9          9          9          9          9          9          9          9          9          9          9          9          9          9          9          9          9          9          9          9          9          9          9          9          9          9          9          9          9          9          9          9          9          9          9          9          9          9          9          9          9          9          9          9          9          9          9          9          9          9          9          9          9          9          9          9          9          9          9          9          9          9          9          9          9          9          9          9          9          9          9          9          9          9          9          9          9          9          9          9          9          9          9          9          9          9          9          9          9          9          9          9          9          9          9          9          9          9          9          9          9          9          9          9          9          9          9          9          9          9          9          9          9          9          9          9          9          9          9          9          9          9          9          9          9          9          9          9          9          9          9          9          9          9          9          9          9          9          9          9          9          9          9          9          9          9          9          9          9          9          9          9          9          9          9          9          9          9          9          9          9          9          9          9          9          9          9          9          9          9          9          9          9          9          9          9          9          9          9          9          9          9          9          9          9          9          9          9          9          9          9          9          9          9          9          9          9          9          9          9          9          9          9          9          9          9          9          9          9          9          9          9          9          9          9          9          9          9          9          9          9          9          9          9          9          9          9          9          9          9          9          9          9          9          9          9          9          9          9          9          9          9          9          9          9          9          9          9          9          9          9          9          9          9          9          9          9          9          9          9          9          9          9          9          9          9          9          9          9          9          9          9          9          9          9          9          9          9          9          9          9          9          9          9          9          9          9          9          9          9          9          9          9          9          9          9          9          9          9          9          9          9          9          9          9          9          9          9          9          9          9          9          9          9          9          9          9          9          9          9          9          9          9          9          9          9          9          9          9          9          9          9          9          9          9          9          9          9          9          9          9          9          9          9          9          9          9          9          9          9          9          9          9          9          9          9          9          9          9          9          9          9          9          9          9          9          9          9          9          9          9          9          9          9          9          9          9          9          9          9          9          9          9          9          9          9          9          9          9          9          9          9          9          9          9          9          9          9          9          9          9          9          9          9          9          9          9          9          9          9          9          9          9          9          9          9          9          9          9          9          9          9          9          9          9          9          9          9          9          9          9          9          9          9          9          9          9          9          9          9          9          9          9          9          9          9          9          9          9          9          9          9          9          9          9          9          9          9          9          9          9          9          9          9          9          9          9          9          9          9          9          9          9          9          9          9          9          9          9          9          9          9          9          9          9          9          9          9          9          9          9          9          9          9          9          9          9          9          9          9          9          9          9          9          9          9          9          9          9          9          9          9          9          9          9          9          9          9          9          9          9          9          9          9          9          9          9          9          9          9          9          9          9          9          9          9          9          9          9          9          9          9          9          9          9          9          9          9          9          9          9          9          9          9          9          9          9          9          9          9          9          9          9          9          9          9          9          9          9          9          9          9          9          9          9          9          9          9          9          9          9          9          9          9          9          9          9          9          9          9          9          9          9          9          9          9          9          9          9          9          9          9          9          9          9          9          9          9          9          9          9          9          9          9          9          9          9          9          9          9          9          9          9          9          9          9          9          9          9          9          9          9          9          9          9          9          9          9          9          9          9          9          9          9          9          9          9          9          9          9          9          9          9          9          9          9          9          9          9          9          9          9          9          9          9          9          9          9          9          9          9          9          9          9          9          9          9          9          9          9          9          9          9          9          9          9          9          9          9          9          9          9          9          9          9          9          9          9          9          9          9          9          9          9          9          9          9          9          9          9          9          9          9          9          9          9          9          9          9          9          9          9          9          9          9          9          9          9          9          9          9          9          9          9          9          9          9          9          9          9          9          9          9          9          9          9          9          9          9          9          9          9          9          9          9          9          9          9          9          9          9          9          9          9          9          9          9          9          9          9          9          9          9          9          9          9          9          9          9          9          9          9          9          9          9          9          9          9          9          9          9          9          9          9          9          9          9          9          9          9          9          9          9          9          9          9          9          9          9          9          9          9          9          9          9          9          9          9          9          9          9          9          9          9          9          9          9          9          9          9          9          9          9          9          9          9          9          9          9          9          9          9          9          9          9          9          9          9          9          9          9          9          9          9          9          9          9          9          9          9          9          9          9          9          9          9          9          9          9          9          9          9          9          9          9          9          9          9          9          9          9          9          9          9          9          9          9          9          9          9          9          9          9          9          9          9          9          9          9          9          9          9          9          9          9          9          9          9          9          9          9          9          9          9          9          9          9          9          9          9          9          9          9          9          9          9          9          9          9          9          9          9          9          9          9          9          9          9          9 </DataArray>
</Cells>
<CellData>
<DataArray type="Int32"                                    Name="material"                                                      NumberOfComponents=" 1" format="ascii">
         1          1          1          1          1          1          1          1          1          1          1          1          1          1          1          1          1          1          1          1          1          1          1          1          1          1          1          1          1          1          1          1          1          1          1          1          1          1          1          1          1          1          1          1          1          1          1          1          1          1          1          1          1          1          1          1          1          1          1          1          1          1          1          1          1          1          1          1          1          1          1          1          1          1          1          1          1          1          1          1          1          1          1          1          1          1          1          1          1          1          1          1          1          1          1          1          1          1          1          1          1          1          1          1          1          1          1          1          1          1          1          1          1          1          1          1          1          1          1          1          1          1          1          1          1          1          1          1          1          1          1          1          1          1          1          1          1          1          1          1          1          1          1          1          1          1          1          1          1          1          1          1          1          1          1          1          1          1          1          1          1          1          1          1          1          1          1          1          1          1          1          1          1          1          1          1          1          1          1          1          1          1          1          1          1          1          1          1          1          1          1          1          1          1          1          1          1          1          1          1          1          1          1          1          1          1          1          1          1          1          1          1          1          1          1          1          1          1          1          1          1          1          1          1          1          1          1          1          1          1          1          1          1          1          1          1          1          1          1          1          1          1          1          1          1          1          1          1          1          1          1          1          1          1          1          1          1          1          1          1          1          1          1          1          1          1          1          1          1          1          1          1          1          1          1          1          1          1          1          1          1          1          1          1          1          1          1          1          1          1          1          1          1          1          1          1          1          1          1          1          1          1          1          1          1          1          1          1          1          1          1          1          1          1          1          1          1          1          1          1          1          1          1          1          1          1          1          1          1          1          1          1          1          1          1          1          1          1          1          1          1          1          1          1          1          1          1          1          1          1          1          1          1          1          1          1          1          1          1          1          1          1          1          1          1          1          1          1          1          1          1          1          1          1          1          1          1          1          1          1          1          1          1          1          1          1          1          1          1          1          1          1          1          1          1          1          1          1          1          1          1          1          1          1          1          1          1          1          1          1          1          1          1          1          1          1          1          1          1          1          1          1          1          1          1          1          1          1          1          1          1          1          1          1          1          1          1          1          1          1          1          1          1          1          1          1          1          1          1          1          1          1          1          1          1          1          1          1          1          1          1          1          1          1          1          1          1          1          1          1          1          1          1          1          1          1          1          1          1          1          1          1          1          1          1          1          1          1          1          1          1          1          1          1          1          1          1          1          1          1          1          1          1          1          1          1          1          1          1          1          1          1          1          1          1          1          1          1          1          1          1          1          1          1          1          1          1          1          1          1          1          1          1          1          1          1          1          1          1          1          1          1          1          1          1          1          1          1          1          1          1          1          1          1          1          1          1          1          1          1          1          1          1          1          1          1          1          1          1          1          1          1          1          1          1          1          1          1          1          1          1          1          1          1          1          1          1          1          1          1          1          1          1          1          1          1          1          1          1          1          1          1          1          1          1          1          1          1          1          1          1          1          1          1          1          1          1          1          1          1          1          1          1          1          1          1          1          1          1          1          1          1          1          1          1          1          1          1          1          1          1          1          1          1          1          1          1          1          1          1          1          1          1          1          1          1          1          1          1          1          1          1          1          1          1          1          1          1          1          1          1          1          1          1          1          1          1          1          1          1          1          1          1          1          1          1          1          1          1          1          1          1          1          1          1          1          1          1          1          1          1          1          1          1          1          1          1          1          1          1          1          1          1          1          1          1          1          1          1          1          1          1          1          1          1          1          1          1          1          1          1          1          1          1          1          1          1          1          1          1          1          1          1          1          1          1          1          1          1          1          1          1          1          1          1          1          1          1          1          1          1          1          1          1          1          1          1          1          1          1          1          1          1          1          1          1          1          1          1          1          1          1          1          1          1          1          1          1          1          1          1          1          1          1          1          1          1          1          1          1          1          1          1          1          1          1          1          1          1          1          1          1          1          1          1          1          1          1          1          1          1          1          1          1          1          1          1          1          1          1          1          1          1          1          1          1          1          1          1          1          1          1          1          1          1          1          1          1          1          1          1          1          1          1          1          1          1          1          1          1          1          1          1          1          1          1          1          1          1          1          1          1          1          1          1          1          1          1          1          1          1          1          1          1          1          1          1          1          1          1          1          1          1          1          1          1          1          1          1          1          1          1          1          1          1          1          1          1          1          1          1          1          1          1          1          1          1          1          1          1          1          1          1          1          1          1          1          1          1          1          1          1          1          1          1          1          1          1          1          1          1          1          1          1          1          1          1          1          1          1          1          1          1          1          1          1          1          1          1          1          1          1          1          1          1          1          1          1          1          1          1          1          1          1          1          1          1          1          1          1          1          1          1          1          1          1          1          1          1          1          1          1          1          1          1          1          1          1          1          1          1          1          1          1          1          1          1          1          1          1          1          1          1          1          1          1          1          1          1          1          1          1          1          1 </DataArray>
</CellData>
<PointData>
<DataArray type="Float64"                                    Name="u"                                                      NumberOfComponents=" 3" format="ascii">
             -0.000516879              -0.000000000               0.999999984              -0.000561190               0.000000000               0.999999984              -0.000581193              -0.000000000               0.999999984              -0.000592789              -0.000000000               0.999999984              -0.000601928              -0.000000000               0.999999984              -0.000611066              -0.000000000               0.999999984              -0.000621081               0.000000000               0.999999984              -0.000632192               0.000000000               0.999999984              -0.000644412               0.000000000               0.999999984              -0.000657618               0.000000000               0.999999984              -0.000671647              -0.000000000               0.999999984              -0.000686202              -0.000000000               0.999999984              -0.000701079              -0.000000000               0.999999984              -0.000715976               0.000000000               0.999999984              -0.000730701               0.000000000               0.999999984              -0.000744886               0.000000000               0.999999984              -0.000757879               0.000000000               0.999999984              -0.000513939               0.000113269               0.999999984              -0.000555195               0.000093894               0.999999984              -0.000573319               0.000086079               0.999999984              -0.000583803               0.000084113               0.999999984              -0.000592265               0.000085203               0.999999984              -0.000600928               0.000088147               0.999999984              -0.000610546               0.000091890               0.999999984              -0.000621275               0.000095962               0.999999984              -0.000633060               0.000100158               0.999999984              -0.000645723               0.000104021               0.999999984              -0.000659011               0.000107353               0.999999984              -0.000672641               0.000109874               0.999999984              -0.000686366               0.000111388               0.999999984              -0.000699966               0.000111762               0.999999984              -0.000713301               0.000110530               0.999999984              -0.000726014               0.000106820               0.999999984              -0.000737652               0.000099716               0.999999984              -0.000505305               0.000225379               0.999999984              -0.000537717               0.000187100               0.999999984              -0.000550551               0.000172458               0.999999984              -0.000557967               0.000169351               0.999999984              -0.000564621               0.000172213               0.999999984              -0.000572066               0.000178326               0.999999984              -0.000580708               0.000186020               0.999999984              -0.000590383               0.000194384               0.999999984              -0.000600915               0.000202682               0.999999984              -0.000612041               0.000210315               0.999999984              -0.000623413               0.000216913               0.999999984              -0.000634810               0.000222102               0.999999984              -0.000645977               0.000225480               0.999999984              -0.000656719               0.000226664               0.999999984              -0.000666786               0.000225010               0.999999984              -0.000675979               0.000219444               0.999999984              -0.000684317               0.000209119               0.999999984              -0.000491069               0.000335221               0.999999984              -0.000509571               0.000279128               0.999999984              -0.000514862               0.000259348               0.999999984              -0.000518203               0.000256472               0.999999984              -0.000522636               0.000261993               0.999999984              -0.000528703               0.000271875               0.999999984              -0.000536121               0.000283771               0.999999984              -0.000544408               0.000296399               0.999999984              -0.000553307               0.000308864               0.999999984              -0.000562375               0.000320211               0.999999984              -0.000571236               0.000329958               0.999999984              -0.000579558               0.000337750               0.999999984              -0.000587165               0.000343325               0.999999984              -0.000593890               0.000346247               0.999999984              -0.000599739               0.000345894               0.999999984              -0.000604841               0.000341535               0.999999984              -0.000609344               0.000332936               0.999999984              -0.000471515               0.000441652               0.999999984              -0.000472263               0.000369666               0.999999984              -0.000469161               0.000346806               0.999999984              -0.000468579               0.000345641               0.999999984              -0.000471166               0.000354771               0.999999984              -0.000476149               0.000368834               0.999999984              -0.000482588               0.000385041               0.999999984              -0.000489782               0.000401819               0.999999984              -0.000497020               0.000418180               0.999999984              -0.000503803               0.000433012               0.999999984              -0.000509811               0.000445920               0.999999984              -0.000514892               0.000456653               0.999999984              -0.000518792               0.000464986               0.999999984              -0.000521561               0.000470640               0.999999984              -0.000523370               0.000473364               0.999999984              -0.000524441               0.000473091               0.999999984              -0.000525178               0.000470004               0.999999984              -0.000447061               0.000543586               0.999999984              -0.000427825               0.000458489               0.999999984              -0.000416978               0.000434605               0.999999984              -0.000413695               0.000436313               0.999999984              -0.000415453               0.000449580               0.999999984              -0.000420127               0.000468074               0.999999984              -0.000426138               0.000488553               0.999999984              -0.000432279               0.000509397               0.999999984              -0.000437833               0.000529377               0.999999984              -0.000442475               0.000547618               0.999999984              -0.000445782               0.000563764               0.999999984              -0.000447650               0.000577613               0.999999984              -0.000447998               0.000588859               0.999999984              -0.000446981               0.000597754               0.999999984              -0.000444904               0.000604526               0.999999984              -0.000442070               0.000609170               0.999999984              -0.000438518               0.000611837               0.999999984              -0.000418194               0.000639955               0.999999984              -0.000378582               0.000545449               0.999999984              -0.000362061               0.000522181               0.999999984              -0.000357948               0.000527318               0.999999984              -0.000360143               0.000544856               0.999999984              -0.000365239               0.000567862               0.999999984              -0.000370991               0.000592489               0.999999984              -0.000376224               0.000617172               0.999999984              -0.000380249               0.000640747               0.999999984              -0.000382495               0.000662383               0.999999984              -0.000382801               0.000681568               0.999999984              -0.000381160               0.000698127               0.999999984              -0.000377682               0.000712193               0.999999984              -0.000372691               0.000724304               0.999999984              -0.000366332               0.000734737               0.999999984              -0.000358652               0.000743454               0.999999984              -0.000349603               0.000750051               0.999999984              -0.000385605               0.000729664               0.999999984              -0.000327139               0.000630212               0.999999984              -0.000307683               0.000608759               0.999999984              -0.000304752               0.000617358               0.999999984              -0.000308475               0.000638916               0.999999984              -0.000314347               0.000666100               0.999999984              -0.000320003               0.000694777               0.999999984              -0.000324217               0.000723388               0.999999984              -0.000326191               0.000750484               0.999999984              -0.000325695               0.000774847               0.999999984              -0.000322552               0.000796250               0.999999984              -0.000316800               0.000814942               0.999999984              -0.000308738               0.000831404               0.999999984              -0.000298577               0.000846373               0.999999984              -0.000286557               0.000859903               0.999999984              -0.000272782               0.000871640               0.999999984              -0.000257433               0.000881085               0.999999984              -0.000350561               0.000811195               0.999999984              -0.000275392               0.000712653               0.999999984              -0.000256695               0.000693290               0.999999984              -0.000256339               0.000704970               0.999999984              -0.000262108               0.000730263               0.999999984              -0.000268883               0.000761332               0.999999984              -0.000274214               0.000794174               0.999999984              -0.000276937               0.000826354               0.999999984              -0.000276460               0.000856084               0.999999984              -0.000272319               0.000882584               0.999999984              -0.000264475               0.000905721               0.999999984              -0.000253226               0.000926301               0.999999984              -0.000239190               0.000945041               0.999999984              -0.000222955               0.000962312               0.999999984              -0.000204886               0.000978138               0.999999984              -0.000185279               0.000992234               0.999999984              -0.000164914               0.001004792               0.999999984              -0.000314848               0.000887711               0.999999984              -0.000232874               0.000802477               0.999999984              -0.000211123               0.000778392               0.999999984              -0.000209411               0.000784202               0.999999984              -0.000214538               0.000804627               0.999999984              -0.000221193               0.000832465               0.999999984              -0.000226994               0.000863756               0.999999984              -0.000230483               0.000895652               0.999999984              -0.000231026               0.000926527               0.999999984              -0.000228275               0.000954935               0.999999984              -0.000221618               0.000980468               0.999999984              -0.000211045               0.001003308               0.999999984              -0.000197096               0.001024046               0.999999984              -0.000180610               0.001043374               0.999999984              -0.000162382               0.001061512               0.999999984              -0.000142670               0.001078696               0.999999984              -0.000122366               0.001094556               0.999999984              -0.000275753               0.000956918               0.999999984              -0.000193191               0.000888693               0.999999984              -0.000168462               0.000865015               0.999999984              -0.000164635               0.000866932               0.999999984              -0.000168468               0.000883431               0.999999984              -0.000174430               0.000908281               0.999999984              -0.000180125               0.000937892               0.999999984              -0.000184103               0.000969237               0.999999984              -0.000185562               0.001000677               0.999999984              -0.000183855               0.001030890               0.999999984              -0.000178460               0.001058983               0.999999984              -0.000168951               0.001084525               0.999999984              -0.000155580               0.001107587               0.999999984              -0.000138799               0.001128805               0.999999984              -0.000119480               0.001148755               0.999999984              -0.000098353               0.001167994               0.999999984              -0.000076075               0.001186591               0.999999984              -0.000234033               0.001017374               0.999999984              -0.000156163               0.000968935               0.999999984              -0.000129890               0.000949361               0.999999984              -0.000123799               0.000950112               0.999999984              -0.000125789               0.000964193               0.999999984              -0.000130599               0.000986877               0.999999984              -0.000135617               0.001014932               0.999999984              -0.000139497               0.001045845               0.999999984              -0.000141475               0.001077778               0.999999984              -0.000140584               0.001109366               0.999999984              -0.000136381               0.001139927               0.999999984              -0.000128226               0.001168544               0.999999984              -0.000115858               0.001194927               0.999999984              -0.000099398               0.001219063               0.999999984              -0.000079169               0.001241483               0.999999984              -0.000055632               0.001262737               0.999999984              -0.000029520               0.001283446               0.999999984              -0.000190066               0.001068070               0.999999984              -0.000121716               0.001040042               0.999999984              -0.000096029               0.001027364               0.999999984              -0.000088294               0.001029401               0.999999984              -0.000088399               0.001042761               0.999999984              -0.000091637               0.001064472               0.999999984              -0.000095516               0.001091776               0.999999984              -0.000098846               0.001122420               0.999999984              -0.000100790               0.001155054               0.999999984              -0.000100417               0.001188192               0.999999984              -0.000097094               0.001221010               0.999999984              -0.000090258               0.001252811               0.999999984              -0.000079596               0.001283002               0.999999984              -0.000064601               0.001311130               0.999999984              -0.000044741               0.001337312               0.999999984              -0.000019839               0.001361798               0.999999984               0.000009968               0.001385217               0.999999984              -0.000144210               0.001108332               0.999999984              -0.000089448               0.001098978               0.999999984              -0.000066956               0.001094499               0.999999984              -0.000058895               0.001099610               0.999999984              -0.000057575               0.001113776               0.999999984              -0.000059187               0.001135505               0.999999984              -0.000061801               0.001162767               0.999999984              -0.000064231               0.001193765               0.999999984              -0.000065796               0.001227135               0.999999984              -0.000065690               0.001261812               0.999999984              -0.000063103               0.001296997               0.999999984              -0.000057674               0.001331827               0.999999984              -0.000049173               0.001365770               0.999999984              -0.000036753               0.001398318               0.999999984              -0.000019206               0.001429189               0.999999984               0.000004182               0.001458176               0.999999984               0.000034194               0.001485494               0.999999984              -0.000096931               0.001137525               0.999999984              -0.000058809               0.001143092               0.999999984              -0.000042062               0.001146300               0.999999984              -0.000035371               0.001155121               0.999999984              -0.000033543               0.001170939               0.999999984              -0.000034017               0.001193378               0.999999984              -0.000035473               0.001221034               0.999999984              -0.000037017               0.001252514               0.999999984              -0.000038053               0.001286740               0.999999984              -0.000037874               0.001322791               0.999999984              -0.000036116               0.001359916               0.999999984              -0.000032438               0.001397364               0.999999984              -0.000026495               0.001434621               0.999999984              -0.000017491               0.001471128               0.999999984              -0.000004405               0.001506491               0.999999984               0.000013929               0.001540212               0.999999984               0.000038689               0.001571952               0.999999984              -0.000048721               0.001155169               0.999999984              -0.000029170               0.001170362               0.999999984              -0.000020199               0.001179072               0.999999984              -0.000016417               0.001190888               0.999999984              -0.000015148               0.001208267               0.999999984              -0.000015136               0.001231494               0.999999984              -0.000015754               0.001259610               0.999999984              -0.000016506               0.001291579               0.999999984              -0.000016990               0.001326436               0.999999984              -0.000016866               0.001363411               0.999999984              -0.000015937               0.001401875               0.999999984              -0.000014133               0.001441145               0.999999984              -0.000011091               0.001480757               0.999999984              -0.000006328               0.001520125               0.999999984               0.000000715               0.001558737               0.999999984               0.000010934               0.001595943               0.999999984               0.000025032               0.001631128               0.999999984               0.000000000               0.001161135               0.999999984              -0.000000000               0.001179613               0.999999984              -0.000000000               0.001190198               0.999999984              -0.000000000               0.001203167               0.999999984              -0.000000000               0.001221264               0.999999984              -0.000000000               0.001244876               0.999999984               0.000000000               0.001273183               0.999999984               0.000000000               0.001305269               0.999999984              -0.000000000               0.001340361               0.999999984              -0.000000000               0.001377666               0.999999984               0.000000000               0.001416589               0.999999984               0.000000000               0.001456515               0.999999984               0.000000000               0.001496975               0.999999984              -0.000000000               0.001537435               0.999999984              -0.000000000               0.001577307               0.999999984               0.000000000               0.001615814               0.999999984              -0.000000000               0.001652265               0.999999984              -0.000516879              -0.000000000               0.999999984              -0.000561190               0.000000000               0.999999984              -0.000581193              -0.000000000               0.999999984              -0.000592789              -0.000000000               0.999999984              -0.000601928              -0.000000000               0.999999984              -0.000611066              -0.000000000               0.999999984              -0.000621081               0.000000000               0.999999984              -0.000632192               0.000000000               0.999999984              -0.000644412               0.000000000               0.999999984              -0.000657618               0.000000000               0.999999984              -0.000671647              -0.000000000               0.999999984              -0.000686202              -0.000000000               0.999999984              -0.000701079              -0.000000000               0.999999984              -0.000715976               0.000000000               0.999999984              -0.000730701               0.000000000               0.999999984              -0.000744886               0.000000000               0.999999984              -0.000757879               0.000000000               0.999999984              -0.000513939              -0.000113269               0.999999984              -0.000555195              -0.000093894               0.999999984              -0.000573319              -0.000086079               0.999999984              -0.000583803              -0.000084113               0.999999984              -0.000592265              -0.000085203               0.999999984              -0.000600928              -0.000088147               0.999999984              -0.000610546              -0.000091890               0.999999984              -0.000621275              -0.000095962               0.999999984              -0.000633060              -0.000100158               0.999999984              -0.000645723              -0.000104021               0.999999984              -0.000659011              -0.000107353               0.999999984              -0.000672641              -0.000109874               0.999999984              -0.000686366              -0.000111388               0.999999984              -0.000699966              -0.000111762               0.999999984              -0.000713301              -0.000110530               0.999999984              -0.000726014              -0.000106820               0.999999984              -0.000737652              -0.000099716               0.999999984              -0.000505305              -0.000225379               0.999999984              -0.000537717              -0.000187100               0.999999984              -0.000550551              -0.000172458               0.999999984              -0.000557967              -0.000169351               0.999999984              -0.000564621              -0.000172213               0.999999984              -0.000572066              -0.000178326               0.999999984              -0.000580708              -0.000186020               0.999999984              -0.000590383              -0.000194384               0.999999984              -0.000600915              -0.000202682               0.999999984              -0.000612041              -0.000210315               0.999999984              -0.000623413              -0.000216913               0.999999984              -0.000634810              -0.000222102               0.999999984              -0.000645977              -0.000225480               0.999999984              -0.000656719              -0.000226664               0.999999984              -0.000666786              -0.000225010               0.999999984              -0.000675979              -0.000219444               0.999999984              -0.000684317              -0.000209119               0.999999984              -0.000491069              -0.000335221               0.999999984              -0.000509571              -0.000279128               0.999999984              -0.000514862              -0.000259348               0.999999984              -0.000518203              -0.000256472               0.999999984              -0.000522636              -0.000261993               0.999999984              -0.000528703              -0.000271875               0.999999984              -0.000536121              -0.000283771               0.999999984              -0.000544408              -0.000296399               0.999999984              -0.000553307              -0.000308864               0.999999984              -0.000562375              -0.000320211               0.999999984              -0.000571236              -0.000329958               0.999999984              -0.000579558              -0.000337750               0.999999984              -0.000587165              -0.000343325               0.999999984              -0.000593890              -0.000346247               0.999999984              -0.000599739              -0.000345894               0.999999984              -0.000604841              -0.000341535               0.999999984              -0.000609344              -0.000332936               0.999999984              -0.000471515              -0.000441652               0.999999984              -0.000472263              -0.000369666               0.999999984              -0.000469161              -0.000346806               0.999999984              -0.000468579              -0.000345641               0.999999984              -0.000471166              -0.000354771               0.999999984              -0.000476149              -0.000368834               0.999999984              -0.000482588              -0.000385041               0.999999984              -0.000489782              -0.000401819               0.999999984              -0.000497020              -0.000418180               0.999999984              -0.000503803              -0.000433012               0.999999984              -0.000509811              -0.000445920               0.999999984              -0.000514892              -0.000456653               0.999999984              -0.000518792              -0.000464986               0.999999984              -0.000521561              -0.000470640               0.999999984              -0.000523370              -0.000473364               0.999999984              -0.000524441              -0.000473091               0.999999984              -0.000525178              -0.000470004               0.999999984              -0.000447061              -0.000543586               0.999999984              -0.000427825              -0.000458489               0.999999984              -0.000416978              -0.000434605               0.999999984              -0.000413695              -0.000436313               0.999999984              -0.000415453              -0.000449580               0.999999984              -0.000420127              -0.000468074               0.999999984              -0.000426138              -0.000488553               0.999999984              -0.000432279              -0.000509397               0.999999984              -0.000437833              -0.000529377               0.999999984              -0.000442475              -0.000547618               0.999999984              -0.000445782              -0.000563764               0.999999984              -0.000447650              -0.000577613               0.999999984              -0.000447998              -0.000588859               0.999999984              -0.000446981              -0.000597754               0.999999984              -0.000444904              -0.000604526               0.999999984              -0.000442070              -0.000609170               0.999999984              -0.000438518              -0.000611837               0.999999984              -0.000418194              -0.000639955               0.999999984              -0.000378582              -0.000545449               0.999999984              -0.000362061              -0.000522181               0.999999984              -0.000357948              -0.000527318               0.999999984              -0.000360143              -0.000544856               0.999999984              -0.000365239              -0.000567862               0.999999984              -0.000370991              -0.000592489               0.999999984              -0.000376224              -0.000617172               0.999999984              -0.000380249              -0.000640747               0.999999984              -0.000382495              -0.000662383               0.999999984              -0.000382801              -0.000681568               0.999999984              -0.000381160              -0.000698127               0.999999984              -0.000377682              -0.000712193               0.999999984              -0.000372691              -0.000724304               0.999999984              -0.000366332              -0.000734737               0.999999984              -0.000358652              -0.000743454               0.999999984              -0.000349603              -0.000750051               0.999999984              -0.000385605              -0.000729664               0.999999984              -0.000327139              -0.000630212               0.999999984              -0.000307683              -0.000608759               0.999999984              -0.000304752              -0.000617358               0.999999984              -0.000308475              -0.000638916               0.999999984              -0.000314347              -0.000666100               0.999999984              -0.000320003              -0.000694777               0.999999984              -0.000324217              -0.000723388               0.999999984              -0.000326191              -0.000750484               0.999999984              -0.000325695              -0.000774847               0.999999984              -0.000322552              -0.000796250               0.999999984              -0.000316800              -0.000814942               0.999999984              -0.000308738              -0.000831404               0.999999984              -0.000298577              -0.000846373               0.999999984              -0.000286557              -0.000859903               0.999999984              -0.000272782              -0.000871640               0.999999984              -0.000257433              -0.000881085               0.999999984              -0.000350561              -0.000811195               0.999999984              -0.000275392              -0.000712653               0.999999984              -0.000256695              -0.000693290               0.999999984              -0.000256339              -0.000704970               0.999999984              -0.000262108              -0.000730263               0.999999984              -0.000268883              -0.000761332               0.999999984              -0.000274214              -0.000794174               0.999999984              -0.000276937              -0.000826354               0.999999984              -0.000276460              -0.000856084               0.999999984              -0.000272319              -0.000882584               0.999999984              -0.000264475              -0.000905721               0.999999984              -0.000253226              -0.000926301               0.999999984              -0.000239190              -0.000945041               0.999999984              -0.000222955              -0.000962312               0.999999984              -0.000204886              -0.000978138               0.999999984              -0.000185279              -0.000992234               0.999999984              -0.000164914              -0.001004792               0.999999984              -0.000314848              -0.000887711               0.999999984              -0.000232874              -0.000802477               0.999999984              -0.000211123              -0.000778392               0.999999984              -0.000209411              -0.000784202               0.999999984              -0.000214538              -0.000804627               0.999999984              -0.000221193              -0.000832465               0.999999984              -0.000226994              -0.000863756               0.999999984              -0.000230483              -0.000895652               0.999999984              -0.000231026              -0.000926527               0.999999984              -0.000228275              -0.000954935               0.999999984              -0.000221618              -0.000980468               0.999999984              -0.000211045              -0.001003308               0.999999984              -0.000197096              -0.001024046               0.999999984              -0.000180610              -0.001043374               0.999999984              -0.000162382              -0.001061512               0.999999984              -0.000142670              -0.001078696               0.999999984              -0.000122366              -0.001094556               0.999999984              -0.000275753              -0.000956918               0.999999984              -0.000193191              -0.000888693               0.999999984              -0.000168462              -0.000865015               0.999999984              -0.000164635              -0.000866932               0.999999984              -0.000168468              -0.000883431               0.999999984              -0.000174430              -0.000908281               0.999999984              -0.000180125              -0.000937892               0.999999984              -0.000184103              -0.000969237               0.999999984              -0.000185562              -0.001000677               0.999999984              -0.000183855              -0.001030890               0.999999984              -0.000178460              -0.001058983               0.999999984              -0.000168951              -0.001084525               0.999999984              -0.000155580              -0.001107587               0.999999984              -0.000138799              -0.001128805               0.999999984              -0.000119480              -0.001148755               0.999999984              -0.000098353              -0.001167994               0.999999984              -0.000076075              -0.001186591               0.999999984              -0.000234033              -0.001017374               0.999999984              -0.000156163              -0.000968935               0.999999984              -0.000129890              -0.000949361               0.999999984              -0.000123799              -0.000950112               0.999999984              -0.000125789              -0.000964193               0.999999984              -0.000130599              -0.000986877               0.999999984              -0.000135617              -0.001014932               0.999999984              -0.000139497              -0.001045845               0.999999984              -0.000141475              -0.001077778               0.999999984              -0.000140584              -0.001109366               0.999999984              -0.000136381              -0.001139927               0.999999984              -0.000128226              -0.001168544               0.999999984              -0.000115858              -0.001194927               0.999999984              -0.000099398              -0.001219063               0.999999984              -0.000079169              -0.001241483               0.999999984              -0.000055632              -0.001262737               0.999999984              -0.000029520              -0.001283446               0.999999984              -0.000190066              -0.001068070               0.999999984              -0.000121716              -0.001040042               0.999999984              -0.000096029              -0.001027364               0.999999984              -0.000088294              -0.001029401               0.999999984              -0.000088399              -0.001042761               0.999999984              -0.000091637              -0.001064472               0.999999984              -0.000095516              -0.001091776               0.999999984              -0.000098846              -0.001122420               0.999999984              -0.000100790              -0.001155054               0.999999984              -0.000100417              -0.001188192               0.999999984              -0.000097094              -0.001221010               0.999999984              -0.000090258              -0.001252811               0.999999984              -0.000079596              -0.001283002               0.999999984              -0.000064601              -0.001311130               0.999999984              -0.000044741              -0.001337312               0.999999984              -0.000019839              -0.001361798               0.999999984               0.000009968              -0.001385217               0.999999984              -0.000144210              -0.001108332               0.999999984              -0.000089448              -0.001098978               0.999999984              -0.000066956              -0.001094499               0.999999984              -0.000058895              -0.001099610               0.999999984              -0.000057575              -0.001113776               0.999999984              -0.000059187              -0.001135505               0.999999984              -0.000061801              -0.001162767               0.999999984              -0.000064231              -0.001193765               0.999999984              -0.000065796              -0.001227135               0.999999984              -0.000065690              -0.001261812               0.999999984              -0.000063103              -0.001296997               0.999999984              -0.000057674              -0.001331827               0.999999984              -0.000049173              -0.001365770               0.999999984              -0.000036753              -0.001398318               0.999999984              -0.000019206              -0.001429189               0.999999984               0.000004182              -0.001458176               0.999999984               0.000034194              -0.001485494               0.999999984              -0.000096931              -0.001137525               0.999999984              -0.000058809              -0.001143092               0.999999984              -0.000042062              -0.001146300               0.999999984              -0.000035371              -0.001155121               0.999999984              -0.000033543              -0.001170939               0.999999984              -0.000034017              -0.001193378               0.999999984              -0.000035473              -0.001221034               0.999999984              -0.000037017              -0.001252514               0.999999984              -0.000038053              -0.001286740               0.999999984              -0.000037874              -0.001322791               0.999999984              -0.000036116              -0.001359916               0.999999984              -0.000032438              -0.001397364               0.999999984              -0.000026495              -0.001434621               0.999999984              -0.000017491              -0.001471128               0.999999984              -0.000004405              -0.001506491               0.999999984               0.000013929              -0.001540212               0.999999984               0.000038689              -0.001571952               0.999999984              -0.000048721              -0.001155169               0.999999984              -0.000029170              -0.001170362               0.999999984              -0.000020199              -0.001179072               0.999999984              -0.000016417              -0.001190888               0.999999984              -0.000015148              -0.001208267               0.999999984              -0.000015136              -0.001231494               0.999999984              -0.000015754              -0.001259610               0.999999984              -0.000016506              -0.001291579               0.999999984              -0.000016990              -0.001326436               0.999999984              -0.000016866              -0.001363411               0.999999984              -0.000015937              -0.001401875               0.999999984              -0.000014133              -0.001441145               0.999999984              -0.000011091              -0.001480757               0.999999984              -0.000006328              -0.001520125               0.999999984               0.000000715              -0.001558737               0.999999984               0.000010934              -0.001595943               0.999999984               0.000025032              -0.001631128               0.999999984              -0.000000000              -0.001161135               0.999999984              -0.000000000              -0.001179613               0.999999984              -0.000000000              -0.001190198               0.999999984              -0.000000000              -0.001203167               0.999999984               0.000000000              -0.001221264               0.999999984               0.000000000              -0.001244876               0.999999984              -0.000000000              -0.001273183               0.999999984              -0.000000000              -0.001305269               0.999999984              -0.000000000              -0.001340361               0.999999984               0.000000000              -0.001377666               0.999999984               0.000000000              -0.001416589               0.999999984              -0.000000000              -0.001456515               0.999999984              -0.000000000              -0.001496975               0.999999984               0.000000000              -0.001537435               0.999999984               0.000000000              -0.001577307               0.999999984              -0.000000000              -0.001615814               0.999999984               0.000000000              -0.001652265               0.999999984               0.000516879               0.000000000               0.999999984               0.000561190              -0.000000000               0.999999984               0.000581193               0.000000000               0.999999984               0.000592789              -0.000000000               0.999999984               0.000601928               0.000000000               0.999999984               0.000611066               0.000000000               0.999999984               0.000621081               0.000000000               0.999999984               0.000632192               0.000000000               0.999999984               0.000644412               0.000000000               0.999999984               0.000657618              -0.000000000               0.999999984               0.000671647              -0.000000000               0.999999984               0.000686202               0.000000000               0.999999984               0.000701079               0.000000000               0.999999984               0.000715976               0.000000000               0.999999984               0.000730701               0.000000000               0.999999984               0.000744886              -0.000000000               0.999999984               0.000757879              -0.000000000               0.999999984               0.000513939              -0.000113269               0.999999984               0.000555195              -0.000093894               0.999999984               0.000573319              -0.000086079               0.999999984               0.000583803              -0.000084113               0.999999984               0.000592265              -0.000085203               0.999999984               0.000600928              -0.000088147               0.999999984               0.000610546              -0.000091890               0.999999984               0.000621275              -0.000095962               0.999999984               0.000633060              -0.000100158               0.999999984               0.000645723              -0.000104021               0.999999984               0.000659011              -0.000107353               0.999999984               0.000672641              -0.000109874               0.999999984               0.000686366              -0.000111388               0.999999984               0.000699966              -0.000111762               0.999999984               0.000713301              -0.000110530               0.999999984               0.000726014              -0.000106820               0.999999984               0.000737652              -0.000099716               0.999999984               0.000505305              -0.000225379               0.999999984               0.000537717              -0.000187100               0.999999984               0.000550551              -0.000172458               0.999999984               0.000557967              -0.000169351               0.999999984               0.000564621              -0.000172213               0.999999984               0.000572066              -0.000178326               0.999999984               0.000580708              -0.000186020               0.999999984               0.000590383              -0.000194384               0.999999984               0.000600915              -0.000202682               0.999999984               0.000612041              -0.000210315               0.999999984               0.000623413              -0.000216913               0.999999984               0.000634810              -0.000222102               0.999999984               0.000645977              -0.000225480               0.999999984               0.000656719              -0.000226664               0.999999984               0.000666786              -0.000225010               0.999999984               0.000675979              -0.000219444               0.999999984               0.000684317              -0.000209119               0.999999984               0.000491069              -0.000335221               0.999999984               0.000509571              -0.000279128               0.999999984               0.000514862              -0.000259348               0.999999984               0.000518203              -0.000256472               0.999999984               0.000522636              -0.000261993               0.999999984               0.000528703              -0.000271875               0.999999984               0.000536121              -0.000283771               0.999999984               0.000544408              -0.000296399               0.999999984               0.000553307              -0.000308864               0.999999984               0.000562375              -0.000320211               0.999999984               0.000571236              -0.000329958               0.999999984               0.000579558              -0.000337750               0.999999984               0.000587165              -0.000343325               0.999999984               0.000593890              -0.000346247               0.999999984               0.000599739              -0.000345894               0.999999984               0.000604841              -0.000341535               0.999999984               0.000609344              -0.000332936               0.999999984               0.000471515              -0.000441652               0.999999984               0.000472263              -0.000369666               0.999999984               0.000469161              -0.000346806               0.999999984               0.000468579              -0.000345641               0.999999984               0.000471166              -0.000354771               0.999999984               0.000476149              -0.000368834               0.999999984               0.000482588              -0.000385041               0.999999984               0.000489782              -0.000401819               0.999999984               0.000497020              -0.000418180               0.999999984               0.000503803              -0.000433012               0.999999984               0.000509811              -0.000445920               0.999999984               0.000514892              -0.000456653               0.999999984               0.000518792              -0.000464986               0.999999984               0.000521561              -0.000470640               0.999999984               0.000523370              -0.000473364               0.999999984               0.000524441              -0.000473091               0.999999984               0.000525178              -0.000470004               0.999999984               0.000447061              -0.000543586               0.999999984               0.000427825              -0.000458489               0.999999984               0.000416978              -0.000434605               0.999999984               0.000413695              -0.000436313               0.999999984               0.000415453              -0.000449580               0.999999984               0.000420127              -0.000468074               0.999999984               0.000426138              -0.000488553               0.999999984               0.000432279              -0.000509397               0.999999984               0.000437833              -0.000529377               0.999999984               0.000442475              -0.000547618               0.999999984               0.000445782              -0.000563764               0.999999984               0.000447650              -0.000577613               0.999999984               0.000447998              -0.000588859               0.999999984               0.000446981              -0.000597754               0.999999984               0.000444904              -0.000604526               0.999999984               0.000442070              -0.000609170               0.999999984               0.000438518              -0.000611837               0.999999984               0.000418194              -0.000639955               0.999999984               0.000378582              -0.000545449               0.999999984               0.000362061              -0.000522181               0.999999984               0.000357948              -0.000527318               0.999999984               0.000360143              -0.000544856               0.999999984               0.000365239              -0.000567862               0.999999984               0.000370991              -0.000592489               0.999999984               0.000376224              -0.000617172               0.999999984               0.000380249              -0.000640747               0.999999984               0.000382495              -0.000662383               0.999999984               0.000382801              -0.000681568               0.999999984               0.000381160              -0.000698127               0.999999984               0.000377682              -0.000712193               0.999999984               0.000372691              -0.000724304               0.999999984               0.000366332              -0.000734737               0.999999984               0.000358652              -0.000743454               0.999999984               0.000349603              -0.000750051               0.999999984               0.000385605              -0.000729664               0.999999984               0.000327139              -0.000630212               0.999999984               0.000307683              -0.000608759               0.999999984               0.000304752              -0.000617358               0.999999984               0.000308475              -0.000638916               0.999999984               0.000314347              -0.000666100               0.999999984               0.000320003              -0.000694777               0.999999984               0.000324217              -0.000723388               0.999999984               0.000326191              -0.000750484               0.999999984               0.000325695              -0.000774847               0.999999984               0.000322552              -0.000796250               0.999999984               0.000316800              -0.000814942               0.999999984               0.000308738              -0.000831404               0.999999984               0.000298577              -0.000846373               0.999999984               0.000286557              -0.000859903               0.999999984               0.000272782              -0.000871640               0.999999984               0.000257433              -0.000881085               0.999999984               0.000350561              -0.000811195               0.999999984               0.000275392              -0.000712653               0.999999984               0.000256695              -0.000693290               0.999999984               0.000256339              -0.000704970               0.999999984               0.000262108              -0.000730263               0.999999984               0.000268883              -0.000761332               0.999999984               0.000274214              -0.000794174               0.999999984               0.000276937              -0.000826354               0.999999984               0.000276460              -0.000856084               0.999999984               0.000272319              -0.000882584               0.999999984               0.000264475              -0.000905721               0.999999984               0.000253226              -0.000926301               0.999999984               0.000239190              -0.000945041               0.999999984               0.000222955              -0.000962312               0.999999984               0.000204886              -0.000978138               0.999999984               0.000185279              -0.000992234               0.999999984               0.000164914              -0.001004792               0.999999984               0.000314848              -0.000887711               0.999999984               0.000232874              -0.000802477               0.999999984               0.000211123              -0.000778392               0.999999984               0.000209411              -0.000784202               0.999999984               0.000214538              -0.000804627               0.999999984               0.000221193              -0.000832465               0.999999984               0.000226994              -0.000863756               0.999999984               0.000230483              -0.000895652               0.999999984               0.000231026              -0.000926527               0.999999984               0.000228275              -0.000954935               0.999999984               0.000221618              -0.000980468               0.999999984               0.000211045              -0.001003308               0.999999984               0.000197096              -0.001024046               0.999999984               0.000180610              -0.001043374               0.999999984               0.000162382              -0.001061512               0.999999984               0.000142670              -0.001078696               0.999999984               0.000122366              -0.001094556               0.999999984               0.000275753              -0.000956918               0.999999984               0.000193191              -0.000888693               0.999999984               0.000168462              -0.000865015               0.999999984               0.000164635              -0.000866932               0.999999984               0.000168468              -0.000883431               0.999999984               0.000174430              -0.000908281               0.999999984               0.000180125              -0.000937892               0.999999984               0.000184103              -0.000969237               0.999999984               0.000185562              -0.001000677               0.999999984               0.000183855              -0.001030890               0.999999984               0.000178460              -0.001058983               0.999999984               0.000168951              -0.001084525               0.999999984               0.000155580              -0.001107587               0.999999984               0.000138799              -0.001128805               0.999999984               0.000119480              -0.001148755               0.999999984               0.000098353              -0.001167994               0.999999984               0.000076075              -0.001186591               0.999999984               0.000234033              -0.001017374               0.999999984               0.000156163              -0.000968935               0.999999984               0.000129890              -0.000949361               0.999999984               0.000123799              -0.000950112               0.999999984               0.000125789              -0.000964193               0.999999984               0.000130599              -0.000986877               0.999999984               0.000135617              -0.001014932               0.999999984               0.000139497              -0.001045845               0.999999984               0.000141475              -0.001077778               0.999999984               0.000140584              -0.001109366               0.999999984               0.000136381              -0.001139927               0.999999984               0.000128226              -0.001168544               0.999999984               0.000115858              -0.001194927               0.999999984               0.000099398              -0.001219063               0.999999984               0.000079169              -0.001241483               0.999999984               0.000055632              -0.001262737               0.999999984               0.000029520              -0.001283446               0.999999984               0.000190066              -0.001068070               0.999999984               0.000121716              -0.001040042               0.999999984               0.000096029              -0.001027364               0.999999984               0.000088294              -0.001029401               0.999999984               0.000088399              -0.001042761               0.999999984               0.000091637              -0.001064472               0.999999984               0.000095516              -0.001091776               0.999999984               0.000098846              -0.001122420               0.999999984               0.000100790              -0.001155054               0.999999984               0.000100417              -0.001188192               0.999999984               0.000097094              -0.001221010               0.999999984               0.000090258              -0.001252811               0.999999984               0.000079596              -0.001283002               0.999999984               0.000064601              -0.001311130               0.999999984               0.000044741              -0.001337312               0.999999984               0.000019839              -0.001361798               0.999999984              -0.000009968              -0.001385217               0.999999984               0.000144210              -0.001108332               0.999999984               0.000089448              -0.001098978               0.999999984               0.000066956              -0.001094499               0.999999984               0.000058895              -0.001099610               0.999999984               0.000057575              -0.001113776               0.999999984               0.000059187              -0.001135505               0.999999984               0.000061801              -0.001162767               0.999999984               0.000064231              -0.001193765               0.999999984               0.000065796              -0.001227135               0.999999984               0.000065690              -0.001261812               0.999999984               0.000063103              -0.001296997               0.999999984               0.000057674              -0.001331827               0.999999984               0.000049173              -0.001365770               0.999999984               0.000036753              -0.001398318               0.999999984               0.000019206              -0.001429189               0.999999984              -0.000004182              -0.001458176               0.999999984              -0.000034194              -0.001485494               0.999999984               0.000096931              -0.001137525               0.999999984               0.000058809              -0.001143092               0.999999984               0.000042062              -0.001146300               0.999999984               0.000035371              -0.001155121               0.999999984               0.000033543              -0.001170939               0.999999984               0.000034017              -0.001193378               0.999999984               0.000035473              -0.001221034               0.999999984               0.000037017              -0.001252514               0.999999984               0.000038053              -0.001286740               0.999999984               0.000037874              -0.001322791               0.999999984               0.000036116              -0.001359916               0.999999984               0.000032438              -0.001397364               0.999999984               0.000026495              -0.001434621               0.999999984               0.000017491              -0.001471128               0.999999984               0.000004405              -0.001506491               0.999999984              -0.000013929              -0.001540212               0.999999984              -0.000038689              -0.001571952               0.999999984               0.000048721              -0.001155169               0.999999984               0.000029170              -0.001170362               0.999999984               0.000020199              -0.001179072               0.999999984               0.000016417              -0.001190888               0.999999984               0.000015148              -0.001208267               0.999999984               0.000015136              -0.001231494               0.999999984               0.000015754              -0.001259610               0.999999984               0.000016506              -0.001291579               0.999999984               0.000016990              -0.001326436               0.999999984               0.000016866              -0.001363411               0.999999984               0.000015937              -0.001401875               0.999999984               0.000014133              -0.001441145               0.999999984               0.000011091              -0.001480757               0.999999984               0.000006328              -0.001520125               0.999999984              -0.000000715              -0.001558737               0.999999984              -0.000010934              -0.001595943               0.999999984              -0.000025032              -0.001631128               0.999999984              -0.000000000              -0.001161135               0.999999984              -0.000000000              -0.001179613               0.999999984              -0.000000000              -0.001190198               0.999999984              -0.000000000              -0.001203167               0.999999984               0.000000000              -0.001221264               0.999999984               0.000000000              -0.001244876               0.999999984              -0.000000000              -0.001273183               0.999999984              -0.000000000              -0.001305269               0.999999984              -0.000000000              -0.001340361               0.999999984               0.000000000              -0.001377666               0.999999984               0.000000000              -0.001416589               0.999999984              -0.000000000              -0.001456515               0.999999984              -0.000000000              -0.001496975               0.999999984               0.000000000              -0.001537435               0.999999984               0.000000000              -0.001577307               0.999999984              -0.000000000              -0.001615814               0.999999984               0.000000000              -0.001652265               0.999999984               0.000516879               0.000000000               0.999999984               0.000561190              -0.000000000               0.999999984               0.000581193               0.000000000               0.999999984               0.000592789              -0.000000000               0.999999984               0.000601928               0.000000000               0.999999984               0.000611066               0.000000000               0.999999984               0.000621081               0.000000000               0.999999984               0.000632192               0.000000000               0.999999984               0.000644412               0.000000000               0.999999984               0.000657618              -0.000000000               0.999999984               0.000671647              -0.000000000               0.999999984               0.000686202               0.000000000               0.999999984               0.000701079               0.000000000               0.999999984               0.000715976               0.000000000               0.999999984               0.000730701               0.000000000               0.999999984               0.000744886              -0.000000000               0.999999984               0.000757879              -0.000000000               0.999999984               0.000513939               0.000113269               0.999999984               0.000555195               0.000093894               0.999999984               0.000573319               0.000086079               0.999999984               0.000583803               0.000084113               0.999999984               0.000592265               0.000085203               0.999999984               0.000600928               0.000088147               0.999999984               0.000610546               0.000091890               0.999999984               0.000621275               0.000095962               0.999999984               0.000633060               0.000100158               0.999999984               0.000645723               0.000104021               0.999999984               0.000659011               0.000107353               0.999999984               0.000672641               0.000109874               0.999999984               0.000686366               0.000111388               0.999999984               0.000699966               0.000111762               0.999999984               0.000713301               0.000110530               0.999999984               0.000726014               0.000106820               0.999999984               0.000737652               0.000099716               0.999999984               0.000505305               0.000225379               0.999999984               0.000537717               0.000187100               0.999999984               0.000550551               0.000172458               0.999999984               0.000557967               0.000169351               0.999999984               0.000564621               0.000172213               0.999999984               0.000572066               0.000178326               0.999999984               0.000580708               0.000186020               0.999999984               0.000590383               0.000194384               0.999999984               0.000600915               0.000202682               0.999999984               0.000612041               0.000210315               0.999999984               0.000623413               0.000216913               0.999999984               0.000634810               0.000222102               0.999999984               0.000645977               0.000225480               0.999999984               0.000656719               0.000226664               0.999999984               0.000666786               0.000225010               0.999999984               0.000675979               0.000219444               0.999999984               0.000684317               0.000209119               0.999999984               0.000491069               0.000335221               0.999999984               0.000509571               0.000279128               0.999999984               0.000514862               0.000259348               0.999999984               0.000518203               0.000256472               0.999999984               0.000522636               0.000261993               0.999999984               0.000528703               0.000271875               0.999999984               0.000536121               0.000283771               0.999999984               0.000544408               0.000296399               0.999999984               0.000553307               0.000308864               0.999999984               0.000562375               0.000320211               0.999999984               0.000571236               0.000329958               0.999999984               0.000579558               0.000337750               0.999999984               0.000587165               0.000343325               0.999999984               0.000593890               0.000346247               0.999999984               0.000599739               0.000345894               0.999999984               0.000604841               0.000341535               0.999999984               0.000609344               0.000332936               0.999999984               0.000471515               0.000441652               0.999999984               0.000472263               0.000369666               0.999999984               0.000469161               0.000346806               0.999999984               0.000468579               0.000345641               0.999999984               0.000471166               0.000354771               0.999999984               0.000476149               0.000368834               0.999999984               0.000482588               0.000385041               0.999999984               0.000489782               0.000401819               0.999999984               0.000497020               0.000418180               0.999999984               0.000503803               0.000433012               0.999999984               0.000509811               0.000445920               0.999999984               0.000514892               0.000456653               0.999999984               0.000518792               0.000464986               0.999999984               0.000521561               0.000470640               0.999999984               0.000523370               0.000473364               0.999999984               0.000524441               0.000473091               0.999999984               0.000525178               0.000470004               0.999999984               0.000447061               0.000543586               0.999999984               0.000427825               0.000458489               0.999999984               0.000416978               0.000434605               0.999999984               0.000413695               0.000436313               0.999999984               0.000415453               0.000449580               0.999999984               0.000420127               0.000468074               0.999999984               0.000426138               0.000488553               0.999999984               0.000432279               0.000509397               0.999999984               0.000437833               0.000529377               0.999999984               0.000442475               0.000547618               0.999999984               0.000445782               0.000563764               0.999999984               0.000447650               0.000577613               0.999999984               0.000447998               0.000588859               0.999999984               0.000446981               0.000597754               0.999999984               0.000444904               0.000604526               0.999999984               0.000442070               0.000609170               0.999999984               0.000438518               0.000611837               0.999999984               0.000418194               0.000639955               0.999999984               0.000378582               0.000545449               0.999999984               0.000362061               0.000522181               0.999999984               0.000357948               0.000527318               0.999999984               0.000360143               0.000544856               0.999999984               0.000365239               0.000567862               0.999999984               0.000370991               0.000592489               0.999999984               0.000376224               0.000617172               0.999999984               0.000380249               0.000640747               0.999999984               0.000382495               0.000662383               0.999999984               0.000382801               0.000681568               0.999999984               0.000381160               0.000698127               0.999999984               0.000377682               0.000712193               0.999999984               0.000372691               0.000724304               0.999999984               0.000366332               0.000734737               0.999999984               0.000358652               0.000743454               0.999999984               0.000349603               0.000750051               0.999999984               0.000385605               0.000729664               0.999999984               0.000327139               0.000630212               0.999999984               0.000307683               0.000608759               0.999999984               0.000304752               0.000617358               0.999999984               0.000308475               0.000638916               0.999999984               0.000314347               0.000666100               0.999999984               0.000320003               0.000694777               0.999999984               0.000324217               0.000723388               0.999999984               0.000326191               0.000750484               0.999999984               0.000325695               0.000774847               0.999999984               0.000322552               0.000796250               0.999999984               0.000316800               0.000814942               0.999999984               0.000308738               0.000831404               0.999999984               0.000298577               0.000846373               0.999999984               0.000286557               0.000859903               0.999999984               0.000272782               0.000871640               0.999999984               0.000257433               0.000881085               0.999999984               0.000350561               0.000811195               0.999999984               0.000275392               0.000712653               0.999999984               0.000256695               0.000693290               0.999999984               0.000256339               0.000704970               0.999999984               0.000262108               0.000730263               0.999999984               0.000268883               0.000761332               0.999999984               0.000274214               0.000794174               0.999999984               0.000276937               0.000826354               0.999999984               0.000276460               0.000856084               0.999999984               0.000272319               0.000882584               0.999999984               0.000264475               0.000905721               0.999999984               0.000253226               0.000926301               0.999999984               0.000239190               0.000945041               0.999999984               0.000222955               0.000962312               0.999999984               0.000204886               0.000978138               0.999999984               0.000185279               0.000992234               0.999999984               0.000164914               0.001004792               0.999999984               0.000314848               0.000887711               0.999999984               0.000232874               0.000802477               0.999999984               0.000211123               0.000778392               0.999999984               0.000209411               0.000784202               0.999999984               0.000214538               0.000804627               0.999999984               0.000221193               0.000832465               0.999999984               0.000226994               0.000863756               0.999999984               0.000230483               0.000895652               0.999999984               0.000231026               0.000926527               0.999999984               0.000228275               0.000954935               0.999999984               0.000221618               0.000980468               0.999999984               0.000211045               0.001003308               0.999999984               0.000197096               0.001024046               0.999999984               0.000180610               0.001043374               0.999999984               0.000162382               0.001061512               0.999999984               0.000142670               0.001078696               0.999999984               0.000122366               0.001094556               0.999999984               0.000275753               0.000956918               0.999999984               0.000193191               0.000888693               0.999999984               0.000168462               0.000865015               0.999999984               0.000164635               0.000866932               0.999999984               0.000168468               0.000883431               0.999999984               0.000174430               0.000908281               0.999999984               0.000180125               0.000937892               0.999999984               0.000184103               0.000969237               0.999999984               0.000185562               0.001000677               0.999999984               0.000183855               0.001030890               0.999999984               0.000178460               0.001058983               0.999999984               0.000168951               0.001084525               0.999999984               0.000155580               0.001107587               0.999999984               0.000138799               0.001128805               0.999999984               0.000119480               0.001148755               0.999999984               0.000098353               0.001167994               0.999999984               0.000076075               0.001186591               0.999999984               0.000234033               0.001017374               0.999999984               0.000156163               0.000968935               0.999999984               0.000129890               0.000949361               0.999999984               0.000123799               0.000950112               0.999999984               0.000125789               0.000964193               0.999999984               0.000130599               0.000986877               0.999999984               0.000135617               0.001014932               0.999999984               0.000139497               0.001045845               0.999999984               0.000141475               0.001077778               0.999999984               0.000140584               0.001109366               0.999999984               0.000136381               0.001139927               0.999999984               0.000128226               0.001168544               0.999999984               0.000115858               0.001194927               0.999999984               0.000099398               0.001219063               0.999999984               0.000079169               0.001241483               0.999999984               0.000055632               0.001262737               0.999999984               0.000029520               0.001283446               0.999999984               0.000190066               0.001068070               0.999999984               0.000121716               0.001040042               0.999999984               0.000096029               0.001027364               0.999999984               0.000088294               0.001029401               0.999999984               0.000088399               0.001042761               0.999999984               0.000091637               0.001064472               0.999999984               0.000095516               0.001091776               0.999999984               0.000098846               0.001122420               0.999999984               0.000100790               0.001155054               0.999999984               0.000100417               0.001188192               0.999999984               0.000097094               0.001221010               0.999999984               0.000090258               0.001252811               0.999999984               0.000079596               0.001283002               0.999999984               0.000064601               0.001311130               0.999999984               0.000044741               0.001337312               0.999999984               0.000019839               0.001361798               0.999999984              -0.000009968               0.001385217               0.999999984               0.000144210               0.001108332               0.999999984               0.000089448               0.001098978               0.999999984               0.000066956               0.001094499               0.999999984               0.000058895               0.001099610               0.999999984               0.000057575               0.001113776               0.999999984               0.000059187               0.001135505               0.999999984               0.000061801               0.001162767               0.999999984               0.000064231               0.001193765               0.999999984               0.000065796               0.001227135               0.999999984               0.000065690               0.001261812               0.999999984               0.000063103               0.001296997               0.999999984               0.000057674               0.001331827               0.999999984               0.000049173               0.001365770               0.999999984               0.000036753               0.001398318               0.999999984               0.000019206               0.001429189               0.999999984              -0.000004182               0.001458176               0.999999984              -0.000034194               0.001485494               0.999999984               0.000096931               0.001137525               0.999999984               0.000058809               0.001143092               0.999999984               0.000042062               0.001146300               0.999999984               0.000035371               0.001155121               0.999999984               0.000033543               0.001170939               0.999999984               0.000034017               0.001193378               0.999999984               0.000035473               0.001221034               0.999999984               0.000037017               0.001252514               0.999999984               0.000038053               0.001286740               0.999999984               0.000037874               0.001322791               0.999999984               0.000036116               0.001359916               0.999999984               0.000032438               0.001397364               0.999999984               0.000026495               0.001434621               0.999999984               0.000017491               0.001471128               0.999999984               0.000004405               0.001506491               0.999999984              -0.000013929               0.001540212               0.999999984              -0.000038689               0.001571952               0.999999984               0.000048721               0.001155169               0.999999984               0.000029170               0.001170362               0.999999984               0.000020199               0.001179072               0.999999984               0.000016417               0.001190888               0.999999984               0.000015148               0.001208267               0.999999984               0.000015136               0.001231494               0.999999984               0.000015754               0.001259610               0.999999984               0.000016506               0.001291579               0.999999984               0.000016990               0.001326436               0.999999984               0.000016866               0.001363411               0.999999984               0.000015937               0.001401875               0.999999984               0.000014133               0.001441145               0.999999984               0.000011091               0.001480757               0.999999984               0.000006328               0.001520125               0.999999984              -0.000000715               0.001558737               0.999999984              -0.000010934               0.001595943               0.999999984              -0.000025032               0.001631128               0.999999984               0.000000000               0.001161135               0.999999984              -0.000000000               0.001179613               0.999999984              -0.000000000               0.001190198               0.999999984              -0.000000000               0.001203167               0.999999984              -0.000000000               0.001221264               0.999999984              -0.000000000               0.001244876               0.999999984               0.000000000               0.001273183               0.999999984               0.000000000               0.001305269               0.999999984              -0.000000000               0.001340361               0.999999984              -0.000000000               0.001377666               0.999999984               0.000000000               0.001416589               0.999999984               0.000000000               0.001456515               0.999999984               0.000000000               0.001496975               0.999999984              -0.000000000               0.001537435               0.999999984              -0.000000000               0.001577307               0.999999984               0.000000000               0.001615814               0.999999984              -0.000000000               0.001652265               0.999999984 </DataArray>
<DataArray type="Float64"                                    Name="defo"                                                      NumberOfComponents=" 3" format="ascii">
             -0.000516879              -0.000000000               0.999999984              -0.000561190               0.000000000               0.999999984              -0.000581193              -0.000000000               0.999999984              -0.000592789              -0.000000000               0.999999984              -0.000601928              -0.000000000               0.999999984              -0.000611066              -0.000000000               0.999999984              -0.000621081               0.000000000               0.999999984              -0.000632192               0.000000000               0.999999984              -0.000644412               0.000000000               0.999999984              -0.000657618               0.000000000               0.999999984              -0.000671647              -0.000000000               0.999999984              -0.000686202              -0.000000000               0.999999984              -0.000701079              -0.000000000               0.999999984              -0.000715976               0.000000000               0.999999984              -0.000730701               0.000000000               0.999999984              -0.000744886               0.000000000               0.999999984              -0.000757879               0.000000000               0.999999984              -0.000513939               0.000113269               0.999999984              -0.000555195               0.000093894               0.999999984              -0.000573319               0.000086079               0.999999984              -0.000583803               0.000084113               0.999999984              -0.000592265               0.000085203               0.999999984              -0.000600928               0.000088147               0.999999984              -0.000610546               0.000091890               0.999999984              -0.000621275               0.000095962               0.999999984              -0.000633060               0.000100158               0.999999984              -0.000645723               0.000104021               0.999999984              -0.000659011               0.000107353               0.999999984              -0.000672641               0.000109874               0.999999984              -0.000686366               0.000111388               0.999999984              -0.000699966               0.000111762               0.999999984              -0.000713301               0.000110530               0.999999984              -0.000726014               0.000106820               0.999999984              -0.000737652               0.000099716               0.999999984              -0.000505305               0.000225379               0.999999984              -0.000537717               0.000187100               0.999999984              -0.000550551               0.000172458               0.999999984              -0.000557967               0.000169351               0.999999984              -0.000564621               0.000172213               0.999999984              -0.000572066               0.000178326               0.999999984              -0.000580708               0.000186020               0.999999984              -0.000590383               0.000194384               0.999999984              -0.000600915               0.000202682               0.999999984              -0.000612041               0.000210315               0.999999984              -0.000623413               0.000216913               0.999999984              -0.000634810               0.000222102               0.999999984              -0.000645977               0.000225480               0.999999984              -0.000656719               0.000226664               0.999999984              -0.000666786               0.000225010               0.999999984              -0.000675979               0.000219444               0.999999984              -0.000684317               0.000209119               0.999999984              -0.000491069               0.000335221               0.999999984              -0.000509571               0.000279128               0.999999984              -0.000514862               0.000259348               0.999999984              -0.000518203               0.000256472               0.999999984              -0.000522636               0.000261993               0.999999984              -0.000528703               0.000271875               0.999999984              -0.000536121               0.000283771               0.999999984              -0.000544408               0.000296399               0.999999984              -0.000553307               0.000308864               0.999999984              -0.000562375               0.000320211               0.999999984              -0.000571236               0.000329958               0.999999984              -0.000579558               0.000337750               0.999999984              -0.000587165               0.000343325               0.999999984              -0.000593890               0.000346247               0.999999984              -0.000599739               0.000345894               0.999999984              -0.000604841               0.000341535               0.999999984              -0.000609344               0.000332936               0.999999984              -0.000471515               0.000441652               0.999999984              -0.000472263               0.000369666               0.999999984              -0.000469161               0.000346806               0.999999984              -0.000468579               0.000345641               0.999999984              -0.000471166               0.000354771               0.999999984              -0.000476149               0.000368834               0.999999984              -0.000482588               0.000385041               0.999999984              -0.000489782               0.000401819               0.999999984              -0.000497020               0.000418180               0.999999984              -0.000503803               0.000433012               0.999999984              -0.000509811               0.000445920               0.999999984              -0.000514892               0.000456653               0.999999984              -0.000518792               0.000464986               0.999999984              -0.000521561               0.000470640               0.999999984              -0.000523370               0.000473364               0.999999984              -0.000524441               0.000473091               0.999999984              -0.000525178               0.000470004               0.999999984              -0.000447061               0.000543586               0.999999984              -0.000427825               0.000458489               0.999999984              -0.000416978               0.000434605               0.999999984              -0.000413695               0.000436313               0.999999984              -0.000415453               0.000449580               0.999999984              -0.000420127               0.000468074               0.999999984              -0.000426138               0.000488553               0.999999984              -0.000432279               0.000509397               0.999999984              -0.000437833               0.000529377               0.999999984              -0.000442475               0.000547618               0.999999984              -0.000445782               0.000563764               0.999999984              -0.000447650               0.000577613               0.999999984              -0.000447998               0.000588859               0.999999984              -0.000446981               0.000597754               0.999999984              -0.000444904               0.000604526               0.999999984              -0.000442070               0.000609170               0.999999984              -0.000438518               0.000611837               0.999999984              -0.000418194               0.000639955               0.999999984              -0.000378582               0.000545449               0.999999984              -0.000362061               0.000522181               0.999999984              -0.000357948               0.000527318               0.999999984              -0.000360143               0.000544856               0.999999984              -0.000365239               0.000567862               0.999999984              -0.000370991               0.000592489               0.999999984              -0.000376224               0.000617172               0.999999984              -0.000380249               0.000640747               0.999999984              -0.000382495               0.000662383               0.999999984              -0.000382801               0.000681568               0.999999984              -0.000381160               0.000698127               0.999999984              -0.000377682               0.000712193               0.999999984              -0.000372691               0.000724304               0.999999984              -0.000366332               0.000734737               0.999999984              -0.000358652               0.000743454               0.999999984              -0.000349603               0.000750051               0.999999984              -0.000385605               0.000729664               0.999999984              -0.000327139               0.000630212               0.999999984              -0.000307683               0.000608759               0.999999984              -0.000304752               0.000617358               0.999999984              -0.000308475               0.000638916               0.999999984              -0.000314347               0.000666100               0.999999984              -0.000320003               0.000694777               0.999999984              -0.000324217               0.000723388               0.999999984              -0.000326191               0.000750484               0.999999984              -0.000325695               0.000774847               0.999999984              -0.000322552               0.000796250               0.999999984              -0.000316800               0.000814942               0.999999984              -0.000308738               0.000831404               0.999999984              -0.000298577               0.000846373               0.999999984              -0.000286557               0.000859903               0.999999984              -0.000272782               0.000871640               0.999999984              -0.000257433               0.000881085               0.999999984              -0.000350561               0.000811195               0.999999984              -0.000275392               0.000712653               0.999999984              -0.000256695               0.000693290               0.999999984              -0.000256339               0.000704970               0.999999984              -0.000262108               0.000730263               0.999999984              -0.000268883               0.000761332               0.999999984              -0.000274214               0.000794174               0.999999984              -0.000276937               0.000826354               0.999999984              -0.000276460               0.000856084               0.999999984              -0.000272319               0.000882584               0.999999984              -0.000264475               0.000905721               0.999999984              -0.000253226               0.000926301               0.999999984              -0.000239190               0.000945041               0.999999984              -0.000222955               0.000962312               0.999999984              -0.000204886               0.000978138               0.999999984              -0.000185279               0.000992234               0.999999984              -0.000164914               0.001004792               0.999999984              -0.000314848               0.000887711               0.999999984              -0.000232874               0.000802477               0.999999984              -0.000211123               0.000778392               0.999999984              -0.000209411               0.000784202               0.999999984              -0.000214538               0.000804627               0.999999984              -0.000221193               0.000832465               0.999999984              -0.000226994               0.000863756               0.999999984              -0.000230483               0.000895652               0.999999984              -0.000231026               0.000926527               0.999999984              -0.000228275               0.000954935               0.999999984              -0.000221618               0.000980468               0.999999984              -0.000211045               0.001003308               0.999999984              -0.000197096               0.001024046               0.999999984              -0.000180610               0.001043374               0.999999984              -0.000162382               0.001061512               0.999999984              -0.000142670               0.001078696               0.999999984              -0.000122366               0.001094556               0.999999984              -0.000275753               0.000956918               0.999999984              -0.000193191               0.000888693               0.999999984              -0.000168462               0.000865015               0.999999984              -0.000164635               0.000866932               0.999999984              -0.000168468               0.000883431               0.999999984              -0.000174430               0.000908281               0.999999984              -0.000180125               0.000937892               0.999999984              -0.000184103               0.000969237               0.999999984              -0.000185562               0.001000677               0.999999984              -0.000183855               0.001030890               0.999999984              -0.000178460               0.001058983               0.999999984              -0.000168951               0.001084525               0.999999984              -0.000155580               0.001107587               0.999999984              -0.000138799               0.001128805               0.999999984              -0.000119480               0.001148755               0.999999984              -0.000098353               0.001167994               0.999999984              -0.000076075               0.001186591               0.999999984              -0.000234033               0.001017374               0.999999984              -0.000156163               0.000968935               0.999999984              -0.000129890               0.000949361               0.999999984              -0.000123799               0.000950112               0.999999984              -0.000125789               0.000964193               0.999999984              -0.000130599               0.000986877               0.999999984              -0.000135617               0.001014932               0.999999984              -0.000139497               0.001045845               0.999999984              -0.000141475               0.001077778               0.999999984              -0.000140584               0.001109366               0.999999984              -0.000136381               0.001139927               0.999999984              -0.000128226               0.001168544               0.999999984              -0.000115858               0.001194927               0.999999984              -0.000099398               0.001219063               0.999999984              -0.000079169               0.001241483               0.999999984              -0.000055632               0.001262737               0.999999984              -0.000029520               0.001283446               0.999999984              -0.000190066               0.001068070               0.999999984              -0.000121716               0.001040042               0.999999984              -0.000096029               0.001027364               0.999999984              -0.000088294               0.001029401               0.999999984              -0.000088399               0.001042761               0.999999984              -0.000091637               0.001064472               0.999999984              -0.000095516               0.001091776               0.999999984              -0.000098846               0.001122420               0.999999984              -0.000100790               0.001155054               0.999999984              -0.000100417               0.001188192               0.999999984              -0.000097094               0.001221010               0.999999984              -0.000090258               0.001252811               0.999999984              -0.000079596               0.001283002               0.999999984              -0.000064601               0.001311130               0.999999984              -0.000044741               0.001337312               0.999999984              -0.000019839               0.001361798               0.999999984               0.000009968               0.001385217               0.999999984              -0.000144210               0.001108332               0.999999984              -0.000089448               0.001098978               0.999999984              -0.000066956               0.001094499               0.999999984              -0.000058895               0.001099610               0.999999984              -0.000057575               0.001113776               0.999999984              -0.000059187               0.001135505               0.999999984              -0.000061801               0.001162767               0.999999984              -0.000064231               0.001193765               0.999999984              -0.000065796               0.001227135               0.999999984              -0.000065690               0.001261812               0.999999984              -0.000063103               0.001296997               0.999999984              -0.000057674               0.001331827               0.999999984              -0.000049173               0.001365770               0.999999984              -0.000036753               0.001398318               0.999999984              -0.000019206               0.001429189               0.999999984               0.000004182               0.001458176               0.999999984               0.000034194               0.001485494               0.999999984              -0.000096931               0.001137525               0.999999984              -0.000058809               0.001143092               0.999999984              -0.000042062               0.001146300               0.999999984              -0.000035371               0.001155121               0.999999984              -0.000033543               0.001170939               0.999999984              -0.000034017               0.001193378               0.999999984              -0.000035473               0.001221034               0.999999984              -0.000037017               0.001252514               0.999999984              -0.000038053               0.001286740               0.999999984              -0.000037874               0.001322791               0.999999984              -0.000036116               0.001359916               0.999999984              -0.000032438               0.001397364               0.999999984              -0.000026495               0.001434621               0.999999984              -0.000017491               0.001471128               0.999999984              -0.000004405               0.001506491               0.999999984               0.000013929               0.001540212               0.999999984               0.000038689               0.001571952               0.999999984              -0.000048721               0.001155169               0.999999984              -0.000029170               0.001170362               0.999999984              -0.000020199               0.001179072               0.999999984              -0.000016417               0.001190888               0.999999984              -0.000015148               0.001208267               0.999999984              -0.000015136               0.001231494               0.999999984              -0.000015754               0.001259610               0.999999984              -0.000016506               0.001291579               0.999999984              -0.000016990               0.001326436               0.999999984              -0.000016866               0.001363411               0.999999984              -0.000015937               0.001401875               0.999999984              -0.000014133               0.001441145               0.999999984              -0.000011091               0.001480757               0.999999984              -0.000006328               0.001520125               0.999999984               0.000000715               0.001558737               0.999999984               0.000010934               0.001595943               0.999999984               0.000025032               0.001631128               0.999999984               0.000000000               0.001161135               0.999999984              -0.000000000               0.001179613               0.999999984              -0.000000000               0.001190198               0.999999984              -0.000000000               0.001203167               0.999999984              -0.000000000               0.001221264               0.999999984              -0.000000000               0.001244876               0.999999984               0.000000000               0.001273183               0.999999984               0.000000000               0.001305269               0.999999984              -0.000000000               0.001340361               0.999999984              -0.000000000               0.001377666               0.999999984               0.000000000               0.001416589               0.999999984               0.000000000               0.001456515               0.999999984               0.000000000               0.001496975               0.999999984              -0.000000000               0.001537435               0.999999984              -0.000000000               0.001577307               0.999999984               0.000000000               0.001615814               0.999999984              -0.000000000               0.001652265               0.999999984              -0.000516879              -0.000000000               0.999999984              -0.000561190               0.000000000               0.999999984              -0.000581193              -0.000000000               0.999999984              -0.000592789              -0.000000000               0.999999984              -0.000601928              -0.000000000               0.999999984              -0.000611066              -0.000000000               0.999999984              -0.000621081               0.000000000               0.999999984              -0.000632192               0.000000000               0.999999984              -0.000644412               0.000000000               0.999999984              -0.000657618               0.000000000               0.999999984              -0.000671647              -0.000000000               0.999999984              -0.000686202              -0.000000000               0.999999984              -0.000701079              -0.000000000               0.999999984              -0.000715976               0.000000000               0.999999984              -0.000730701               0.000000000               0.999999984              -0.000744886               0.000000000               0.999999984              -0.000757879               0.000000000               0.999999984              -0.000513939              -0.000113269               0.999999984              -0.000555195              -0.000093894               0.999999984              -0.000573319              -0.000086079               0.999999984              -0.000583803              -0.000084113               0.999999984              -0.000592265              -0.000085203               0.999999984              -0.000600928              -0.000088147               0.999999984              -0.000610546              -0.000091890               0.999999984              -0.000621275              -0.000095962               0.999999984              -0.000633060              -0.000100158               0.999999984              -0.000645723              -0.000104021               0.999999984              -0.000659011              -0.000107353               0.999999984              -0.000672641              -0.000109874               0.999999984              -0.000686366              -0.000111388               0.999999984              -0.000699966              -0.000111762               0.999999984              -0.000713301              -0.000110530               0.999999984              -0.000726014              -0.000106820               0.999999984              -0.000737652              -0.000099716               0.999999984              -0.000505305              -0.000225379               0.999999984              -0.000537717              -0.000187100               0.999999984              -0.000550551              -0.000172458               0.999999984              -0.000557967              -0.000169351               0.999999984              -0.000564621              -0.000172213               0.999999984              -0.000572066              -0.000178326               0.999999984              -0.000580708              -0.000186020               0.999999984              -0.000590383              -0.000194384               0.999999984              -0.000600915              -0.000202682               0.999999984              -0.000612041              -0.000210315               0.999999984              -0.000623413              -0.000216913               0.999999984              -0.000634810              -0.000222102               0.999999984              -0.000645977              -0.000225480               0.999999984              -0.000656719              -0.000226664               0.999999984              -0.000666786              -0.000225010               0.999999984              -0.000675979              -0.000219444               0.999999984              -0.000684317              -0.000209119               0.999999984              -0.000491069              -0.000335221               0.999999984              -0.000509571              -0.000279128               0.999999984              -0.000514862              -0.000259348               0.999999984              -0.000518203              -0.000256472               0.999999984              -0.000522636              -0.000261993               0.999999984              -0.000528703              -0.000271875               0.999999984              -0.000536121              -0.000283771               0.999999984              -0.000544408              -0.000296399               0.999999984              -0.000553307              -0.000308864               0.999999984              -0.000562375              -0.000320211               0.999999984              -0.000571236              -0.000329958               0.999999984              -0.000579558              -0.000337750               0.999999984              -0.000587165              -0.000343325               0.999999984              -0.000593890              -0.000346247               0.999999984              -0.000599739              -0.000345894               0.999999984              -0.000604841              -0.000341535               0.999999984              -0.000609344              -0.000332936               0.999999984              -0.000471515              -0.000441652               0.999999984              -0.000472263              -0.000369666               0.999999984              -0.000469161              -0.000346806               0.999999984              -0.000468579              -0.000345641               0.999999984              -0.000471166              -0.000354771               0.999999984              -0.000476149              -0.000368834               0.999999984              -0.000482588              -0.000385041               0.999999984              -0.000489782              -0.000401819               0.999999984              -0.000497020              -0.000418180               0.999999984              -0.000503803              -0.000433012               0.999999984              -0.000509811              -0.000445920               0.999999984              -0.000514892              -0.000456653               0.999999984              -0.000518792              -0.000464986               0.999999984              -0.000521561              -0.000470640               0.999999984              -0.000523370              -0.000473364               0.999999984              -0.000524441              -0.000473091               0.999999984              -0.000525178              -0.000470004               0.999999984              -0.000447061              -0.000543586               0.999999984              -0.000427825              -0.000458489               0.999999984              -0.000416978              -0.000434605               0.999999984              -0.000413695              -0.000436313               0.999999984              -0.000415453              -0.000449580               0.999999984              -0.000420127              -0.000468074               0.999999984              -0.000426138              -0.000488553               0.999999984              -0.000432279              -0.000509397               0.999999984              -0.000437833              -0.000529377               0.999999984              -0.000442475              -0.000547618               0.999999984              -0.000445782              -0.000563764               0.999999984              -0.000447650              -0.000577613               0.999999984              -0.000447998              -0.000588859               0.999999984              -0.000446981              -0.000597754               0.999999984              -0.000444904              -0.000604526               0.999999984              -0.000442070              -0.000609170               0.999999984              -0.000438518              -0.000611837               0.999999984              -0.000418194              -0.000639955               0.999999984              -0.000378582              -0.000545449               0.999999984              -0.000362061              -0.000522181               0.999999984              -0.000357948              -0.000527318               0.999999984              -0.000360143              -0.000544856               0.999999984              -0.000365239              -0.000567862               0.999999984              -0.000370991              -0.000592489               0.999999984              -0.000376224              -0.000617172               0.999999984              -0.000380249              -0.000640747               0.999999984              -0.000382495              -0.000662383               0.999999984              -0.000382801              -0.000681568               0.999999984              -0.000381160              -0.000698127               0.999999984              -0.000377682              -0.000712193               0.999999984              -0.000372691              -0.000724304               0.999999984              -0.000366332              -0.000734737               0.999999984              -0.000358652              -0.000743454               0.999999984              -0.000349603              -0.000750051               0.999999984              -0.000385605              -0.000729664               0.999999984              -0.000327139              -0.000630212               0.999999984              -0.000307683              -0.000608759               0.999999984              -0.000304752              -0.000617358               0.999999984              -0.000308475              -0.000638916               0.999999984              -0.000314347              -0.000666100               0.999999984              -0.000320003              -0.000694777               0.999999984              -0.000324217              -0.000723388               0.999999984              -0.000326191              -0.000750484               0.999999984              -0.000325695              -0.000774847               0.999999984              -0.000322552              -0.000796250               0.999999984              -0.000316800              -0.000814942               0.999999984              -0.000308738              -0.000831404               0.999999984              -0.000298577              -0.000846373               0.999999984              -0.000286557              -0.000859903               0.999999984              -0.000272782              -0.000871640               0.999999984              -0.000257433              -0.000881085               0.999999984              -0.000350561              -0.000811195               0.999999984              -0.000275392              -0.000712653               0.999999984              -0.000256695              -0.000693290               0.999999984              -0.000256339              -0.000704970               0.999999984              -0.000262108              -0.000730263               0.999999984              -0.000268883              -0.000761332               0.999999984              -0.000274214              -0.000794174               0.999999984              -0.000276937              -0.000826354               0.999999984              -0.000276460              -0.000856084               0.999999984              -0.000272319              -0.000882584               0.999999984              -0.000264475              -0.000905721               0.999999984              -0.000253226              -0.000926301               0.999999984              -0.000239190              -0.000945041               0.999999984              -0.000222955              -0.000962312               0.999999984              -0.000204886              -0.000978138               0.999999984              -0.000185279              -0.000992234               0.999999984              -0.000164914              -0.001004792               0.999999984              -0.000314848              -0.000887711               0.999999984              -0.000232874              -0.000802477               0.999999984              -0.000211123              -0.000778392               0.999999984              -0.000209411              -0.000784202               0.999999984              -0.000214538              -0.000804627               0.999999984              -0.000221193              -0.000832465               0.999999984              -0.000226994              -0.000863756               0.999999984              -0.000230483              -0.000895652               0.999999984              -0.000231026              -0.000926527               0.999999984              -0.000228275              -0.000954935               0.999999984              -0.000221618              -0.000980468               0.999999984              -0.000211045              -0.001003308               0.999999984              -0.000197096              -0.001024046               0.999999984              -0.000180610              -0.001043374               0.999999984              -0.000162382              -0.001061512               0.999999984              -0.000142670              -0.001078696               0.999999984              -0.000122366              -0.001094556               0.999999984              -0.000275753              -0.000956918               0.999999984              -0.000193191              -0.000888693               0.999999984              -0.000168462              -0.000865015               0.999999984              -0.000164635              -0.000866932               0.999999984              -0.000168468              -0.000883431               0.999999984              -0.000174430              -0.000908281               0.999999984              -0.000180125              -0.000937892               0.999999984              -0.000184103              -0.000969237               0.999999984              -0.000185562              -0.001000677               0.999999984              -0.000183855              -0.001030890               0.999999984              -0.000178460              -0.001058983               0.999999984              -0.000168951              -0.001084525               0.999999984              -0.000155580              -0.001107587               0.999999984              -0.000138799              -0.001128805               0.999999984              -0.000119480              -0.001148755               0.999999984              -0.000098353              -0.001167994               0.999999984              -0.000076075              -0.001186591               0.999999984              -0.000234033              -0.001017374               0.999999984              -0.000156163              -0.000968935               0.999999984              -0.000129890              -0.000949361               0.999999984              -0.000123799              -0.000950112               0.999999984              -0.000125789              -0.000964193               0.999999984              -0.000130599              -0.000986877               0.999999984              -0.000135617              -0.001014932               0.999999984              -0.000139497              -0.001045845               0.999999984              -0.000141475              -0.001077778               0.999999984              -0.000140584              -0.001109366               0.999999984              -0.000136381              -0.001139927               0.999999984              -0.000128226              -0.001168544               0.999999984              -0.000115858              -0.001194927               0.999999984              -0.000099398              -0.001219063               0.999999984              -0.000079169              -0.001241483               0.999999984              -0.000055632              -0.001262737               0.999999984              -0.000029520              -0.001283446               0.999999984              -0.000190066              -0.001068070               0.999999984              -0.000121716              -0.001040042               0.999999984              -0.000096029              -0.001027364               0.999999984              -0.000088294              -0.001029401               0.999999984              -0.000088399              -0.001042761               0.999999984              -0.000091637              -0.001064472               0.999999984              -0.000095516              -0.001091776               0.999999984              -0.000098846              -0.001122420               0.999999984              -0.000100790              -0.001155054               0.999999984              -0.000100417              -0.001188192               0.999999984              -0.000097094              -0.001221010               0.999999984              -0.000090258              -0.001252811               0.999999984              -0.000079596              -0.001283002               0.999999984              -0.000064601              -0.001311130               0.999999984              -0.000044741              -0.001337312               0.999999984              -0.000019839              -0.001361798               0.999999984               0.000009968              -0.001385217               0.999999984              -0.000144210              -0.001108332               0.999999984              -0.000089448              -0.001098978               0.999999984              -0.000066956              -0.001094499               0.999999984              -0.000058895              -0.001099610               0.999999984              -0.000057575              -0.001113776               0.999999984              -0.000059187              -0.001135505               0.999999984              -0.000061801              -0.001162767               0.999999984              -0.000064231              -0.001193765               0.999999984              -0.000065796              -0.001227135               0.999999984              -0.000065690              -0.001261812               0.999999984              -0.000063103              -0.001296997               0.999999984              -0.000057674              -0.001331827               0.999999984              -0.000049173              -0.001365770               0.999999984              -0.000036753              -0.001398318               0.999999984              -0.000019206              -0.001429189               0.999999984               0.000004182              -0.001458176               0.999999984               0.000034194              -0.001485494               0.999999984              -0.000096931              -0.001137525               0.999999984              -0.000058809              -0.001143092               0.999999984              -0.000042062              -0.001146300               0.999999984              -0.000035371              -0.001155121               0.999999984              -0.000033543              -0.001170939               0.999999984              -0.000034017              -0.001193378               0.999999984              -0.000035473              -0.001221034               0.999999984              -0.000037017              -0.001252514               0.999999984              -0.000038053              -0.001286740               0.999999984              -0.000037874              -0.001322791               0.999999984              -0.000036116              -0.001359916               0.999999984              -0.000032438              -0.001397364               0.999999984              -0.000026495              -0.001434621               0.999999984              -0.000017491              -0.001471128               0.999999984              -0.000004405              -0.001506491               0.999999984               0.000013929              -0.001540212               0.999999984               0.000038689              -0.001571952               0.999999984              -0.000048721              -0.001155169               0.999999984              -0.000029170              -0.001170362               0.999999984              -0.000020199              -0.001179072               0.999999984              -0.000016417              -0.001190888               0.999999984              -0.000015148              -0.001208267               0.999999984              -0.000015136              -0.001231494               0.999999984              -0.000015754              -0.001259610               0.999999984              -0.000016506              -0.001291579               0.999999984              -0.000016990              -0.001326436               0.999999984              -0.000016866              -0.001363411               0.999999984              -0.000015937              -0.001401875               0.999999984              -0.000014133              -0.001441145               0.999999984              -0.000011091              -0.001480757               0.999999984              -0.000006328              -0.001520125               0.999999984               0.000000715              -0.001558737               0.999999984               0.000010934              -0.001595943               0.999999984               0.000025032              -0.001631128               0.999999984              -0.000000000              -0.001161135               0.999999984              -0.000000000              -0.001179613               0.999999984              -0.000000000              -0.001190198               0.999999984              -0.000000000              -0.001203167               0.999999984               0.000000000              -0.001221264               0.999999984               0.000000000              -0.001244876               0.999999984              -0.000000000              -0.001273183               0.999999984              -0.000000000              -0.001305269               0.999999984              -0.000000000              -0.001340361               0.999999984               0.000000000              -0.001377666               0.999999984               0.000000000              -0.001416589               0.999999984              -0.000000000              -0.001456515               0.999999984              -0.000000000              -0.001496975               0.999999984               0.000000000              -0.001537435               0.999999984               0.000000000              -0.001577307               0.999999984              -0.000000000              -0.001615814               0.999999984               0.000000000              -0.001652265               0.999999984               0.000516879               0.000000000               0.999999984               0.000561190              -0.000000000               0.999999984               0.000581193               0.000000000               0.999999984               0.000592789              -0.000000000               0.999999984               0.000601928               0.000000000               0.999999984               0.000611066               0.000000000               0.999999984               0.000621081               0.000000000               0.999999984               0.000632192               0.000000000               0.999999984               0.000644412               0.000000000               0.999999984               0.000657618              -0.000000000               0.999999984               0.000671647              -0.000000000               0.999999984               0.000686202               0.000000000               0.999999984               0.000701079               0.000000000               0.999999984               0.000715976               0.000000000               0.999999984               0.000730701               0.000000000               0.999999984               0.000744886              -0.000000000               0.999999984               0.000757879              -0.000000000               0.999999984               0.000513939              -0.000113269               0.999999984               0.000555195              -0.000093894               0.999999984               0.000573319              -0.000086079               0.999999984               0.000583803              -0.000084113               0.999999984               0.000592265              -0.000085203               0.999999984               0.000600928              -0.000088147               0.999999984               0.000610546              -0.000091890               0.999999984               0.000621275              -0.000095962               0.999999984               0.000633060              -0.000100158               0.999999984               0.000645723              -0.000104021               0.999999984               0.000659011              -0.000107353               0.999999984               0.000672641              -0.000109874               0.999999984               0.000686366              -0.000111388               0.999999984               0.000699966              -0.000111762               0.999999984               0.000713301              -0.000110530               0.999999984               0.000726014              -0.000106820               0.999999984               0.000737652              -0.000099716               0.999999984               0.000505305              -0.000225379               0.999999984               0.000537717              -0.000187100               0.999999984               0.000550551              -0.000172458               0.999999984               0.000557967              -0.000169351               0.999999984               0.000564621              -0.000172213               0.999999984               0.000572066              -0.000178326               0.999999984               0.000580708              -0.000186020               0.999999984               0.000590383              -0.000194384               0.999999984               0.000600915              -0.000202682               0.999999984               0.000612041              -0.000210315               0.999999984               0.000623413              -0.000216913               0.999999984               0.000634810              -0.000222102               0.999999984               0.000645977              -0.000225480               0.999999984               0.000656719              -0.000226664               0.999999984               0.000666786              -0.000225010               0.999999984               0.000675979              -0.000219444               0.999999984               0.000684317              -0.000209119               0.999999984               0.000491069              -0.000335221               0.999999984               0.000509571              -0.000279128               0.999999984               0.000514862              -0.000259348               0.999999984               0.000518203              -0.000256472               0.999999984               0.000522636              -0.000261993               0.999999984               0.000528703              -0.000271875               0.999999984               0.000536121              -0.000283771               0.999999984               0.000544408              -0.000296399               0.999999984               0.000553307              -0.000308864               0.999999984               0.000562375              -0.000320211               0.999999984               0.000571236              -0.000329958               0.999999984               0.000579558              -0.000337750               0.999999984               0.000587165              -0.000343325               0.999999984               0.000593890              -0.000346247               0.999999984               0.000599739              -0.000345894               0.999999984               0.000604841              -0.000341535               0.999999984               0.000609344              -0.000332936               0.999999984               0.000471515              -0.000441652               0.999999984               0.000472263              -0.000369666               0.999999984               0.000469161              -0.000346806               0.999999984               0.000468579              -0.000345641               0.999999984               0.000471166              -0.000354771               0.999999984               0.000476149              -0.000368834               0.999999984               0.000482588              -0.000385041               0.999999984               0.000489782              -0.000401819               0.999999984               0.000497020              -0.000418180               0.999999984               0.000503803              -0.000433012               0.999999984               0.000509811              -0.000445920               0.999999984               0.000514892              -0.000456653               0.999999984               0.000518792              -0.000464986               0.999999984               0.000521561              -0.000470640               0.999999984               0.000523370              -0.000473364               0.999999984               0.000524441              -0.000473091               0.999999984               0.000525178              -0.000470004               0.999999984               0.000447061              -0.000543586               0.999999984               0.000427825              -0.000458489               0.999999984               0.000416978              -0.000434605               0.999999984               0.000413695              -0.000436313               0.999999984               0.000415453              -0.000449580               0.999999984               0.000420127              -0.000468074               0.999999984               0.000426138              -0.000488553               0.999999984               0.000432279              -0.000509397               0.999999984               0.000437833              -0.000529377               0.999999984               0.000442475              -0.000547618               0.999999984               0.000445782              -0.000563764               0.999999984               0.000447650              -0.000577613               0.999999984               0.000447998              -0.000588859               0.999999984               0.000446981              -0.000597754               0.999999984               0.000444904              -0.000604526               0.999999984               0.000442070              -0.000609170               0.999999984               0.000438518              -0.000611837               0.999999984               0.000418194              -0.000639955               0.999999984               0.000378582              -0.000545449               0.999999984               0.000362061              -0.000522181               0.999999984               0.000357948              -0.000527318               0.999999984               0.000360143              -0.000544856               0.999999984               0.000365239              -0.000567862               0.999999984               0.000370991              -0.000592489               0.999999984               0.000376224              -0.000617172               0.999999984               0.000380249              -0.000640747               0.999999984               0.000382495              -0.000662383               0.999999984               0.000382801              -0.000681568               0.999999984               0.000381160              -0.000698127               0.999999984               0.000377682              -0.000712193               0.999999984               0.000372691              -0.000724304               0.999999984               0.000366332              -0.000734737               0.999999984               0.000358652              -0.000743454               0.999999984               0.000349603              -0.000750051               0.999999984               0.000385605              -0.000729664               0.999999984               0.000327139              -0.000630212               0.999999984               0.000307683              -0.000608759               0.999999984               0.000304752              -0.000617358               0.999999984               0.000308475              -0.000638916               0.999999984               0.000314347              -0.000666100               0.999999984               0.000320003              -0.000694777               0.999999984               0.000324217              -0.000723388               0.999999984               0.000326191              -0.000750484               0.999999984               0.000325695              -0.000774847               0.999999984               0.000322552              -0.000796250               0.999999984               0.000316800              -0.000814942               0.999999984               0.000308738              -0.000831404               0.999999984               0.000298577              -0.000846373               0.999999984               0.000286557              -0.000859903               0.999999984               0.000272782              -0.000871640               0.999999984               0.000257433              -0.000881085               0.999999984               0.000350561              -0.000811195               0.999999984               0.000275392              -0.000712653               0.999999984               0.000256695              -0.000693290               0.999999984               0.000256339              -0.000704970               0.999999984               0.000262108              -0.000730263               0.999999984               0.000268883              -0.000761332               0.999999984               0.000274214              -0.000794174               0.999999984               0.000276937              -0.000826354               0.999999984               0.000276460              -0.000856084               0.999999984               0.000272319              -0.000882584               0.999999984               0.000264475              -0.000905721               0.999999984               0.000253226              -0.000926301               0.999999984               0.000239190              -0.000945041               0.999999984               0.000222955              -0.000962312               0.999999984               0.000204886              -0.000978138               0.999999984               0.000185279              -0.000992234               0.999999984               0.000164914              -0.001004792               0.999999984               0.000314848              -0.000887711               0.999999984               0.000232874              -0.000802477               0.999999984               0.000211123              -0.000778392               0.999999984               0.000209411              -0.000784202               0.999999984               0.000214538              -0.000804627               0.999999984               0.000221193              -0.000832465               0.999999984               0.000226994              -0.000863756               0.999999984               0.000230483              -0.000895652               0.999999984               0.000231026              -0.000926527               0.999999984               0.000228275              -0.000954935               0.999999984               0.000221618              -0.000980468               0.999999984               0.000211045              -0.001003308               0.999999984               0.000197096              -0.001024046               0.999999984               0.000180610              -0.001043374               0.999999984               0.000162382              -0.001061512               0.999999984               0.000142670              -0.001078696               0.999999984               0.000122366              -0.001094556               0.999999984               0.000275753              -0.000956918               0.999999984               0.000193191              -0.000888693               0.999999984               0.000168462              -0.000865015               0.999999984               0.000164635              -0.000866932               0.999999984               0.000168468              -0.000883431               0.999999984               0.000174430              -0.000908281               0.999999984               0.000180125              -0.000937892               0.999999984               0.000184103              -0.000969237               0.999999984               0.000185562              -0.001000677               0.999999984               0.000183855              -0.001030890               0.999999984               0.000178460              -0.001058983               0.999999984               0.000168951              -0.001084525               0.999999984               0.000155580              -0.001107587               0.999999984               0.000138799              -0.001128805               0.999999984               0.000119480              -0.001148755               0.999999984               0.000098353              -0.001167994               0.999999984               0.000076075              -0.001186591               0.999999984               0.000234033              -0.001017374               0.999999984               0.000156163              -0.000968935               0.999999984               0.000129890              -0.000949361               0.999999984               0.000123799              -0.000950112               0.999999984               0.000125789              -0.000964193               0.999999984               0.000130599              -0.000986877               0.999999984               0.000135617              -0.001014932               0.999999984               0.000139497              -0.001045845               0.999999984               0.000141475              -0.001077778               0.999999984               0.000140584              -0.001109366               0.999999984               0.000136381              -0.001139927               0.999999984               0.000128226              -0.001168544               0.999999984               0.000115858              -0.001194927               0.999999984               0.000099398              -0.001219063               0.999999984               0.000079169              -0.001241483               0.999999984               0.000055632              -0.001262737               0.999999984               0.000029520              -0.001283446               0.999999984               0.000190066              -0.001068070               0.999999984               0.000121716              -0.001040042               0.999999984               0.000096029              -0.001027364               0.999999984               0.000088294              -0.001029401               0.999999984               0.000088399              -0.001042761               0.999999984               0.000091637              -0.001064472               0.999999984               0.000095516              -0.001091776               0.999999984               0.000098846              -0.001122420               0.999999984               0.000100790              -0.001155054               0.999999984               0.000100417              -0.001188192               0.999999984               0.000097094              -0.001221010               0.999999984               0.000090258              -0.001252811               0.999999984               0.000079596              -0.001283002               0.999999984               0.000064601              -0.001311130               0.999999984               0.000044741              -0.001337312               0.999999984               0.000019839              -0.001361798               0.999999984              -0.000009968              -0.001385217               0.999999984               0.000144210              -0.001108332               0.999999984               0.000089448              -0.001098978               0.999999984               0.000066956              -0.001094499               0.999999984               0.000058895              -0.001099610               0.999999984               0.000057575              -0.001113776               0.999999984               0.000059187              -0.001135505               0.999999984               0.000061801              -0.001162767               0.999999984               0.000064231              -0.001193765               0.999999984               0.000065796              -0.001227135               0.999999984               0.000065690              -0.001261812               0.999999984               0.000063103              -0.001296997               0.999999984               0.000057674              -0.001331827               0.999999984               0.000049173              -0.001365770               0.999999984               0.000036753              -0.001398318               0.999999984               0.000019206              -0.001429189               0.999999984              -0.000004182              -0.001458176               0.999999984              -0.000034194              -0.001485494               0.999999984               0.000096931              -0.001137525               0.999999984               0.000058809              -0.001143092               0.999999984               0.000042062              -0.001146300               0.999999984               0.000035371              -0.001155121               0.999999984               0.000033543              -0.001170939               0.999999984               0.000034017              -0.001193378               0.999999984               0.000035473              -0.001221034               0.999999984               0.000037017              -0.001252514               0.999999984               0.000038053              -0.001286740               0.999999984               0.000037874              -0.001322791               0.999999984               0.000036116              -0.001359916               0.999999984               0.000032438              -0.001397364               0.999999984               0.000026495              -0.001434621               0.999999984               0.000017491              -0.001471128               0.999999984               0.000004405              -0.001506491               0.999999984              -0.000013929              -0.001540212               0.999999984              -0.000038689              -0.001571952               0.999999984               0.000048721              -0.001155169               0.999999984               0.000029170              -0.001170362               0.999999984               0.000020199              -0.001179072               0.999999984               0.000016417              -0.001190888               0.999999984               0.000015148              -0.001208267               0.999999984               0.000015136              -0.001231494               0.999999984               0.000015754              -0.001259610               0.999999984               0.000016506              -0.001291579               0.999999984               0.000016990              -0.001326436               0.999999984               0.000016866              -0.001363411               0.999999984               0.000015937              -0.001401875               0.999999984               0.000014133              -0.001441145               0.999999984               0.000011091              -0.001480757               0.999999984               0.000006328              -0.001520125               0.999999984              -0.000000715              -0.001558737               0.999999984              -0.000010934              -0.001595943               0.999999984              -0.000025032              -0.001631128               0.999999984              -0.000000000              -0.001161135               0.999999984              -0.000000000              -0.001179613               0.999999984              -0.000000000              -0.001190198               0.999999984              -0.000000000              -0.001203167               0.999999984               0.000000000              -0.001221264               0.999999984               0.000000000              -0.001244876               0.999999984              -0.000000000              -0.001273183               0.999999984              -0.000000000              -0.001305269               0.999999984              -0.000000000              -0.001340361               0.999999984               0.000000000              -0.001377666               0.999999984               0.000000000              -0.001416589               0.999999984              -0.000000000              -0.001456515               0.999999984              -0.000000000              -0.001496975               0.999999984               0.000000000              -0.001537435               0.999999984               0.000000000              -0.001577307               0.999999984              -0.000000000              -0.001615814               0.999999984               0.000000000              -0.001652265               0.999999984               0.000516879               0.000000000               0.999999984               0.000561190              -0.000000000               0.999999984               0.000581193               0.000000000               0.999999984               0.000592789              -0.000000000               0.999999984               0.000601928               0.000000000               0.999999984               0.000611066               0.000000000               0.999999984               0.000621081               0.000000000               0.999999984               0.000632192               0.000000000               0.999999984               0.000644412               0.000000000               0.999999984               0.000657618              -0.000000000               0.999999984               0.000671647              -0.000000000               0.999999984               0.000686202               0.000000000               0.999999984               0.000701079               0.000000000               0.999999984               0.000715976               0.000000000               0.999999984               0.000730701               0.000000000               0.999999984               0.000744886              -0.000000000               0.999999984               0.000757879              -0.000000000               0.999999984               0.000513939               0.000113269               0.999999984               0.000555195               0.000093894               0.999999984               0.000573319               0.000086079               0.999999984               0.000583803               0.000084113               0.999999984               0.000592265               0.000085203               0.999999984               0.000600928               0.000088147               0.999999984               0.000610546               0.000091890               0.999999984               0.000621275               0.000095962               0.999999984               0.000633060               0.000100158               0.999999984               0.000645723               0.000104021               0.999999984               0.000659011               0.000107353               0.999999984               0.000672641               0.000109874               0.999999984               0.000686366               0.000111388               0.999999984               0.000699966               0.000111762               0.999999984               0.000713301               0.000110530               0.999999984               0.000726014               0.000106820               0.999999984               0.000737652               0.000099716               0.999999984               0.000505305               0.000225379               0.999999984               0.000537717               0.000187100               0.999999984               0.000550551               0.000172458               0.999999984               0.000557967               0.000169351               0.999999984               0.000564621               0.000172213               0.999999984               0.000572066               0.000178326               0.999999984               0.000580708               0.000186020               0.999999984               0.000590383               0.000194384               0.999999984               0.000600915               0.000202682               0.999999984               0.000612041               0.000210315               0.999999984               0.000623413               0.000216913               0.999999984               0.000634810               0.000222102               0.999999984               0.000645977               0.000225480               0.999999984               0.000656719               0.000226664               0.999999984               0.000666786               0.000225010               0.999999984               0.000675979               0.000219444               0.999999984               0.000684317               0.000209119               0.999999984               0.000491069               0.000335221               0.999999984               0.000509571               0.000279128               0.999999984               0.000514862               0.000259348               0.999999984               0.000518203               0.000256472               0.999999984               0.000522636               0.000261993               0.999999984               0.000528703               0.000271875               0.999999984               0.000536121               0.000283771               0.999999984               0.000544408               0.000296399               0.999999984               0.000553307               0.000308864               0.999999984               0.000562375               0.000320211               0.999999984               0.000571236               0.000329958               0.999999984               0.000579558               0.000337750               0.999999984               0.000587165               0.000343325               0.999999984               0.000593890               0.000346247               0.999999984               0.000599739               0.000345894               0.999999984               0.000604841               0.000341535               0.999999984               0.000609344               0.000332936               0.999999984               0.000471515               0.000441652               0.999999984               0.000472263               0.000369666               0.999999984               0.000469161               0.000346806               0.999999984               0.000468579               0.000345641               0.999999984               0.000471166               0.000354771               0.999999984               0.000476149               0.000368834               0.999999984               0.000482588               0.000385041               0.999999984               0.000489782               0.000401819               0.999999984               0.000497020               0.000418180               0.999999984               0.000503803               0.000433012               0.999999984               0.000509811               0.000445920               0.999999984               0.000514892               0.000456653               0.999999984               0.000518792               0.000464986               0.999999984               0.000521561               0.000470640               0.999999984               0.000523370               0.000473364               0.999999984               0.000524441               0.000473091               0.999999984               0.000525178               0.000470004               0.999999984               0.000447061               0.000543586               0.999999984               0.000427825               0.000458489               0.999999984               0.000416978               0.000434605               0.999999984               0.000413695               0.000436313               0.999999984               0.000415453               0.000449580               0.999999984               0.000420127               0.000468074               0.999999984               0.000426138               0.000488553               0.999999984               0.000432279               0.000509397               0.999999984               0.000437833               0.000529377               0.999999984               0.000442475               0.000547618               0.999999984               0.000445782               0.000563764               0.999999984               0.000447650               0.000577613               0.999999984               0.000447998               0.000588859               0.999999984               0.000446981               0.000597754               0.999999984               0.000444904               0.000604526               0.999999984               0.000442070               0.000609170               0.999999984               0.000438518               0.000611837               0.999999984               0.000418194               0.000639955               0.999999984               0.000378582               0.000545449               0.999999984               0.000362061               0.000522181               0.999999984               0.000357948               0.000527318               0.999999984               0.000360143               0.000544856               0.999999984               0.000365239               0.000567862               0.999999984               0.000370991               0.000592489               0.999999984               0.000376224               0.000617172               0.999999984               0.000380249               0.000640747               0.999999984               0.000382495               0.000662383               0.999999984               0.000382801               0.000681568               0.999999984               0.000381160               0.000698127               0.999999984               0.000377682               0.000712193               0.999999984               0.000372691               0.000724304               0.999999984               0.000366332               0.000734737               0.999999984               0.000358652               0.000743454               0.999999984               0.000349603               0.000750051               0.999999984               0.000385605               0.000729664               0.999999984               0.000327139               0.000630212               0.999999984               0.000307683               0.000608759               0.999999984               0.000304752               0.000617358               0.999999984               0.000308475               0.000638916               0.999999984               0.000314347               0.000666100               0.999999984               0.000320003               0.000694777               0.999999984               0.000324217               0.000723388               0.999999984               0.000326191               0.000750484               0.999999984               0.000325695               0.000774847               0.999999984               0.000322552               0.000796250               0.999999984               0.000316800               0.000814942               0.999999984               0.000308738               0.000831404               0.999999984               0.000298577               0.000846373               0.999999984               0.000286557               0.000859903               0.999999984               0.000272782               0.000871640               0.999999984               0.000257433               0.000881085               0.999999984               0.000350561               0.000811195               0.999999984               0.000275392               0.000712653               0.999999984               0.000256695               0.000693290               0.999999984               0.000256339               0.000704970               0.999999984               0.000262108               0.000730263               0.999999984               0.000268883               0.000761332               0.999999984               0.000274214               0.000794174               0.999999984               0.000276937               0.000826354               0.999999984               0.000276460               0.000856084               0.999999984               0.000272319               0.000882584               0.999999984               0.000264475               0.000905721               0.999999984               0.000253226               0.000926301               0.999999984               0.000239190               0.000945041               0.999999984               0.000222955               0.000962312               0.999999984               0.000204886               0.000978138               0.999999984               0.000185279               0.000992234               0.999999984               0.000164914               0.001004792               0.999999984               0.000314848               0.000887711               0.999999984               0.000232874               0.000802477               0.999999984               0.000211123               0.000778392               0.999999984               0.000209411               0.000784202               0.999999984               0.000214538               0.000804627               0.999999984               0.000221193               0.000832465               0.999999984               0.000226994               0.000863756               0.999999984               0.000230483               0.000895652               0.999999984               0.000231026               0.000926527               0.999999984               0.000228275               0.000954935               0.999999984               0.000221618               0.000980468               0.999999984               0.000211045               0.001003308               0.999999984               0.000197096               0.001024046               0.999999984               0.000180610               0.001043374               0.999999984               0.000162382               0.001061512               0.999999984               0.000142670               0.001078696               0.999999984               0.000122366               0.001094556               0.999999984               0.000275753               0.000956918               0.999999984               0.000193191               0.000888693               0.999999984               0.000168462               0.000865015               0.999999984               0.000164635               0.000866932               0.999999984               0.000168468               0.000883431               0.999999984               0.000174430               0.000908281               0.999999984               0.000180125               0.000937892               0.999999984               0.000184103               0.000969237               0.999999984               0.000185562               0.001000677               0.999999984               0.000183855               0.001030890               0.999999984               0.000178460               0.001058983               0.999999984               0.000168951               0.001084525               0.999999984               0.000155580               0.001107587               0.999999984               0.000138799               0.001128805               0.999999984               0.000119480               0.001148755               0.999999984               0.000098353               0.001167994               0.999999984               0.000076075               0.001186591               0.999999984               0.000234033               0.001017374               0.999999984               0.000156163               0.000968935               0.999999984               0.000129890               0.000949361               0.999999984               0.000123799               0.000950112               0.999999984               0.000125789               0.000964193               0.999999984               0.000130599               0.000986877               0.999999984               0.000135617               0.001014932               0.999999984               0.000139497               0.001045845               0.999999984               0.000141475               0.001077778               0.999999984               0.000140584               0.001109366               0.999999984               0.000136381               0.001139927               0.999999984               0.000128226               0.001168544               0.999999984               0.000115858               0.001194927               0.999999984               0.000099398               0.001219063               0.999999984               0.000079169               0.001241483               0.999999984               0.000055632               0.001262737               0.999999984               0.000029520               0.001283446               0.999999984               0.000190066               0.001068070               0.999999984               0.000121716               0.001040042               0.999999984               0.000096029               0.001027364               0.999999984               0.000088294               0.001029401               0.999999984               0.000088399               0.001042761               0.999999984               0.000091637               0.001064472               0.999999984               0.000095516               0.001091776               0.999999984               0.000098846               0.001122420               0.999999984               0.000100790               0.001155054               0.999999984               0.000100417               0.001188192               0.999999984               0.000097094               0.001221010               0.999999984               0.000090258               0.001252811               0.999999984               0.000079596               0.001283002               0.999999984               0.000064601               0.001311130               0.999999984               0.000044741               0.001337312               0.999999984               0.000019839               0.001361798               0.999999984              -0.000009968               0.001385217               0.999999984               0.000144210               0.001108332               0.999999984               0.000089448               0.001098978               0.999999984               0.000066956               0.001094499               0.999999984               0.000058895               0.001099610               0.999999984               0.000057575               0.001113776               0.999999984               0.000059187               0.001135505               0.999999984               0.000061801               0.001162767               0.999999984               0.000064231               0.001193765               0.999999984               0.000065796               0.001227135               0.999999984               0.000065690               0.001261812               0.999999984               0.000063103               0.001296997               0.999999984               0.000057674               0.001331827               0.999999984               0.000049173               0.001365770               0.999999984               0.000036753               0.001398318               0.999999984               0.000019206               0.001429189               0.999999984              -0.000004182               0.001458176               0.999999984              -0.000034194               0.001485494               0.999999984               0.000096931               0.001137525               0.999999984               0.000058809               0.001143092               0.999999984               0.000042062               0.001146300               0.999999984               0.000035371               0.001155121               0.999999984               0.000033543               0.001170939               0.999999984               0.000034017               0.001193378               0.999999984               0.000035473               0.001221034               0.999999984               0.000037017               0.001252514               0.999999984               0.000038053               0.001286740               0.999999984               0.000037874               0.001322791               0.999999984               0.000036116               0.001359916               0.999999984               0.000032438               0.001397364               0.999999984               0.000026495               0.001434621               0.999999984               0.000017491               0.001471128               0.999999984               0.000004405               0.001506491               0.999999984              -0.000013929               0.001540212               0.999999984              -0.000038689               0.001571952               0.999999984               0.000048721               0.001155169               0.999999984               0.000029170               0.001170362               0.999999984               0.000020199               0.001179072               0.999999984               0.000016417               0.001190888               0.999999984               0.000015148               0.001208267               0.999999984               0.000015136               0.001231494               0.999999984               0.000015754               0.001259610               0.999999984               0.000016506               0.001291579               0.999999984               0.000016990               0.001326436               0.999999984               0.000016866               0.001363411               0.999999984               0.000015937               0.001401875               0.999999984               0.000014133               0.001441145               0.999999984               0.000011091               0.001480757               0.999999984               0.000006328               0.001520125               0.999999984              -0.000000715               0.001558737               0.999999984              -0.000010934               0.001595943               0.999999984              -0.000025032               0.001631128               0.999999984               0.000000000               0.001161135               0.999999984              -0.000000000               0.001179613               0.999999984              -0.000000000               0.001190198               0.999999984              -0.000000000               0.001203167               0.999999984              -0.000000000               0.001221264               0.999999984              -0.000000000               0.001244876               0.999999984               0.000000000               0.001273183               0.999999984               0.000000000               0.001305269               0.999999984              -0.000000000               0.001340361               0.999999984              -0.000000000               0.001377666               0.999999984               0.000000000               0.001416589               0.999999984               0.000000000               0.001456515               0.999999984               0.000000000               0.001496975               0.999999984              -0.000000000               0.001537435               0.999999984              -0.000000000               0.001577307               0.999999984               0.000000000               0.001615814               0.999999984              -0.000000000               0.001652265               0.999999984 </DataArray>
<DataArray type="Float64"                                    Name="stress"                                                      NumberOfComponents="10" format="ascii">
              0.001879994               0.020801361              -0.000000000              -0.001895168               0.007565440               0.005670272               0.000000000               0.000000000               0.000000000               0.000000000               0.001886394               0.016426360               0.000000000              -0.001345894               0.005924030               0.004578136               0.000000000               0.000000000               0.000000000               0.000000000               0.002498398               0.012890181              -0.000000000              -0.000674372               0.004521475               0.003847103               0.000000000               0.000000000               0.000000000               0.000000000               0.002427197               0.010912513               0.000000000              -0.000453864               0.003788756               0.003334892               0.000000000               0.000000000               0.000000000               0.000000000               0.002144398               0.009685590               0.000000000              -0.000406549               0.003364014               0.002957465               0.000000000               0.000000000               0.000000000               0.000000000               0.001814944               0.008863295               0.000000000              -0.000427307               0.003096838               0.002669531               0.000000000               0.000000000               0.000000000               0.000000000               0.001499874               0.008260259               0.000000000              -0.000470078               0.002910085               0.002440007               0.000000000               0.000000000               0.000000000               0.000000000               0.001216415               0.007784947               0.000000000              -0.000516961               0.002767277               0.002250315               0.000000000               0.000000000               0.000000000               0.000000000               0.000967903               0.007389211              -0.000000000              -0.000560686               0.002649941               0.002089255               0.000000000               0.000000000               0.000000000               0.000000000               0.000751217               0.007032418              -0.000000000              -0.000597344               0.002543231               0.001945886               0.000000000               0.000000000               0.000000000               0.000000000               0.000568198               0.006693759              -0.000000000              -0.000623644               0.002439112               0.001815468               0.000000000               0.000000000               0.000000000               0.000000000               0.000414491               0.006356186              -0.000000000              -0.000639088               0.002331737               0.001692649               0.000000000               0.000000000               0.000000000               0.000000000               0.000285878               0.006009304              -0.000000000              -0.000643957               0.002217734               0.001573776               0.000000000               0.000000000               0.000000000               0.000000000               0.000176930               0.005644424               0.000000000              -0.000639203               0.002094523               0.001455321               0.000000000               0.000000000               0.000000000               0.000000000               0.000087193               0.005242787              -0.000000000              -0.000622650               0.001955128               0.001332479               0.000000000               0.000000000               0.000000000               0.000000000               0.000032399               0.004780005              -0.000000000              -0.000585350               0.001788436               0.001203086               0.000000000               0.000000000               0.000000000               0.000000000              -0.000022007               0.004421198               0.000000000              -0.000560901               0.001660685               0.001099784               0.000000000               0.000000000               0.000000000               0.000000000               0.001956755               0.020384695              -0.001435100              -0.001814300               0.007399597               0.005585297               0.000000000               0.000000000               0.000000000               0.000000000               0.001860404               0.016153421              -0.000744931              -0.001321523               0.005824927               0.004503404               0.000000000               0.000000000               0.000000000               0.000000000               0.002362583               0.012772665              -0.000058237              -0.000710613               0.004494383               0.003783771               0.000000000               0.000000000               0.000000000               0.000000000               0.002248549               0.010877131               0.000230049              -0.000516434               0.003797819               0.003281385               0.000000000               0.000000000               0.000000000               0.000000000               0.001958044               0.009694495               0.000350618              -0.000477544               0.003390647               0.002913103               0.000000000               0.000000000               0.000000000               0.000000000               0.001634828               0.008888424               0.000394742              -0.000497991               0.003128776               0.002630784               0.000000000               0.000000000               0.000000000               0.000000000               0.001334175               0.008294391               0.000401125              -0.000536482               0.002943597               0.002407115               0.000000000               0.000000000               0.000000000               0.000000000               0.001069077               0.007825226               0.000394487              -0.000577248               0.002800799               0.002223551               0.000000000               0.000000000               0.000000000               0.000000000               0.000838313               0.007427158               0.000379615              -0.000614026               0.002680370               0.002066344               0.000000000               0.000000000               0.000000000               0.000000000               0.000642193               0.007068148               0.000359487              -0.000642694               0.002570257               0.001927563               0.000000000               0.000000000               0.000000000               0.000000000               0.000480266               0.006730191               0.000337757              -0.000661172               0.002463765               0.001802593               0.000000000               0.000000000               0.000000000               0.000000000               0.000347865               0.006399272               0.000313129              -0.000669458               0.002356222               0.001686764               0.000000000               0.000000000               0.000000000               0.000000000               0.000238963               0.006063611               0.000286909              -0.000668339               0.002243963               0.001575624               0.000000000               0.000000000               0.000000000               0.000000000               0.000146074               0.005712189               0.000253126              -0.000659244               0.002123792               0.001464548               0.000000000               0.000000000               0.000000000               0.000000000               0.000071867               0.005333510               0.000198348              -0.000639737               0.001991065               0.001351328               0.000000000               0.000000000               0.000000000               0.000000000               0.000026823               0.004914933               0.000113683              -0.000604307               0.001839730               0.001235424               0.000000000               0.000000000               0.000000000               0.000000000              -0.000019353               0.004603864               0.000069329              -0.000582739               0.001728852               0.001146113               0.000000000               0.000000000               0.000000000               0.000000000               0.002146241               0.019193555              -0.002678094              -0.001594351               0.006929238               0.005334887               0.000000000               0.000000000               0.000000000               0.000000000               0.001769789               0.015381002              -0.001392354              -0.001258952               0.005546600               0.004287648               0.000000000               0.000000000               0.000000000               0.000000000               0.001974386               0.012439908              -0.000124598              -0.000814592               0.004418125               0.003603533               0.000000000               0.000000000               0.000000000               0.000000000               0.001751248               0.010768267               0.000392192              -0.000689314               0.003819158               0.003129844               0.000000000               0.000000000               0.000000000               0.000000000               0.001443628               0.009699754               0.000599654              -0.000671107               0.003456921               0.002785814               0.000000000               0.000000000               0.000000000               0.000000000               0.001145653               0.008945755               0.000671853              -0.000688598               0.003211421               0.002522823               0.000000000               0.000000000               0.000000000               0.000000000               0.000890714               0.008375487               0.000683495              -0.000712916               0.003029440               0.002316524               0.000000000               0.000000000               0.000000000               0.000000000               0.000678462               0.007915651               0.000669546              -0.000735032               0.002883535               0.002148503               0.000000000               0.000000000               0.000000000               0.000000000               0.000500254               0.007518049               0.000639427              -0.000752159               0.002756711               0.002004552               0.000000000               0.000000000               0.000000000               0.000000000               0.000357933               0.007157240               0.000601625              -0.000760428               0.002639199               0.001878771               0.000000000               0.000000000               0.000000000               0.000000000               0.000246344               0.006818779               0.000561256              -0.000759966               0.002526226               0.001766259               0.000000000               0.000000000               0.000000000               0.000000000               0.000159419               0.006495669               0.000516641              -0.000752175               0.002415926               0.001663752               0.000000000               0.000000000               0.000000000               0.000000000               0.000094395               0.006183253               0.000465402              -0.000737507               0.002306899               0.001569393               0.000000000               0.000000000               0.000000000               0.000000000               0.000047723               0.005874026               0.000399931              -0.000716355               0.002196774               0.001480419               0.000000000               0.000000000               0.000000000               0.000000000               0.000019615               0.005565736               0.000303884              -0.000688360               0.002084680               0.001396320               0.000000000               0.000000000               0.000000000               0.000000000               0.000005757               0.005262553               0.000169214              -0.000655659               0.001972720               0.001317061               0.000000000               0.000000000               0.000000000               0.000000000              -0.000016808               0.005062920               0.000099222              -0.000639166               0.001900678               0.001261512               0.000000000               0.000000000               0.000000000               0.000000000               0.002349271               0.017380169              -0.003574863              -0.001291544               0.006223846               0.004932302               0.000000000               0.000000000               0.000000000               0.000000000               0.001582219               0.014222947              -0.001868810              -0.001184534               0.005135779               0.003951245               0.000000000               0.000000000               0.000000000               0.000000000               0.001374801               0.011937655              -0.000207463              -0.000976654               0.004304730               0.003328076               0.000000000               0.000000000               0.000000000               0.000000000               0.001027439               0.010581338               0.000437368              -0.000937376               0.003839536               0.002902160               0.000000000               0.000000000               0.000000000               0.000000000               0.000717322               0.009666372               0.000683471              -0.000939299               0.003535191               0.002595893               0.000000000               0.000000000               0.000000000               0.000000000               0.000474561               0.008985953               0.000764067              -0.000945282               0.003310381               0.002365100               0.000000000               0.000000000               0.000000000               0.000000000               0.000296580               0.008445726               0.000774141              -0.000944496               0.003130046               0.002185550               0.000000000               0.000000000               0.000000000               0.000000000               0.000163910               0.007992533               0.000753773              -0.000937598               0.002976684               0.002039086               0.000000000               0.000000000               0.000000000               0.000000000               0.000064556               0.007595978               0.000713725              -0.000925287               0.002840396               0.001915110               0.000000000               0.000000000               0.000000000               0.000000000              -0.000002697               0.007235833               0.000663459              -0.000905488               0.002713749               0.001808261               0.000000000               0.000000000               0.000000000               0.000000000              -0.000042533               0.006905247               0.000610952              -0.000879104               0.002594761               0.001715657               0.000000000               0.000000000               0.000000000               0.000000000              -0.000059833               0.006602636               0.000555530              -0.000847765               0.002483445               0.001635680               0.000000000               0.000000000               0.000000000               0.000000000              -0.000059924               0.006327067               0.000492547              -0.000813353               0.002380119               0.001566766               0.000000000               0.000000000               0.000000000               0.000000000              -0.000049909               0.006077000               0.000411597              -0.000778339               0.002285093               0.001506754               0.000000000               0.000000000               0.000000000               0.000000000              -0.000036081               0.005857903               0.000301003              -0.000745767               0.002201204               0.001455437               0.000000000               0.000000000               0.000000000               0.000000000              -0.000019369               0.005686158               0.000161052              -0.000718031               0.002134711               0.001416680               0.000000000               0.000000000               0.000000000               0.000000000              -0.000015091               0.005599423               0.000087940              -0.000705585               0.002101651               0.001396066               0.000000000               0.000000000               0.000000000               0.000000000               0.002446344               0.015153572              -0.004054494              -0.000976818               0.005376745               0.004399927               0.000000000               0.000000000               0.000000000               0.000000000               0.001274862               0.012824073              -0.002155534              -0.001124934               0.004649626               0.003524692               0.000000000               0.000000000               0.000000000               0.000000000               0.000636514               0.011320306              -0.000327933              -0.001176342               0.004165512               0.002989169               0.000000000               0.000000000               0.000000000               0.000000000               0.000203934               0.010310481               0.000342084              -0.001212332               0.003840903               0.002628571               0.000000000               0.000000000               0.000000000               0.000000000              -0.000066021               0.009556822               0.000584490              -0.001219358               0.003592028               0.002372670               0.000000000               0.000000000               0.000000000               0.000000000              -0.000221982               0.008952424               0.000658894              -0.001202293               0.003384876               0.002182583               0.000000000               0.000000000               0.000000000               0.000000000              -0.000303906               0.008445162               0.000665659              -0.001169607               0.003204895               0.002035288               0.000000000               0.000000000               0.000000000               0.000000000              -0.000338140               0.008006481               0.000645599              -0.001127610               0.003044670               0.001917061               0.000000000               0.000000000               0.000000000               0.000000000              -0.000341087               0.007614877               0.000607306              -0.001079765               0.002898188               0.001818424               0.000000000               0.000000000               0.000000000               0.000000000              -0.000319370               0.007265255               0.000556643              -0.001027918               0.002764367               0.001736449               0.000000000               0.000000000               0.000000000               0.000000000              -0.000281928               0.006955187               0.000503977              -0.000975119               0.002643412               0.001668293               0.000000000               0.000000000               0.000000000               0.000000000              -0.000229117               0.006682335               0.000447496              -0.000921208               0.002534492               0.001613284               0.000000000               0.000000000               0.000000000               0.000000000              -0.000168341               0.006442075               0.000384472              -0.000868385               0.002436798               0.001568413               0.000000000               0.000000000               0.000000000               0.000000000              -0.000112688               0.006240306               0.000308627              -0.000822294               0.002354179               0.001531885               0.000000000               0.000000000               0.000000000               0.000000000              -0.000064253               0.006089300               0.000215228              -0.000785255               0.002291498               0.001506243               0.000000000               0.000000000               0.000000000               0.000000000              -0.000026641               0.005995669               0.000108904              -0.000759447               0.002251686               0.001492238               0.000000000               0.000000000               0.000000000               0.000000000              -0.000013072               0.005960417               0.000055392              -0.000749952               0.002236770               0.001486818               0.000000000               0.000000000               0.000000000               0.000000000               0.002333373               0.012739746              -0.004121882              -0.000717455               0.004485690               0.003768235               0.000000000               0.000000000               0.000000000               0.000000000               0.000843972               0.011329855              -0.002273781              -0.001099741               0.004143161               0.003043419               0.000000000               0.000000000               0.000000000               0.000000000              -0.000146814               0.010633711              -0.000508163              -0.001384266               0.004005957               0.002621691               0.000000000               0.000000000               0.000000000               0.000000000              -0.000587403               0.009948297               0.000109093              -0.001463810               0.003804003               0.002340193               0.000000000               0.000000000               0.000000000               0.000000000              -0.000766271               0.009342440               0.000328731              -0.001455153               0.003599167               0.002144014               0.000000000               0.000000000               0.000000000               0.000000000              -0.000808705               0.008816495               0.000397242              -0.001405323               0.003407243               0.002001920               0.000000000               0.000000000               0.000000000               0.000000000              -0.000778478               0.008350356               0.000411691              -0.001335721               0.003228664               0.001892944               0.000000000               0.000000000               0.000000000               0.000000000              -0.000708437               0.007937146               0.000403884              -0.001257804               0.003064957               0.001807153               0.000000000               0.000000000               0.000000000               0.000000000              -0.000621949               0.007565478               0.000377403              -0.001178913               0.002914772               0.001735859               0.000000000               0.000000000               0.000000000               0.000000000              -0.000524134               0.007236434               0.000340261              -0.001101102               0.002779155               0.001678053               0.000000000               0.000000000               0.000000000               0.000000000              -0.000421434               0.006943537               0.000300938              -0.001025977               0.002656482               0.001630504               0.000000000               0.000000000               0.000000000               0.000000000              -0.000320733               0.006681924               0.000257666              -0.000955513               0.002545790               0.001590277               0.000000000               0.000000000               0.000000000               0.000000000              -0.000225651               0.006456286               0.000212244              -0.000891653               0.002449291               0.001557639               0.000000000               0.000000000               0.000000000               0.000000000              -0.000145683               0.006274867               0.000166032              -0.000838987               0.002371264               0.001532276               0.000000000               0.000000000               0.000000000               0.000000000              -0.000084043               0.006139922               0.000113095              -0.000799005               0.002312955               0.001513951               0.000000000               0.000000000               0.000000000               0.000000000              -0.000035762               0.006045315               0.000054976              -0.000769073               0.002271443               0.001502369               0.000000000               0.000000000               0.000000000               0.000000000              -0.000024278               0.005991601               0.000032166              -0.000758052               0.002249864               0.001491812               0.000000000               0.000000000               0.000000000               0.000000000               0.001958539               0.010338812              -0.003842917              -0.000557902               0.003632202               0.003074301               0.000000000               0.000000000               0.000000000               0.000000000               0.000313191               0.009857011              -0.002270225              -0.001114679               0.003657197               0.002542518               0.000000000               0.000000000               0.000000000               0.000000000              -0.000884888               0.009913004              -0.000756593              -0.001570955               0.003827953               0.002256998               0.000000000               0.000000000               0.000000000               0.000000000              -0.001241496               0.009507357              -0.000228928              -0.001653977               0.003720413               0.002066436               0.000000000               0.000000000               0.000000000               0.000000000              -0.001285894               0.009030529              -0.000023398              -0.001611022               0.003547154               0.001936131               0.000000000               0.000000000               0.000000000               0.000000000              -0.001202266               0.008576396               0.000057530              -0.001522896               0.003366402               0.001843506               0.000000000               0.000000000               0.000000000               0.000000000              -0.001063895               0.008159124               0.000091418              -0.001418848               0.003192630               0.001773782               0.000000000               0.000000000               0.000000000               0.000000000              -0.000906287               0.007784239               0.000105080              -0.001312884               0.003032348               0.001719464               0.000000000               0.000000000               0.000000000               0.000000000              -0.000745877               0.007440455               0.000101512              -0.001209758               0.002883379               0.001673622               0.000000000               0.000000000               0.000000000               0.000000000              -0.000593211               0.007117291               0.000089170              -0.001112113               0.002743111               0.001630998               0.000000000               0.000000000               0.000000000               0.000000000              -0.000456472               0.006815590               0.000075052              -0.001023123               0.002612882               0.001589759               0.000000000               0.000000000               0.000000000               0.000000000              -0.000338465               0.006544557               0.000061903              -0.000944992               0.002496494               0.001551503               0.000000000               0.000000000               0.000000000               0.000000000              -0.000241253               0.006316212               0.000054150              -0.000879994               0.002398714               0.001518720               0.000000000               0.000000000               0.000000000               0.000000000              -0.000164712               0.006132498               0.000051621              -0.000828327               0.002320255               0.001491927               0.000000000               0.000000000               0.000000000               0.000000000              -0.000102263               0.005984013               0.000045470              -0.000786348               0.002256767               0.001470419               0.000000000               0.000000000               0.000000000               0.000000000              -0.000048794               0.005857942               0.000028913              -0.000750539               0.002202808               0.001452269               0.000000000               0.000000000               0.000000000               0.000000000              -0.000043032               0.005771059               0.000028667              -0.000737518               0.002169506               0.001431989               0.000000000               0.000000000               0.000000000               0.000000000               0.001349173               0.008107707              -0.003309467              -0.000507526               0.002871716               0.002364190               0.000000000               0.000000000               0.000000000               0.000000000              -0.000276174               0.008497362              -0.002188915              -0.001165734               0.003221003               0.002055269               0.000000000               0.000000000               0.000000000               0.000000000              -0.001499806               0.009182755              -0.001061641              -0.001710267               0.003630977               0.001920709               0.000000000               0.000000000               0.000000000               0.000000000              -0.001699800               0.009006012              -0.000618968              -0.001763172               0.003589698               0.001826526               0.000000000               0.000000000               0.000000000               0.000000000              -0.001592457               0.008645131              -0.000404748              -0.001677809               0.003440951               0.001763142               0.000000000               0.000000000               0.000000000               0.000000000              -0.001390529               0.008260625              -0.000290933              -0.001554023               0.003271522               0.001717499               0.000000000               0.000000000               0.000000000               0.000000000              -0.001160661               0.007901888              -0.000225668              -0.001422981               0.003108263               0.001685283               0.000000000               0.000000000               0.000000000               0.000000000              -0.000935673               0.007559590              -0.000181515              -0.001295823               0.002951779               0.001655956               0.000000000               0.000000000               0.000000000               0.000000000              -0.000733847               0.007215493              -0.000156436              -0.001177126               0.002797516               0.001620389               0.000000000               0.000000000               0.000000000               0.000000000              -0.000561854               0.006876448              -0.000139118              -0.001070249               0.002648876               0.001578627               0.000000000               0.000000000               0.000000000               0.000000000              -0.000418809               0.006559885              -0.000115198              -0.000977036               0.002512285               0.001535249               0.000000000               0.000000000               0.000000000               0.000000000              -0.000307918               0.006283618              -0.000083330              -0.000900919               0.002394825               0.001493906               0.000000000               0.000000000               0.000000000               0.000000000              -0.000224366               0.006054054              -0.000043465              -0.000840892               0.002298295               0.001457403               0.000000000               0.000000000               0.000000000               0.000000000              -0.000159747               0.005861655              -0.000002258              -0.000792610               0.002218069               0.001425459               0.000000000               0.000000000               0.000000000               0.000000000              -0.000104174               0.005695717               0.000024374              -0.000751028               0.002148896               0.001397868               0.000000000               0.000000000               0.000000000               0.000000000              -0.000053258               0.005551197               0.000026841              -0.000713870               0.002088337               0.001374468               0.000000000               0.000000000               0.000000000               0.000000000              -0.000042685               0.005461864               0.000029886              -0.000698738               0.002053516               0.001354778               0.000000000               0.000000000               0.000000000               0.000000000               0.000604494               0.006217690              -0.002628471              -0.000550527               0.002256051               0.001705524               0.000000000               0.000000000               0.000000000               0.000000000              -0.000837847               0.007289561              -0.002077181              -0.001225386               0.002838291               0.001612905               0.000000000               0.000000000               0.000000000               0.000000000              -0.001952413               0.008477746              -0.001416307              -0.001791869               0.003423177               0.001631308               0.000000000               0.000000000               0.000000000               0.000000000              -0.001988281               0.008534185              -0.001028423              -0.001812374               0.003448825               0.001636450               0.000000000               0.000000000               0.000000000               0.000000000              -0.001760745               0.008304258              -0.000786200              -0.001698308               0.003334161               0.001635853               0.000000000               0.000000000               0.000000000               0.000000000              -0.001467022               0.008008065              -0.000627567              -0.001551137               0.003186374               0.001635237               0.000000000               0.000000000               0.000000000               0.000000000              -0.001168724               0.007705024              -0.000522860              -0.001401396               0.003035448               0.001634052               0.000000000               0.000000000               0.000000000               0.000000000              -0.000904366               0.007375399              -0.000447463              -0.001261059               0.002878795               0.001617736               0.000000000               0.000000000               0.000000000               0.000000000              -0.000676052               0.007026151              -0.000390849              -0.001131786               0.002719289               0.001587503               0.000000000               0.000000000               0.000000000               0.000000000              -0.000484146               0.006678721              -0.000337243              -0.001016392               0.002565015               0.001548623               0.000000000               0.000000000               0.000000000               0.000000000              -0.000336159               0.006359911              -0.000272307              -0.000921046               0.002426964               0.001505918               0.000000000               0.000000000               0.000000000               0.000000000              -0.000236868               0.006084648              -0.000195923              -0.000849404               0.002311330               0.001461926               0.000000000               0.000000000               0.000000000               0.000000000              -0.000180836               0.005848685              -0.000118092              -0.000798897               0.002215841               0.001416944               0.000000000               0.000000000               0.000000000               0.000000000              -0.000149093               0.005639346              -0.000049690              -0.000760826               0.002133372               0.001372546               0.000000000               0.000000000               0.000000000               0.000000000              -0.000124581               0.005448354              -0.000000556              -0.000727760               0.002058686               0.001330926               0.000000000               0.000000000               0.000000000               0.000000000              -0.000105785               0.005280896               0.000020314              -0.000699780               0.001993541               0.001293761               0.000000000               0.000000000               0.000000000               0.000000000              -0.000095045               0.005197272               0.000023596              -0.000685299               0.001960840               0.001275541               0.000000000               0.000000000               0.000000000               0.000000000              -0.000291805               0.004460564              -0.001897204              -0.000666997               0.001709172               0.001042174               0.000000000               0.000000000               0.000000000               0.000000000              -0.001292616               0.005905472              -0.001946123              -0.001222913               0.002376108               0.001153195               0.000000000               0.000000000               0.000000000               0.000000000              -0.002185934               0.007453515              -0.001794514              -0.001751411               0.003068283               0.001316873               0.000000000               0.000000000               0.000000000               0.000000000              -0.002140705               0.007833629              -0.001474451              -0.001781964               0.003205171               0.001423208               0.000000000               0.000000000               0.000000000               0.000000000              -0.001866167               0.007824877              -0.001205078              -0.001677918               0.003167572               0.001489654               0.000000000               0.000000000               0.000000000               0.000000000              -0.001541564               0.007692094              -0.001000197              -0.001539595               0.003077204               0.001537609               0.000000000               0.000000000               0.000000000               0.000000000              -0.001223762               0.007493744              -0.000848317              -0.001395625               0.002963098               0.001567473               0.000000000               0.000000000               0.000000000               0.000000000              -0.000942036               0.007236593              -0.000730062              -0.001257835               0.002831452               0.001573617               0.000000000               0.000000000               0.000000000               0.000000000              -0.000704329               0.006937862              -0.000635795              -0.001131353               0.002689715               0.001558362               0.000000000               0.000000000               0.000000000               0.000000000              -0.000509393               0.006614100              -0.000546475              -0.001017782               0.002543939               0.001526156               0.000000000               0.000000000               0.000000000               0.000000000              -0.000355541               0.006301853              -0.000447948              -0.000921057               0.002407616               0.001486559               0.000000000               0.000000000               0.000000000               0.000000000              -0.000251446               0.006014493              -0.000341147              -0.000846102               0.002286845               0.001440743               0.000000000               0.000000000               0.000000000               0.000000000              -0.000194945               0.005762581              -0.000234978              -0.000793425               0.002185316               0.001391891               0.000000000               0.000000000               0.000000000               0.000000000              -0.000178612               0.005540657              -0.000140287              -0.000759560               0.002100054               0.001340494               0.000000000               0.000000000               0.000000000               0.000000000              -0.000184356               0.005345791              -0.000061258              -0.000737356               0.002027698               0.001290342               0.000000000               0.000000000               0.000000000               0.000000000              -0.000201428               0.005168765              -0.000009673              -0.000721629               0.001963447               0.001241818               0.000000000               0.000000000               0.000000000               0.000000000              -0.000211052               0.005077836               0.000006622              -0.000713872               0.001930552               0.001216680               0.000000000               0.000000000               0.000000000               0.000000000              -0.001479920               0.002869869              -0.001159542              -0.000913702               0.001261180               0.000347478               0.000000000               0.000000000               0.000000000               0.000000000              -0.001815231               0.004524624              -0.001746155              -0.001246287               0.001923622               0.000677334               0.000000000               0.000000000               0.000000000               0.000000000              -0.002335783               0.006273137              -0.002087116              -0.001660057               0.002644376               0.000984319               0.000000000               0.000000000               0.000000000               0.000000000              -0.002217727               0.006956786              -0.001895975              -0.001701242               0.002885986               0.001184743               0.000000000               0.000000000               0.000000000               0.000000000              -0.001923511               0.007200844              -0.001632717              -0.001621419               0.002940730               0.001319311               0.000000000               0.000000000               0.000000000               0.000000000              -0.001590716               0.007260155              -0.001397603              -0.001504034               0.002921372               0.001417338               0.000000000               0.000000000               0.000000000               0.000000000              -0.001276598               0.007196973              -0.001204977              -0.001378343               0.002858415               0.001480072               0.000000000               0.000000000               0.000000000               0.000000000              -0.000992444               0.007045690              -0.001049773              -0.001252875               0.002766164               0.001513290               0.000000000               0.000000000               0.000000000               0.000000000              -0.000741968               0.006836831              -0.000918411              -0.001132839               0.002656534               0.001523695               0.000000000               0.000000000               0.000000000               0.000000000              -0.000533667               0.006584933              -0.000796724              -0.001023240               0.002536036               0.001512796               0.000000000               0.000000000               0.000000000               0.000000000              -0.000360031               0.006313327              -0.000675517              -0.000924175               0.002412480               0.001488304               0.000000000               0.000000000               0.000000000               0.000000000              -0.000229956               0.006033622              -0.000550310              -0.000840434               0.002291332               0.001450898               0.000000000               0.000000000               0.000000000               0.000000000              -0.000149691               0.005771700              -0.000422723              -0.000777595               0.002183079               0.001405484               0.000000000               0.000000000               0.000000000               0.000000000              -0.000123617               0.005538203              -0.000296776              -0.000738630               0.002092259               0.001353629               0.000000000               0.000000000               0.000000000               0.000000000              -0.000148261               0.005338160              -0.000178583              -0.000722866               0.002020324               0.001297458               0.000000000               0.000000000               0.000000000               0.000000000              -0.000215975               0.005160077              -0.000075012              -0.000725998               0.001962008               0.001236010               0.000000000               0.000000000               0.000000000               0.000000000              -0.000276439               0.005061622              -0.000022323              -0.000736365               0.001932646               0.001196280               0.000000000               0.000000000               0.000000000               0.000000000              -0.002880083               0.001555365              -0.000471816              -0.001274449               0.000943265              -0.000331184               0.000000000               0.000000000               0.000000000               0.000000000              -0.002455341               0.003225581              -0.001457296              -0.001323948               0.001516498               0.000192550               0.000000000               0.000000000               0.000000000               0.000000000              -0.002441092               0.004953806              -0.002196125              -0.001534632               0.002162795               0.000628163               0.000000000               0.000000000               0.000000000               0.000000000              -0.002184862               0.005851674              -0.002168391              -0.001550780               0.002467464               0.000916685               0.000000000               0.000000000               0.000000000               0.000000000              -0.001860550               0.006331667              -0.001956811              -0.001489162               0.002606921               0.001117759               0.000000000               0.000000000               0.000000000               0.000000000              -0.001527791               0.006590623              -0.001725969              -0.001396747               0.002662434               0.001265688               0.000000000               0.000000000               0.000000000               0.000000000              -0.001224205               0.006688510              -0.001516359              -0.001295138               0.002661193               0.001366055               0.000000000               0.000000000               0.000000000               0.000000000              -0.000951377               0.006671531              -0.001339760              -0.001190705               0.002620723               0.001430018               0.000000000               0.000000000               0.000000000               0.000000000              -0.000706272               0.006573291              -0.001184857              -0.001086511               0.002553245               0.001466734               0.000000000               0.000000000               0.000000000               0.000000000              -0.000490012               0.006420990              -0.001039802              -0.000986376               0.002469101               0.001482725               0.000000000               0.000000000               0.000000000               0.000000000              -0.000303342               0.006227849              -0.000899507              -0.000892232               0.002373340               0.001481107               0.000000000               0.000000000               0.000000000               0.000000000              -0.000148487               0.006001705              -0.000759430              -0.000805894               0.002269179               0.001463285               0.000000000               0.000000000               0.000000000               0.000000000              -0.000030765               0.005766332              -0.000618622              -0.000732327               0.002166200               0.001433874               0.000000000               0.000000000               0.000000000               0.000000000               0.000037120               0.005540903              -0.000471431              -0.000678691               0.002073180               0.001394488               0.000000000               0.000000000               0.000000000               0.000000000               0.000038620               0.005338383              -0.000315075              -0.000652814               0.001997048               0.001344234               0.000000000               0.000000000               0.000000000               0.000000000              -0.000035343               0.005158792              -0.000154365              -0.000658101               0.001938947               0.001280846               0.000000000               0.000000000               0.000000000               0.000000000              -0.000119080               0.005058299              -0.000064872              -0.000676941               0.001911730               0.001234789               0.000000000               0.000000000               0.000000000               0.000000000              -0.004383018               0.000583174               0.000073782              -0.001716526               0.000766562              -0.000949965               0.000000000               0.000000000               0.000000000               0.000000000              -0.003168133               0.002077517              -0.001116851              -0.001447737               0.001175076              -0.000272661               0.000000000               0.000000000               0.000000000               0.000000000              -0.002522589               0.003606121              -0.002098213              -0.001396733               0.001667605               0.000270872               0.000000000               0.000000000               0.000000000               0.000000000              -0.002062726               0.004608791              -0.002221704              -0.001349619               0.001986120               0.000636501               0.000000000               0.000000000               0.000000000               0.000000000              -0.001681423               0.005277197              -0.002087112              -0.001290181               0.002189108               0.000898927               0.000000000               0.000000000               0.000000000               0.000000000              -0.001347923               0.005720574              -0.001889315              -0.001220541               0.002313685               0.001093145               0.000000000               0.000000000               0.000000000               0.000000000              -0.001057619               0.005978008              -0.001693319              -0.001143856               0.002373934               0.001230078               0.000000000               0.000000000               0.000000000               0.000000000              -0.000800196               0.006106634              -0.001518046              -0.001063401               0.002389991               0.001326590               0.000000000               0.000000000               0.000000000               0.000000000              -0.000567367               0.006139033              -0.001357918              -0.000980140               0.002373037               0.001392897               0.000000000               0.000000000               0.000000000               0.000000000              -0.000353383               0.006099500              -0.001206448              -0.000894954               0.002331464               0.001436510               0.000000000               0.000000000               0.000000000               0.000000000              -0.000160512               0.006007893              -0.001059752              -0.000811177               0.002273003               0.001461826               0.000000000               0.000000000               0.000000000               0.000000000               0.000016115               0.005871554              -0.000918768              -0.000727900               0.002199798               0.001471898               0.000000000               0.000000000               0.000000000               0.000000000               0.000176686               0.005701074              -0.000777129              -0.000646376               0.002115797               0.001469422               0.000000000               0.000000000               0.000000000               0.000000000               0.000305941               0.005516842              -0.000617920              -0.000574876               0.002030554               0.001455678               0.000000000               0.000000000               0.000000000               0.000000000               0.000379383               0.005333252              -0.000433570              -0.000524387               0.001952528               0.001428142               0.000000000               0.000000000               0.000000000               0.000000000               0.000379518               0.005161468              -0.000226363              -0.000502863               0.001888093               0.001385230               0.000000000               0.000000000               0.000000000               0.000000000               0.000341462               0.005070883              -0.000111898              -0.000505811               0.001858881               0.001353070               0.000000000               0.000000000               0.000000000               0.000000000              -0.005836542              -0.000057159               0.000394302              -0.002181556               0.000708128              -0.001473429               0.000000000               0.000000000               0.000000000               0.000000000              -0.003887883               0.001143944              -0.000773739              -0.001600947               0.000914957              -0.000685990               0.000000000               0.000000000               0.000000000               0.000000000              -0.002598963               0.002359380              -0.001791035              -0.001269532               0.001209628              -0.000059904               0.000000000               0.000000000               0.000000000               0.000000000              -0.001891639               0.003368992              -0.002009379              -0.001130487               0.001499814               0.000369327               0.000000000               0.000000000               0.000000000               0.000000000              -0.001424740               0.004156875              -0.001951277              -0.001053885               0.001736905               0.000683020               0.000000000               0.000000000               0.000000000               0.000000000              -0.001073910               0.004744236              -0.001806267              -0.000995744               0.001913310               0.000917566               0.000000000               0.000000000               0.000000000               0.000000000              -0.000789962               0.005145097              -0.001645888              -0.000939371               0.002028139               0.001088767               0.000000000               0.000000000               0.000000000               0.000000000              -0.000547936               0.005405502              -0.001493811              -0.000881162               0.002095536               0.001214374               0.000000000               0.000000000               0.000000000               0.000000000              -0.000331374               0.005561284              -0.001349725              -0.000819424               0.002126884               0.001307459               0.000000000               0.000000000               0.000000000               0.000000000              -0.000126405               0.005641929              -0.001209373              -0.000752642               0.002131505               0.001378863               0.000000000               0.000000000               0.000000000               0.000000000               0.000073452               0.005658836              -0.001075660              -0.000679809               0.002112863               0.001433054               0.000000000               0.000000000               0.000000000               0.000000000               0.000271932               0.005621402              -0.000952029              -0.000600700               0.002074015               0.001473315               0.000000000               0.000000000               0.000000000               0.000000000               0.000469251               0.005542539              -0.000825067              -0.000516847               0.002019777               0.001502929               0.000000000               0.000000000               0.000000000               0.000000000               0.000659647               0.005432955              -0.000671507              -0.000431751               0.001954884               0.001523133               0.000000000               0.000000000               0.000000000               0.000000000               0.000830894               0.005299777              -0.000484313              -0.000350886               0.001883537               0.001532651               0.000000000               0.000000000               0.000000000               0.000000000               0.000965460               0.005153822              -0.000260692              -0.000282180               0.001811983               0.001529804               0.000000000               0.000000000               0.000000000               0.000000000               0.001039395               0.005087053              -0.000141540              -0.000246108               0.001777703               0.001531596               0.000000000               0.000000000               0.000000000               0.000000000              -0.007057300              -0.000424664               0.000459008              -0.002593403               0.000722908              -0.001870495               0.000000000               0.000000000               0.000000000               0.000000000              -0.004519030               0.000465039              -0.000466894              -0.001752764               0.000739263              -0.001013502               0.000000000               0.000000000               0.000000000               0.000000000              -0.002676808               0.001349441              -0.001302754              -0.001172481               0.000840634              -0.000331847               0.000000000               0.000000000               0.000000000               0.000000000              -0.001727555               0.002301599              -0.001527839              -0.000935531               0.001079035               0.000143504               0.000000000               0.000000000               0.000000000               0.000000000              -0.001159733               0.003143953              -0.001521870              -0.000827893               0.001323938               0.000496045               0.000000000               0.000000000               0.000000000               0.000000000              -0.000774878               0.003825485              -0.001434566              -0.000768764               0.001531403               0.000762639               0.000000000               0.000000000               0.000000000               0.000000000              -0.000490080               0.004331790              -0.001324173              -0.000725252               0.001685666               0.000960413               0.000000000               0.000000000               0.000000000               0.000000000              -0.000258315               0.004699208              -0.001211944              -0.000684268               0.001794476               0.001110208               0.000000000               0.000000000               0.000000000               0.000000000              -0.000055020               0.004961343              -0.001101019              -0.000640799               0.001867364               0.001226565               0.000000000               0.000000000               0.000000000               0.000000000               0.000140644               0.005143651              -0.000992991              -0.000590214               0.001911271               0.001321057               0.000000000               0.000000000               0.000000000               0.000000000               0.000343535               0.005257515              -0.000893487              -0.000528363               0.001928608               0.001400246               0.000000000               0.000000000               0.000000000               0.000000000               0.000559441               0.005316315              -0.000801489              -0.000454748               0.001923670               0.001468922               0.000000000               0.000000000               0.000000000               0.000000000               0.000785861               0.005328273              -0.000703421              -0.000371335               0.001899852               0.001528516               0.000000000               0.000000000               0.000000000               0.000000000               0.001028277               0.005299395              -0.000582180              -0.000276820               0.001858721               0.001581901               0.000000000               0.000000000               0.000000000               0.000000000               0.001293198               0.005233161              -0.000427691              -0.000169196               0.001800768               0.001631572               0.000000000               0.000000000               0.000000000               0.000000000               0.001574312               0.005129690              -0.000232625              -0.000050845               0.001726828               0.001675983               0.000000000               0.000000000               0.000000000               0.000000000               0.001783513               0.005094710              -0.000132744               0.000031978               0.001687560               0.001719538               0.000000000               0.000000000               0.000000000               0.000000000              -0.007875776              -0.000596482               0.000295753              -0.002878854               0.000760785              -0.002118068               0.000000000               0.000000000               0.000000000               0.000000000              -0.004954795               0.000059329              -0.000213679              -0.001865463               0.000641593              -0.001223870               0.000000000               0.000000000               0.000000000               0.000000000              -0.002735485               0.000694418              -0.000683114              -0.001112608               0.000602338              -0.000510270               0.000000000               0.000000000               0.000000000               0.000000000              -0.001610835               0.001577694              -0.000824937              -0.000801273               0.000792983              -0.000008290               0.000000000               0.000000000               0.000000000               0.000000000              -0.000960263               0.002432501              -0.000836292              -0.000664160               0.001032212               0.000368052               0.000000000               0.000000000               0.000000000               0.000000000              -0.000542372               0.003160610              -0.000798462              -0.000598465               0.001253014               0.000654549               0.000000000               0.000000000               0.000000000               0.000000000              -0.000253302               0.003730017              -0.000743391              -0.000561239               0.001430406               0.000869167               0.000000000               0.000000000               0.000000000               0.000000000              -0.000029948               0.004166773              -0.000683070              -0.000532076               0.001566269               0.001034193               0.000000000               0.000000000               0.000000000               0.000000000               0.000165206               0.004499005              -0.000621852              -0.000500422               0.001666461               0.001166038               0.000000000               0.000000000               0.000000000               0.000000000               0.000359556               0.004753003              -0.000562985              -0.000459291               0.001737415               0.001278125               0.000000000               0.000000000               0.000000000               0.000000000               0.000563184               0.004938080              -0.000510850              -0.000406065               0.001781365               0.001375300               0.000000000               0.000000000               0.000000000               0.000000000               0.000783506               0.005066383              -0.000462030              -0.000339482               0.001801938               0.001462456               0.000000000               0.000000000               0.000000000               0.000000000               0.001027700               0.005145608              -0.000407561              -0.000257813               0.001801123               0.001543310               0.000000000               0.000000000               0.000000000               0.000000000               0.001308166               0.005177395              -0.000341014              -0.000156612               0.001777985               0.001621373               0.000000000               0.000000000               0.000000000               0.000000000               0.001639780               0.005161256              -0.000252905              -0.000030240               0.001730481               0.001700242               0.000000000               0.000000000               0.000000000               0.000000000               0.002037255               0.005096621              -0.000138214               0.000126892               0.001656559               0.001783451               0.000000000               0.000000000               0.000000000               0.000000000               0.002357560               0.005090643              -0.000081476               0.000247752               0.001614280               0.001862032               0.000000000               0.000000000               0.000000000               0.000000000              -0.008166568              -0.000646449              -0.000000000              -0.002981655               0.000778397              -0.002203258               0.000000000               0.000000000               0.000000000               0.000000000              -0.005111771              -0.000078775              -0.000000000              -0.001907066               0.000609426              -0.001297640               0.000000000               0.000000000               0.000000000               0.000000000              -0.002756217               0.000465897              -0.000000000              -0.001091817               0.000519235              -0.000572583               0.000000000               0.000000000               0.000000000               0.000000000              -0.001566511               0.001324127              -0.000000000              -0.000752956               0.000692356              -0.000060600               0.000000000               0.000000000               0.000000000               0.000000000              -0.000883920               0.002179304              -0.000000000              -0.000603882               0.000927721               0.000323839               0.000000000               0.000000000               0.000000000               0.000000000              -0.000452835               0.002918139               0.000000000              -0.000534579               0.001150896               0.000616317               0.000000000               0.000000000               0.000000000               0.000000000              -0.000163294               0.003504730               0.000000000              -0.000499325               0.001334673               0.000835348               0.000000000               0.000000000               0.000000000               0.000000000               0.000056218               0.003965319              -0.000000000              -0.000474582               0.001479954               0.001005372               0.000000000               0.000000000               0.000000000               0.000000000               0.000249329               0.004324196              -0.000000000              -0.000447025               0.001590393               0.001143368               0.000000000               0.000000000               0.000000000               0.000000000               0.000443041               0.004603675               0.000000000              -0.000409318               0.001670983               0.001261664               0.000000000               0.000000000               0.000000000               0.000000000               0.000647518               0.004815328               0.000000000              -0.000359096               0.001724792               0.001365696               0.000000000               0.000000000               0.000000000               0.000000000               0.000867411               0.004969000               0.000000000              -0.000295845               0.001754932               0.001459087               0.000000000               0.000000000               0.000000000               0.000000000               0.001117198               0.005074033              -0.000000000              -0.000215304               0.001763096               0.001547791               0.000000000               0.000000000               0.000000000               0.000000000               0.001412529               0.005130032              -0.000000000              -0.000111555               0.001747179               0.001635623               0.000000000               0.000000000               0.000000000               0.000000000               0.001769896               0.005131559              -0.000000000               0.000022266               0.001703081               0.001725346               0.000000000               0.000000000               0.000000000               0.000000000               0.002213706               0.005080803               0.000000000               0.000195037               0.001628572               0.001823609               0.000000000               0.000000000               0.000000000               0.000000000               0.002577460               0.005085773              -0.000000000               0.000330823               0.001584967               0.001915789               0.000000000               0.000000000               0.000000000               0.000000000               0.000000000               0.000000000               0.000000000               0.000000000               0.000000000               0.000000000               0.000000000               0.000000000               0.000000000               0.000000000               0.000000000               0.000000000               0.000000000               0.000000000               0.000000000               0.000000000               0.000000000               0.000000000               0.000000000               0.000000000               0.000000000               0.000000000               0.000000000               0.000000000               0.000000000               0.000000000               0.000000000               0.000000000               0.000000000               0.000000000               0.000000000               0.000000000               0.000000000               0.000000000               0.000000000               0.000000000               0.000000000               0.000000000               0.000000000               0.000000000               0.000000000               0.000000000               0.000000000               0.000000000               0.000000000               0.000000000               0.000000000               0.000000000               0.000000000               0.000000000               0.000000000               0.000000000               0.000000000               0.000000000               0.000000000               0.000000000               0.000000000               0.000000000               0.000000000               0.000000000               0.000000000               0.000000000               0.000000000               0.000000000               0.000000000               0.000000000               0.000000000               0.000000000               0.000000000               0.000000000               0.000000000               0.000000000               0.000000000               0.000000000               0.000000000               0.000000000               0.000000000               0.000000000               0.000000000               0.000000000               0.000000000               0.000000000               0.000000000               0.000000000               0.000000000               0.000000000               0.000000000               0.000000000               0.000000000               0.000000000               0.000000000               0.000000000               0.000000000               0.000000000               0.000000000               0.000000000               0.000000000               0.000000000               0.000000000               0.000000000               0.000000000               0.000000000               0.000000000               0.000000000               0.000000000               0.000000000               0.000000000               0.000000000               0.000000000               0.000000000               0.000000000               0.000000000               0.000000000               0.000000000               0.000000000               0.000000000               0.000000000               0.000000000               0.000000000               0.000000000               0.000000000               0.000000000               0.000000000               0.000000000               0.000000000               0.000000000               0.000000000               0.000000000               0.000000000               0.000000000               0.000000000               0.000000000               0.000000000               0.000000000               0.000000000               0.000000000               0.000000000               0.000000000               0.000000000               0.000000000               0.000000000               0.000000000               0.000000000               0.000000000               0.000000000               0.000000000               0.000000000               0.000000000               0.000000000               0.000000000               0.000000000               0.000000000               0.000000000               0.000000000               0.000000000               0.000000000               0.000000000               0.000000000               0.000000000               0.000000000               0.000000000               0.000000000               0.000000000               0.000000000               0.000000000               0.000000000               0.000000000               0.000000000               0.000000000               0.000000000               0.001956755               0.020384695               0.001435100              -0.001814300               0.007399597               0.005585297               0.000000000               0.000000000               0.000000000               0.000000000               0.001860404               0.016153421               0.000744931              -0.001321523               0.005824927               0.004503404               0.000000000               0.000000000               0.000000000               0.000000000               0.002362583               0.012772665               0.000058237              -0.000710613               0.004494383               0.003783771               0.000000000               0.000000000               0.000000000               0.000000000               0.002248549               0.010877131              -0.000230049              -0.000516434               0.003797819               0.003281385               0.000000000               0.000000000               0.000000000               0.000000000               0.001958044               0.009694495              -0.000350618              -0.000477544               0.003390647               0.002913103               0.000000000               0.000000000               0.000000000               0.000000000               0.001634828               0.008888424              -0.000394742              -0.000497991               0.003128776               0.002630784               0.000000000               0.000000000               0.000000000               0.000000000               0.001334175               0.008294391              -0.000401125              -0.000536482               0.002943597               0.002407115               0.000000000               0.000000000               0.000000000               0.000000000               0.001069077               0.007825226              -0.000394487              -0.000577248               0.002800799               0.002223551               0.000000000               0.000000000               0.000000000               0.000000000               0.000838313               0.007427158              -0.000379615              -0.000614026               0.002680370               0.002066344               0.000000000               0.000000000               0.000000000               0.000000000               0.000642193               0.007068148              -0.000359487              -0.000642694               0.002570257               0.001927563               0.000000000               0.000000000               0.000000000               0.000000000               0.000480266               0.006730191              -0.000337757              -0.000661172               0.002463765               0.001802593               0.000000000               0.000000000               0.000000000               0.000000000               0.000347865               0.006399272              -0.000313129              -0.000669458               0.002356222               0.001686764               0.000000000               0.000000000               0.000000000               0.000000000               0.000238963               0.006063611              -0.000286909              -0.000668339               0.002243963               0.001575624               0.000000000               0.000000000               0.000000000               0.000000000               0.000146074               0.005712189              -0.000253126              -0.000659244               0.002123792               0.001464548               0.000000000               0.000000000               0.000000000               0.000000000               0.000071867               0.005333510              -0.000198348              -0.000639737               0.001991065               0.001351328               0.000000000               0.000000000               0.000000000               0.000000000               0.000026823               0.004914933              -0.000113683              -0.000604307               0.001839730               0.001235424               0.000000000               0.000000000               0.000000000               0.000000000              -0.000019353               0.004603864              -0.000069329              -0.000582739               0.001728852               0.001146113               0.000000000               0.000000000               0.000000000               0.000000000               0.002146241               0.019193555               0.002678094              -0.001594351               0.006929238               0.005334887               0.000000000               0.000000000               0.000000000               0.000000000               0.001769789               0.015381002               0.001392354              -0.001258952               0.005546600               0.004287648               0.000000000               0.000000000               0.000000000               0.000000000               0.001974386               0.012439908               0.000124598              -0.000814592               0.004418125               0.003603533               0.000000000               0.000000000               0.000000000               0.000000000               0.001751248               0.010768267              -0.000392192              -0.000689314               0.003819158               0.003129844               0.000000000               0.000000000               0.000000000               0.000000000               0.001443628               0.009699754              -0.000599654              -0.000671107               0.003456921               0.002785814               0.000000000               0.000000000               0.000000000               0.000000000               0.001145653               0.008945755              -0.000671853              -0.000688598               0.003211421               0.002522823               0.000000000               0.000000000               0.000000000               0.000000000               0.000890714               0.008375487              -0.000683495              -0.000712916               0.003029440               0.002316524               0.000000000               0.000000000               0.000000000               0.000000000               0.000678462               0.007915651              -0.000669546              -0.000735032               0.002883535               0.002148503               0.000000000               0.000000000               0.000000000               0.000000000               0.000500254               0.007518049              -0.000639427              -0.000752159               0.002756711               0.002004552               0.000000000               0.000000000               0.000000000               0.000000000               0.000357933               0.007157240              -0.000601625              -0.000760428               0.002639199               0.001878771               0.000000000               0.000000000               0.000000000               0.000000000               0.000246344               0.006818779              -0.000561256              -0.000759966               0.002526226               0.001766259               0.000000000               0.000000000               0.000000000               0.000000000               0.000159419               0.006495669              -0.000516641              -0.000752175               0.002415926               0.001663752               0.000000000               0.000000000               0.000000000               0.000000000               0.000094395               0.006183253              -0.000465402              -0.000737507               0.002306899               0.001569393               0.000000000               0.000000000               0.000000000               0.000000000               0.000047723               0.005874026              -0.000399931              -0.000716355               0.002196774               0.001480419               0.000000000               0.000000000               0.000000000               0.000000000               0.000019615               0.005565736              -0.000303884              -0.000688360               0.002084680               0.001396320               0.000000000               0.000000000               0.000000000               0.000000000               0.000005757               0.005262553              -0.000169214              -0.000655659               0.001972720               0.001317061               0.000000000               0.000000000               0.000000000               0.000000000              -0.000016808               0.005062920              -0.000099222              -0.000639166               0.001900678               0.001261512               0.000000000               0.000000000               0.000000000               0.000000000               0.002349271               0.017380169               0.003574863              -0.001291544               0.006223846               0.004932302               0.000000000               0.000000000               0.000000000               0.000000000               0.001582219               0.014222947               0.001868810              -0.001184534               0.005135779               0.003951245               0.000000000               0.000000000               0.000000000               0.000000000               0.001374801               0.011937655               0.000207463              -0.000976654               0.004304730               0.003328076               0.000000000               0.000000000               0.000000000               0.000000000               0.001027439               0.010581338              -0.000437368              -0.000937376               0.003839536               0.002902160               0.000000000               0.000000000               0.000000000               0.000000000               0.000717322               0.009666372              -0.000683471              -0.000939299               0.003535191               0.002595893               0.000000000               0.000000000               0.000000000               0.000000000               0.000474561               0.008985953              -0.000764067              -0.000945282               0.003310381               0.002365100               0.000000000               0.000000000               0.000000000               0.000000000               0.000296580               0.008445726              -0.000774141              -0.000944496               0.003130046               0.002185550               0.000000000               0.000000000               0.000000000               0.000000000               0.000163910               0.007992533              -0.000753773              -0.000937598               0.002976684               0.002039086               0.000000000               0.000000000               0.000000000               0.000000000               0.000064556               0.007595978              -0.000713725              -0.000925287               0.002840396               0.001915110               0.000000000               0.000000000               0.000000000               0.000000000              -0.000002697               0.007235833              -0.000663459              -0.000905488               0.002713749               0.001808261               0.000000000               0.000000000               0.000000000               0.000000000              -0.000042533               0.006905247              -0.000610952              -0.000879104               0.002594761               0.001715657               0.000000000               0.000000000               0.000000000               0.000000000              -0.000059833               0.006602636              -0.000555530              -0.000847765               0.002483445               0.001635680               0.000000000               0.000000000               0.000000000               0.000000000              -0.000059924               0.006327067              -0.000492547              -0.000813353               0.002380119               0.001566766               0.000000000               0.000000000               0.000000000               0.000000000              -0.000049909               0.006077000              -0.000411597              -0.000778339               0.002285093               0.001506754               0.000000000               0.000000000               0.000000000               0.000000000              -0.000036081               0.005857903              -0.000301003              -0.000745767               0.002201204               0.001455437               0.000000000               0.000000000               0.000000000               0.000000000              -0.000019369               0.005686158              -0.000161052              -0.000718031               0.002134711               0.001416680               0.000000000               0.000000000               0.000000000               0.000000000              -0.000015091               0.005599423              -0.000087940              -0.000705585               0.002101651               0.001396066               0.000000000               0.000000000               0.000000000               0.000000000               0.002446344               0.015153572               0.004054494              -0.000976818               0.005376745               0.004399927               0.000000000               0.000000000               0.000000000               0.000000000               0.001274862               0.012824073               0.002155534              -0.001124934               0.004649626               0.003524692               0.000000000               0.000000000               0.000000000               0.000000000               0.000636514               0.011320306               0.000327933              -0.001176342               0.004165512               0.002989169               0.000000000               0.000000000               0.000000000               0.000000000               0.000203934               0.010310481              -0.000342084              -0.001212332               0.003840903               0.002628571               0.000000000               0.000000000               0.000000000               0.000000000              -0.000066021               0.009556822              -0.000584490              -0.001219358               0.003592028               0.002372670               0.000000000               0.000000000               0.000000000               0.000000000              -0.000221982               0.008952424              -0.000658894              -0.001202293               0.003384876               0.002182583               0.000000000               0.000000000               0.000000000               0.000000000              -0.000303906               0.008445162              -0.000665659              -0.001169607               0.003204895               0.002035288               0.000000000               0.000000000               0.000000000               0.000000000              -0.000338140               0.008006481              -0.000645599              -0.001127610               0.003044670               0.001917061               0.000000000               0.000000000               0.000000000               0.000000000              -0.000341087               0.007614877              -0.000607306              -0.001079765               0.002898188               0.001818424               0.000000000               0.000000000               0.000000000               0.000000000              -0.000319370               0.007265255              -0.000556643              -0.001027918               0.002764367               0.001736449               0.000000000               0.000000000               0.000000000               0.000000000              -0.000281928               0.006955187              -0.000503977              -0.000975119               0.002643412               0.001668293               0.000000000               0.000000000               0.000000000               0.000000000              -0.000229117               0.006682335              -0.000447496              -0.000921208               0.002534492               0.001613284               0.000000000               0.000000000               0.000000000               0.000000000              -0.000168341               0.006442075              -0.000384472              -0.000868385               0.002436798               0.001568413               0.000000000               0.000000000               0.000000000               0.000000000              -0.000112688               0.006240306              -0.000308627              -0.000822294               0.002354179               0.001531885               0.000000000               0.000000000               0.000000000               0.000000000              -0.000064253               0.006089300              -0.000215228              -0.000785255               0.002291498               0.001506243               0.000000000               0.000000000               0.000000000               0.000000000              -0.000026641               0.005995669              -0.000108904              -0.000759447               0.002251686               0.001492238               0.000000000               0.000000000               0.000000000               0.000000000              -0.000013072               0.005960417              -0.000055392              -0.000749952               0.002236770               0.001486818               0.000000000               0.000000000               0.000000000               0.000000000               0.002333373               0.012739746               0.004121882              -0.000717455               0.004485690               0.003768235               0.000000000               0.000000000               0.000000000               0.000000000               0.000843972               0.011329855               0.002273781              -0.001099741               0.004143161               0.003043419               0.000000000               0.000000000               0.000000000               0.000000000              -0.000146814               0.010633711               0.000508163              -0.001384266               0.004005957               0.002621691               0.000000000               0.000000000               0.000000000               0.000000000              -0.000587403               0.009948297              -0.000109093              -0.001463810               0.003804003               0.002340193               0.000000000               0.000000000               0.000000000               0.000000000              -0.000766271               0.009342440              -0.000328731              -0.001455153               0.003599167               0.002144014               0.000000000               0.000000000               0.000000000               0.000000000              -0.000808705               0.008816495              -0.000397242              -0.001405323               0.003407243               0.002001920               0.000000000               0.000000000               0.000000000               0.000000000              -0.000778478               0.008350356              -0.000411691              -0.001335721               0.003228664               0.001892944               0.000000000               0.000000000               0.000000000               0.000000000              -0.000708437               0.007937146              -0.000403884              -0.001257804               0.003064957               0.001807153               0.000000000               0.000000000               0.000000000               0.000000000              -0.000621949               0.007565478              -0.000377403              -0.001178913               0.002914772               0.001735859               0.000000000               0.000000000               0.000000000               0.000000000              -0.000524134               0.007236434              -0.000340261              -0.001101102               0.002779155               0.001678053               0.000000000               0.000000000               0.000000000               0.000000000              -0.000421434               0.006943537              -0.000300938              -0.001025977               0.002656482               0.001630504               0.000000000               0.000000000               0.000000000               0.000000000              -0.000320733               0.006681924              -0.000257666              -0.000955513               0.002545790               0.001590277               0.000000000               0.000000000               0.000000000               0.000000000              -0.000225651               0.006456286              -0.000212244              -0.000891653               0.002449291               0.001557639               0.000000000               0.000000000               0.000000000               0.000000000              -0.000145683               0.006274867              -0.000166032              -0.000838987               0.002371264               0.001532276               0.000000000               0.000000000               0.000000000               0.000000000              -0.000084043               0.006139922              -0.000113095              -0.000799005               0.002312955               0.001513951               0.000000000               0.000000000               0.000000000               0.000000000              -0.000035762               0.006045315              -0.000054976              -0.000769073               0.002271443               0.001502369               0.000000000               0.000000000               0.000000000               0.000000000              -0.000024278               0.005991601              -0.000032166              -0.000758052               0.002249864               0.001491812               0.000000000               0.000000000               0.000000000               0.000000000               0.001958539               0.010338812               0.003842917              -0.000557902               0.003632202               0.003074301               0.000000000               0.000000000               0.000000000               0.000000000               0.000313191               0.009857011               0.002270225              -0.001114679               0.003657197               0.002542518               0.000000000               0.000000000               0.000000000               0.000000000              -0.000884888               0.009913004               0.000756593              -0.001570955               0.003827953               0.002256998               0.000000000               0.000000000               0.000000000               0.000000000              -0.001241496               0.009507357               0.000228928              -0.001653977               0.003720413               0.002066436               0.000000000               0.000000000               0.000000000               0.000000000              -0.001285894               0.009030529               0.000023398              -0.001611022               0.003547154               0.001936131               0.000000000               0.000000000               0.000000000               0.000000000              -0.001202266               0.008576396              -0.000057530              -0.001522896               0.003366402               0.001843506               0.000000000               0.000000000               0.000000000               0.000000000              -0.001063895               0.008159124              -0.000091418              -0.001418848               0.003192630               0.001773782               0.000000000               0.000000000               0.000000000               0.000000000              -0.000906287               0.007784239              -0.000105080              -0.001312884               0.003032348               0.001719464               0.000000000               0.000000000               0.000000000               0.000000000              -0.000745877               0.007440455              -0.000101512              -0.001209758               0.002883379               0.001673622               0.000000000               0.000000000               0.000000000               0.000000000              -0.000593211               0.007117291              -0.000089170              -0.001112113               0.002743111               0.001630998               0.000000000               0.000000000               0.000000000               0.000000000              -0.000456472               0.006815590              -0.000075052              -0.001023123               0.002612882               0.001589759               0.000000000               0.000000000               0.000000000               0.000000000              -0.000338465               0.006544557              -0.000061903              -0.000944992               0.002496494               0.001551503               0.000000000               0.000000000               0.000000000               0.000000000              -0.000241253               0.006316212              -0.000054150              -0.000879994               0.002398714               0.001518720               0.000000000               0.000000000               0.000000000               0.000000000              -0.000164712               0.006132498              -0.000051621              -0.000828327               0.002320255               0.001491927               0.000000000               0.000000000               0.000000000               0.000000000              -0.000102263               0.005984013              -0.000045470              -0.000786348               0.002256767               0.001470419               0.000000000               0.000000000               0.000000000               0.000000000              -0.000048794               0.005857942              -0.000028913              -0.000750539               0.002202808               0.001452269               0.000000000               0.000000000               0.000000000               0.000000000              -0.000043032               0.005771059              -0.000028667              -0.000737518               0.002169506               0.001431989               0.000000000               0.000000000               0.000000000               0.000000000               0.001349173               0.008107707               0.003309467              -0.000507526               0.002871716               0.002364190               0.000000000               0.000000000               0.000000000               0.000000000              -0.000276174               0.008497362               0.002188915              -0.001165734               0.003221003               0.002055269               0.000000000               0.000000000               0.000000000               0.000000000              -0.001499806               0.009182755               0.001061641              -0.001710267               0.003630977               0.001920709               0.000000000               0.000000000               0.000000000               0.000000000              -0.001699800               0.009006012               0.000618968              -0.001763172               0.003589698               0.001826526               0.000000000               0.000000000               0.000000000               0.000000000              -0.001592457               0.008645131               0.000404748              -0.001677809               0.003440951               0.001763142               0.000000000               0.000000000               0.000000000               0.000000000              -0.001390529               0.008260625               0.000290933              -0.001554023               0.003271522               0.001717499               0.000000000               0.000000000               0.000000000               0.000000000              -0.001160661               0.007901888               0.000225668              -0.001422981               0.003108263               0.001685283               0.000000000               0.000000000               0.000000000               0.000000000              -0.000935673               0.007559590               0.000181515              -0.001295823               0.002951779               0.001655956               0.000000000               0.000000000               0.000000000               0.000000000              -0.000733847               0.007215493               0.000156436              -0.001177126               0.002797516               0.001620389               0.000000000               0.000000000               0.000000000               0.000000000              -0.000561854               0.006876448               0.000139118              -0.001070249               0.002648876               0.001578627               0.000000000               0.000000000               0.000000000               0.000000000              -0.000418809               0.006559885               0.000115198              -0.000977036               0.002512285               0.001535249               0.000000000               0.000000000               0.000000000               0.000000000              -0.000307918               0.006283618               0.000083330              -0.000900919               0.002394825               0.001493906               0.000000000               0.000000000               0.000000000               0.000000000              -0.000224366               0.006054054               0.000043465              -0.000840892               0.002298295               0.001457403               0.000000000               0.000000000               0.000000000               0.000000000              -0.000159747               0.005861655               0.000002258              -0.000792610               0.002218069               0.001425459               0.000000000               0.000000000               0.000000000               0.000000000              -0.000104174               0.005695717              -0.000024374              -0.000751028               0.002148896               0.001397868               0.000000000               0.000000000               0.000000000               0.000000000              -0.000053258               0.005551197              -0.000026841              -0.000713870               0.002088337               0.001374468               0.000000000               0.000000000               0.000000000               0.000000000              -0.000042685               0.005461864              -0.000029886              -0.000698738               0.002053516               0.001354778               0.000000000               0.000000000               0.000000000               0.000000000               0.000604494               0.006217690               0.002628471              -0.000550527               0.002256051               0.001705524               0.000000000               0.000000000               0.000000000               0.000000000              -0.000837847               0.007289561               0.002077181              -0.001225386               0.002838291               0.001612905               0.000000000               0.000000000               0.000000000               0.000000000              -0.001952413               0.008477746               0.001416307              -0.001791869               0.003423177               0.001631308               0.000000000               0.000000000               0.000000000               0.000000000              -0.001988281               0.008534185               0.001028423              -0.001812374               0.003448825               0.001636450               0.000000000               0.000000000               0.000000000               0.000000000              -0.001760745               0.008304258               0.000786200              -0.001698308               0.003334161               0.001635853               0.000000000               0.000000000               0.000000000               0.000000000              -0.001467022               0.008008065               0.000627567              -0.001551137               0.003186374               0.001635237               0.000000000               0.000000000               0.000000000               0.000000000              -0.001168724               0.007705024               0.000522860              -0.001401396               0.003035448               0.001634052               0.000000000               0.000000000               0.000000000               0.000000000              -0.000904366               0.007375399               0.000447463              -0.001261059               0.002878795               0.001617736               0.000000000               0.000000000               0.000000000               0.000000000              -0.000676052               0.007026151               0.000390849              -0.001131786               0.002719289               0.001587503               0.000000000               0.000000000               0.000000000               0.000000000              -0.000484146               0.006678721               0.000337243              -0.001016392               0.002565015               0.001548623               0.000000000               0.000000000               0.000000000               0.000000000              -0.000336159               0.006359911               0.000272307              -0.000921046               0.002426964               0.001505918               0.000000000               0.000000000               0.000000000               0.000000000              -0.000236868               0.006084648               0.000195923              -0.000849404               0.002311330               0.001461926               0.000000000               0.000000000               0.000000000               0.000000000              -0.000180836               0.005848685               0.000118092              -0.000798897               0.002215841               0.001416944               0.000000000               0.000000000               0.000000000               0.000000000              -0.000149093               0.005639346               0.000049690              -0.000760826               0.002133372               0.001372546               0.000000000               0.000000000               0.000000000               0.000000000              -0.000124581               0.005448354               0.000000556              -0.000727760               0.002058686               0.001330926               0.000000000               0.000000000               0.000000000               0.000000000              -0.000105785               0.005280896              -0.000020314              -0.000699780               0.001993541               0.001293761               0.000000000               0.000000000               0.000000000               0.000000000              -0.000095045               0.005197272              -0.000023596              -0.000685299               0.001960840               0.001275541               0.000000000               0.000000000               0.000000000               0.000000000              -0.000291805               0.004460564               0.001897204              -0.000666997               0.001709172               0.001042174               0.000000000               0.000000000               0.000000000               0.000000000              -0.001292616               0.005905472               0.001946123              -0.001222913               0.002376108               0.001153195               0.000000000               0.000000000               0.000000000               0.000000000              -0.002185934               0.007453515               0.001794514              -0.001751411               0.003068283               0.001316873               0.000000000               0.000000000               0.000000000               0.000000000              -0.002140705               0.007833629               0.001474451              -0.001781964               0.003205171               0.001423208               0.000000000               0.000000000               0.000000000               0.000000000              -0.001866167               0.007824877               0.001205078              -0.001677918               0.003167572               0.001489654               0.000000000               0.000000000               0.000000000               0.000000000              -0.001541564               0.007692094               0.001000197              -0.001539595               0.003077204               0.001537609               0.000000000               0.000000000               0.000000000               0.000000000              -0.001223762               0.007493744               0.000848317              -0.001395625               0.002963098               0.001567473               0.000000000               0.000000000               0.000000000               0.000000000              -0.000942036               0.007236593               0.000730062              -0.001257835               0.002831452               0.001573617               0.000000000               0.000000000               0.000000000               0.000000000              -0.000704329               0.006937862               0.000635795              -0.001131353               0.002689715               0.001558362               0.000000000               0.000000000               0.000000000               0.000000000              -0.000509393               0.006614100               0.000546475              -0.001017782               0.002543939               0.001526156               0.000000000               0.000000000               0.000000000               0.000000000              -0.000355541               0.006301853               0.000447948              -0.000921057               0.002407616               0.001486559               0.000000000               0.000000000               0.000000000               0.000000000              -0.000251446               0.006014493               0.000341147              -0.000846102               0.002286845               0.001440743               0.000000000               0.000000000               0.000000000               0.000000000              -0.000194945               0.005762581               0.000234978              -0.000793425               0.002185316               0.001391891               0.000000000               0.000000000               0.000000000               0.000000000              -0.000178612               0.005540657               0.000140287              -0.000759560               0.002100054               0.001340494               0.000000000               0.000000000               0.000000000               0.000000000              -0.000184356               0.005345791               0.000061258              -0.000737356               0.002027698               0.001290342               0.000000000               0.000000000               0.000000000               0.000000000              -0.000201428               0.005168765               0.000009673              -0.000721629               0.001963447               0.001241818               0.000000000               0.000000000               0.000000000               0.000000000              -0.000211052               0.005077836              -0.000006622              -0.000713872               0.001930552               0.001216680               0.000000000               0.000000000               0.000000000               0.000000000              -0.001479920               0.002869869               0.001159542              -0.000913702               0.001261180               0.000347478               0.000000000               0.000000000               0.000000000               0.000000000              -0.001815231               0.004524624               0.001746155              -0.001246287               0.001923622               0.000677334               0.000000000               0.000000000               0.000000000               0.000000000              -0.002335783               0.006273137               0.002087116              -0.001660057               0.002644376               0.000984319               0.000000000               0.000000000               0.000000000               0.000000000              -0.002217727               0.006956786               0.001895975              -0.001701242               0.002885986               0.001184743               0.000000000               0.000000000               0.000000000               0.000000000              -0.001923511               0.007200844               0.001632717              -0.001621419               0.002940730               0.001319311               0.000000000               0.000000000               0.000000000               0.000000000              -0.001590716               0.007260155               0.001397603              -0.001504034               0.002921372               0.001417338               0.000000000               0.000000000               0.000000000               0.000000000              -0.001276598               0.007196973               0.001204977              -0.001378343               0.002858415               0.001480072               0.000000000               0.000000000               0.000000000               0.000000000              -0.000992444               0.007045690               0.001049773              -0.001252875               0.002766164               0.001513290               0.000000000               0.000000000               0.000000000               0.000000000              -0.000741968               0.006836831               0.000918411              -0.001132839               0.002656534               0.001523695               0.000000000               0.000000000               0.000000000               0.000000000              -0.000533667               0.006584933               0.000796724              -0.001023240               0.002536036               0.001512796               0.000000000               0.000000000               0.000000000               0.000000000              -0.000360031               0.006313327               0.000675517              -0.000924175               0.002412480               0.001488304               0.000000000               0.000000000               0.000000000               0.000000000              -0.000229956               0.006033622               0.000550310              -0.000840434               0.002291332               0.001450898               0.000000000               0.000000000               0.000000000               0.000000000              -0.000149691               0.005771700               0.000422723              -0.000777595               0.002183079               0.001405484               0.000000000               0.000000000               0.000000000               0.000000000              -0.000123617               0.005538203               0.000296776              -0.000738630               0.002092259               0.001353629               0.000000000               0.000000000               0.000000000               0.000000000              -0.000148261               0.005338160               0.000178583              -0.000722866               0.002020324               0.001297458               0.000000000               0.000000000               0.000000000               0.000000000              -0.000215975               0.005160077               0.000075012              -0.000725998               0.001962008               0.001236010               0.000000000               0.000000000               0.000000000               0.000000000              -0.000276439               0.005061622               0.000022323              -0.000736365               0.001932646               0.001196280               0.000000000               0.000000000               0.000000000               0.000000000              -0.002880083               0.001555365               0.000471816              -0.001274449               0.000943265              -0.000331184               0.000000000               0.000000000               0.000000000               0.000000000              -0.002455341               0.003225581               0.001457296              -0.001323948               0.001516498               0.000192550               0.000000000               0.000000000               0.000000000               0.000000000              -0.002441092               0.004953806               0.002196125              -0.001534632               0.002162795               0.000628163               0.000000000               0.000000000               0.000000000               0.000000000              -0.002184862               0.005851674               0.002168391              -0.001550780               0.002467464               0.000916685               0.000000000               0.000000000               0.000000000               0.000000000              -0.001860550               0.006331667               0.001956811              -0.001489162               0.002606921               0.001117759               0.000000000               0.000000000               0.000000000               0.000000000              -0.001527791               0.006590623               0.001725969              -0.001396747               0.002662434               0.001265688               0.000000000               0.000000000               0.000000000               0.000000000              -0.001224205               0.006688510               0.001516359              -0.001295138               0.002661193               0.001366055               0.000000000               0.000000000               0.000000000               0.000000000              -0.000951377               0.006671531               0.001339760              -0.001190705               0.002620723               0.001430018               0.000000000               0.000000000               0.000000000               0.000000000              -0.000706272               0.006573291               0.001184857              -0.001086511               0.002553245               0.001466734               0.000000000               0.000000000               0.000000000               0.000000000              -0.000490012               0.006420990               0.001039802              -0.000986376               0.002469101               0.001482725               0.000000000               0.000000000               0.000000000               0.000000000              -0.000303342               0.006227849               0.000899507              -0.000892232               0.002373340               0.001481107               0.000000000               0.000000000               0.000000000               0.000000000              -0.000148487               0.006001705               0.000759430              -0.000805894               0.002269179               0.001463285               0.000000000               0.000000000               0.000000000               0.000000000              -0.000030765               0.005766332               0.000618622              -0.000732327               0.002166200               0.001433874               0.000000000               0.000000000               0.000000000               0.000000000               0.000037120               0.005540903               0.000471431              -0.000678691               0.002073180               0.001394488               0.000000000               0.000000000               0.000000000               0.000000000               0.000038620               0.005338383               0.000315075              -0.000652814               0.001997048               0.001344234               0.000000000               0.000000000               0.000000000               0.000000000              -0.000035343               0.005158792               0.000154365              -0.000658101               0.001938947               0.001280846               0.000000000               0.000000000               0.000000000               0.000000000              -0.000119080               0.005058299               0.000064872              -0.000676941               0.001911730               0.001234789               0.000000000               0.000000000               0.000000000               0.000000000              -0.004383018               0.000583174              -0.000073782              -0.001716526               0.000766562              -0.000949965               0.000000000               0.000000000               0.000000000               0.000000000              -0.003168133               0.002077517               0.001116851              -0.001447737               0.001175076              -0.000272661               0.000000000               0.000000000               0.000000000               0.000000000              -0.002522589               0.003606121               0.002098213              -0.001396733               0.001667605               0.000270872               0.000000000               0.000000000               0.000000000               0.000000000              -0.002062726               0.004608791               0.002221704              -0.001349619               0.001986120               0.000636501               0.000000000               0.000000000               0.000000000               0.000000000              -0.001681423               0.005277197               0.002087112              -0.001290181               0.002189108               0.000898927               0.000000000               0.000000000               0.000000000               0.000000000              -0.001347923               0.005720574               0.001889315              -0.001220541               0.002313685               0.001093145               0.000000000               0.000000000               0.000000000               0.000000000              -0.001057619               0.005978008               0.001693319              -0.001143856               0.002373934               0.001230078               0.000000000               0.000000000               0.000000000               0.000000000              -0.000800196               0.006106634               0.001518046              -0.001063401               0.002389991               0.001326590               0.000000000               0.000000000               0.000000000               0.000000000              -0.000567367               0.006139033               0.001357918              -0.000980140               0.002373037               0.001392897               0.000000000               0.000000000               0.000000000               0.000000000              -0.000353383               0.006099500               0.001206448              -0.000894954               0.002331464               0.001436510               0.000000000               0.000000000               0.000000000               0.000000000              -0.000160512               0.006007893               0.001059752              -0.000811177               0.002273003               0.001461826               0.000000000               0.000000000               0.000000000               0.000000000               0.000016115               0.005871554               0.000918768              -0.000727900               0.002199798               0.001471898               0.000000000               0.000000000               0.000000000               0.000000000               0.000176686               0.005701074               0.000777129              -0.000646376               0.002115797               0.001469422               0.000000000               0.000000000               0.000000000               0.000000000               0.000305941               0.005516842               0.000617920              -0.000574876               0.002030554               0.001455678               0.000000000               0.000000000               0.000000000               0.000000000               0.000379383               0.005333252               0.000433570              -0.000524387               0.001952528               0.001428142               0.000000000               0.000000000               0.000000000               0.000000000               0.000379518               0.005161468               0.000226363              -0.000502863               0.001888093               0.001385230               0.000000000               0.000000000               0.000000000               0.000000000               0.000341462               0.005070883               0.000111898              -0.000505811               0.001858881               0.001353070               0.000000000               0.000000000               0.000000000               0.000000000              -0.005836542              -0.000057159              -0.000394302              -0.002181556               0.000708128              -0.001473429               0.000000000               0.000000000               0.000000000               0.000000000              -0.003887883               0.001143944               0.000773739              -0.001600947               0.000914957              -0.000685990               0.000000000               0.000000000               0.000000000               0.000000000              -0.002598963               0.002359380               0.001791035              -0.001269532               0.001209628              -0.000059904               0.000000000               0.000000000               0.000000000               0.000000000              -0.001891639               0.003368992               0.002009379              -0.001130487               0.001499814               0.000369327               0.000000000               0.000000000               0.000000000               0.000000000              -0.001424740               0.004156875               0.001951277              -0.001053885               0.001736905               0.000683020               0.000000000               0.000000000               0.000000000               0.000000000              -0.001073910               0.004744236               0.001806267              -0.000995744               0.001913310               0.000917566               0.000000000               0.000000000               0.000000000               0.000000000              -0.000789962               0.005145097               0.001645888              -0.000939371               0.002028139               0.001088767               0.000000000               0.000000000               0.000000000               0.000000000              -0.000547936               0.005405502               0.001493811              -0.000881162               0.002095536               0.001214374               0.000000000               0.000000000               0.000000000               0.000000000              -0.000331374               0.005561284               0.001349725              -0.000819424               0.002126884               0.001307459               0.000000000               0.000000000               0.000000000               0.000000000              -0.000126405               0.005641929               0.001209373              -0.000752642               0.002131505               0.001378863               0.000000000               0.000000000               0.000000000               0.000000000               0.000073452               0.005658836               0.001075660              -0.000679809               0.002112863               0.001433054               0.000000000               0.000000000               0.000000000               0.000000000               0.000271932               0.005621402               0.000952029              -0.000600700               0.002074015               0.001473315               0.000000000               0.000000000               0.000000000               0.000000000               0.000469251               0.005542539               0.000825067              -0.000516847               0.002019777               0.001502929               0.000000000               0.000000000               0.000000000               0.000000000               0.000659647               0.005432955               0.000671507              -0.000431751               0.001954884               0.001523133               0.000000000               0.000000000               0.000000000               0.000000000               0.000830894               0.005299777               0.000484313              -0.000350886               0.001883537               0.001532651               0.000000000               0.000000000               0.000000000               0.000000000               0.000965460               0.005153822               0.000260692              -0.000282180               0.001811983               0.001529804               0.000000000               0.000000000               0.000000000               0.000000000               0.001039395               0.005087053               0.000141540              -0.000246108               0.001777703               0.001531596               0.000000000               0.000000000               0.000000000               0.000000000              -0.007057300              -0.000424664              -0.000459008              -0.002593403               0.000722908              -0.001870495               0.000000000               0.000000000               0.000000000               0.000000000              -0.004519030               0.000465039               0.000466894              -0.001752764               0.000739263              -0.001013502               0.000000000               0.000000000               0.000000000               0.000000000              -0.002676808               0.001349441               0.001302754              -0.001172481               0.000840634              -0.000331847               0.000000000               0.000000000               0.000000000               0.000000000              -0.001727555               0.002301599               0.001527839              -0.000935531               0.001079035               0.000143504               0.000000000               0.000000000               0.000000000               0.000000000              -0.001159733               0.003143953               0.001521870              -0.000827893               0.001323938               0.000496045               0.000000000               0.000000000               0.000000000               0.000000000              -0.000774878               0.003825485               0.001434566              -0.000768764               0.001531403               0.000762639               0.000000000               0.000000000               0.000000000               0.000000000              -0.000490080               0.004331790               0.001324173              -0.000725252               0.001685666               0.000960413               0.000000000               0.000000000               0.000000000               0.000000000              -0.000258315               0.004699208               0.001211944              -0.000684268               0.001794476               0.001110208               0.000000000               0.000000000               0.000000000               0.000000000              -0.000055020               0.004961343               0.001101019              -0.000640799               0.001867364               0.001226565               0.000000000               0.000000000               0.000000000               0.000000000               0.000140644               0.005143651               0.000992991              -0.000590214               0.001911271               0.001321057               0.000000000               0.000000000               0.000000000               0.000000000               0.000343535               0.005257515               0.000893487              -0.000528363               0.001928608               0.001400246               0.000000000               0.000000000               0.000000000               0.000000000               0.000559441               0.005316315               0.000801489              -0.000454748               0.001923670               0.001468922               0.000000000               0.000000000               0.000000000               0.000000000               0.000785861               0.005328273               0.000703421              -0.000371335               0.001899852               0.001528516               0.000000000               0.000000000               0.000000000               0.000000000               0.001028277               0.005299395               0.000582180              -0.000276820               0.001858721               0.001581901               0.000000000               0.000000000               0.000000000               0.000000000               0.001293198               0.005233161               0.000427691              -0.000169196               0.001800768               0.001631572               0.000000000               0.000000000               0.000000000               0.000000000               0.001574312               0.005129690               0.000232625              -0.000050845               0.001726828               0.001675983               0.000000000               0.000000000               0.000000000               0.000000000               0.001783513               0.005094710               0.000132744               0.000031978               0.001687560               0.001719538               0.000000000               0.000000000               0.000000000               0.000000000              -0.007875776              -0.000596482              -0.000295753              -0.002878854               0.000760785              -0.002118068               0.000000000               0.000000000               0.000000000               0.000000000              -0.004954795               0.000059329               0.000213679              -0.001865463               0.000641593              -0.001223870               0.000000000               0.000000000               0.000000000               0.000000000              -0.002735485               0.000694418               0.000683114              -0.001112608               0.000602338              -0.000510270               0.000000000               0.000000000               0.000000000               0.000000000              -0.001610835               0.001577694               0.000824937              -0.000801273               0.000792983              -0.000008290               0.000000000               0.000000000               0.000000000               0.000000000              -0.000960263               0.002432501               0.000836292              -0.000664160               0.001032212               0.000368052               0.000000000               0.000000000               0.000000000               0.000000000              -0.000542372               0.003160610               0.000798462              -0.000598465               0.001253014               0.000654549               0.000000000               0.000000000               0.000000000               0.000000000              -0.000253302               0.003730017               0.000743391              -0.000561239               0.001430406               0.000869167               0.000000000               0.000000000               0.000000000               0.000000000              -0.000029948               0.004166773               0.000683070              -0.000532076               0.001566269               0.001034193               0.000000000               0.000000000               0.000000000               0.000000000               0.000165206               0.004499005               0.000621852              -0.000500422               0.001666461               0.001166038               0.000000000               0.000000000               0.000000000               0.000000000               0.000359556               0.004753003               0.000562985              -0.000459291               0.001737415               0.001278125               0.000000000               0.000000000               0.000000000               0.000000000               0.000563184               0.004938080               0.000510850              -0.000406065               0.001781365               0.001375300               0.000000000               0.000000000               0.000000000               0.000000000               0.000783506               0.005066383               0.000462030              -0.000339482               0.001801938               0.001462456               0.000000000               0.000000000               0.000000000               0.000000000               0.001027700               0.005145608               0.000407561              -0.000257813               0.001801123               0.001543310               0.000000000               0.000000000               0.000000000               0.000000000               0.001308166               0.005177395               0.000341014              -0.000156612               0.001777985               0.001621373               0.000000000               0.000000000               0.000000000               0.000000000               0.001639780               0.005161256               0.000252905              -0.000030240               0.001730481               0.001700242               0.000000000               0.000000000               0.000000000               0.000000000               0.002037255               0.005096621               0.000138214               0.000126892               0.001656559               0.001783451               0.000000000               0.000000000               0.000000000               0.000000000               0.002357560               0.005090643               0.000081476               0.000247752               0.001614280               0.001862032               0.000000000               0.000000000               0.000000000               0.000000000              -0.008166568              -0.000646449               0.000000000              -0.002981655               0.000778397              -0.002203258               0.000000000               0.000000000               0.000000000               0.000000000              -0.005111771              -0.000078775              -0.000000000              -0.001907066               0.000609426              -0.001297640               0.000000000               0.000000000               0.000000000               0.000000000              -0.002756217               0.000465897               0.000000000              -0.001091817               0.000519235              -0.000572583               0.000000000               0.000000000               0.000000000               0.000000000              -0.001566511               0.001324127               0.000000000              -0.000752956               0.000692356              -0.000060600               0.000000000               0.000000000               0.000000000               0.000000000              -0.000883920               0.002179304               0.000000000              -0.000603882               0.000927721               0.000323839               0.000000000               0.000000000               0.000000000               0.000000000              -0.000452835               0.002918139               0.000000000              -0.000534579               0.001150896               0.000616317               0.000000000               0.000000000               0.000000000               0.000000000              -0.000163294               0.003504730               0.000000000              -0.000499325               0.001334673               0.000835348               0.000000000               0.000000000               0.000000000               0.000000000               0.000056218               0.003965319               0.000000000              -0.000474582               0.001479954               0.001005372               0.000000000               0.000000000               0.000000000               0.000000000               0.000249329               0.004324196              -0.000000000              -0.000447025               0.001590393               0.001143368               0.000000000               0.000000000               0.000000000               0.000000000               0.000443041               0.004603675              -0.000000000              -0.000409318               0.001670983               0.001261664               0.000000000               0.000000000               0.000000000               0.000000000               0.000647518               0.004815328               0.000000000              -0.000359096               0.001724792               0.001365696               0.000000000               0.000000000               0.000000000               0.000000000               0.000867411               0.004969000               0.000000000              -0.000295845               0.001754932               0.001459087               0.000000000               0.000000000               0.000000000               0.000000000               0.001117198               0.005074033               0.000000000              -0.000215304               0.001763096               0.001547791               0.000000000               0.000000000               0.000000000               0.000000000               0.001412529               0.005130032              -0.000000000              -0.000111555               0.001747179               0.001635623               0.000000000               0.000000000               0.000000000               0.000000000               0.001769896               0.005131559               0.000000000               0.000022266               0.001703081               0.001725346               0.000000000               0.000000000               0.000000000               0.000000000               0.002213706               0.005080803               0.000000000               0.000195037               0.001628572               0.001823609               0.000000000               0.000000000               0.000000000               0.000000000               0.002577460               0.005085773               0.000000000               0.000330823               0.001584967               0.001915789               0.000000000               0.000000000               0.000000000               0.000000000               0.001879994               0.020801361               0.000000000              -0.001895168               0.007565440               0.005670272               0.000000000               0.000000000               0.000000000               0.000000000               0.001886394               0.016426360              -0.000000000              -0.001345894               0.005924030               0.004578136               0.000000000               0.000000000               0.000000000               0.000000000               0.002498398               0.012890181               0.000000000              -0.000674372               0.004521475               0.003847103               0.000000000               0.000000000               0.000000000               0.000000000               0.002427197               0.010912513               0.000000000              -0.000453864               0.003788756               0.003334892               0.000000000               0.000000000               0.000000000               0.000000000               0.002144398               0.009685590               0.000000000              -0.000406549               0.003364014               0.002957465               0.000000000               0.000000000               0.000000000               0.000000000               0.001814944               0.008863295               0.000000000              -0.000427307               0.003096838               0.002669531               0.000000000               0.000000000               0.000000000               0.000000000               0.001499874               0.008260259               0.000000000              -0.000470078               0.002910085               0.002440007               0.000000000               0.000000000               0.000000000               0.000000000               0.001216415               0.007784947               0.000000000              -0.000516961               0.002767277               0.002250315               0.000000000               0.000000000               0.000000000               0.000000000               0.000967903               0.007389211               0.000000000              -0.000560686               0.002649941               0.002089255               0.000000000               0.000000000               0.000000000               0.000000000               0.000751217               0.007032418               0.000000000              -0.000597344               0.002543231               0.001945886               0.000000000               0.000000000               0.000000000               0.000000000               0.000568198               0.006693759              -0.000000000              -0.000623644               0.002439112               0.001815468               0.000000000               0.000000000               0.000000000               0.000000000               0.000414491               0.006356186              -0.000000000              -0.000639088               0.002331737               0.001692649               0.000000000               0.000000000               0.000000000               0.000000000               0.000285878               0.006009304               0.000000000              -0.000643957               0.002217734               0.001573776               0.000000000               0.000000000               0.000000000               0.000000000               0.000176930               0.005644424              -0.000000000              -0.000639203               0.002094523               0.001455321               0.000000000               0.000000000               0.000000000               0.000000000               0.000087193               0.005242787               0.000000000              -0.000622650               0.001955128               0.001332479               0.000000000               0.000000000               0.000000000               0.000000000               0.000032399               0.004780005               0.000000000              -0.000585350               0.001788436               0.001203086               0.000000000               0.000000000               0.000000000               0.000000000              -0.000022007               0.004421198               0.000000000              -0.000560901               0.001660685               0.001099784               0.000000000               0.000000000               0.000000000               0.000000000               0.001956755               0.020384695              -0.001435100              -0.001814300               0.007399597               0.005585297               0.000000000               0.000000000               0.000000000               0.000000000               0.001860404               0.016153421              -0.000744931              -0.001321523               0.005824927               0.004503404               0.000000000               0.000000000               0.000000000               0.000000000               0.002362583               0.012772665              -0.000058237              -0.000710613               0.004494383               0.003783771               0.000000000               0.000000000               0.000000000               0.000000000               0.002248549               0.010877131               0.000230049              -0.000516434               0.003797819               0.003281385               0.000000000               0.000000000               0.000000000               0.000000000               0.001958044               0.009694495               0.000350618              -0.000477544               0.003390647               0.002913103               0.000000000               0.000000000               0.000000000               0.000000000               0.001634828               0.008888424               0.000394742              -0.000497991               0.003128776               0.002630784               0.000000000               0.000000000               0.000000000               0.000000000               0.001334175               0.008294391               0.000401125              -0.000536482               0.002943597               0.002407115               0.000000000               0.000000000               0.000000000               0.000000000               0.001069077               0.007825226               0.000394487              -0.000577248               0.002800799               0.002223551               0.000000000               0.000000000               0.000000000               0.000000000               0.000838313               0.007427158               0.000379615              -0.000614026               0.002680370               0.002066344               0.000000000               0.000000000               0.000000000               0.000000000               0.000642193               0.007068148               0.000359487              -0.000642694               0.002570257               0.001927563               0.000000000               0.000000000               0.000000000               0.000000000               0.000480266               0.006730191               0.000337757              -0.000661172               0.002463765               0.001802593               0.000000000               0.000000000               0.000000000               0.000000000               0.000347865               0.006399272               0.000313129              -0.000669458               0.002356222               0.001686764               0.000000000               0.000000000               0.000000000               0.000000000               0.000238963               0.006063611               0.000286909              -0.000668339               0.002243963               0.001575624               0.000000000               0.000000000               0.000000000               0.000000000               0.000146074               0.005712189               0.000253126              -0.000659244               0.002123792               0.001464548               0.000000000               0.000000000               0.000000000               0.000000000               0.000071867               0.005333510               0.000198348              -0.000639737               0.001991065               0.001351328               0.000000000               0.000000000               0.000000000               0.000000000               0.000026823               0.004914933               0.000113683              -0.000604307               0.001839730               0.001235424               0.000000000               0.000000000               0.000000000               0.000000000              -0.000019353               0.004603864               0.000069329              -0.000582739               0.001728852               0.001146113               0.000000000               0.000000000               0.000000000               0.000000000               0.002146241               0.019193555              -0.002678094              -0.001594351               0.006929238               0.005334887               0.000000000               0.000000000               0.000000000               0.000000000               0.001769789               0.015381002              -0.001392354              -0.001258952               0.005546600               0.004287648               0.000000000               0.000000000               0.000000000               0.000000000               0.001974386               0.012439908              -0.000124598              -0.000814592               0.004418125               0.003603533               0.000000000               0.000000000               0.000000000               0.000000000               0.001751248               0.010768267               0.000392192              -0.000689314               0.003819158               0.003129844               0.000000000               0.000000000               0.000000000               0.000000000               0.001443628               0.009699754               0.000599654              -0.000671107               0.003456921               0.002785814               0.000000000               0.000000000               0.000000000               0.000000000               0.001145653               0.008945755               0.000671853              -0.000688598               0.003211421               0.002522823               0.000000000               0.000000000               0.000000000               0.000000000               0.000890714               0.008375487               0.000683495              -0.000712916               0.003029440               0.002316524               0.000000000               0.000000000               0.000000000               0.000000000               0.000678462               0.007915651               0.000669546              -0.000735032               0.002883535               0.002148503               0.000000000               0.000000000               0.000000000               0.000000000               0.000500254               0.007518049               0.000639427              -0.000752159               0.002756711               0.002004552               0.000000000               0.000000000               0.000000000               0.000000000               0.000357933               0.007157240               0.000601625              -0.000760428               0.002639199               0.001878771               0.000000000               0.000000000               0.000000000               0.000000000               0.000246344               0.006818779               0.000561256              -0.000759966               0.002526226               0.001766259               0.000000000               0.000000000               0.000000000               0.000000000               0.000159419               0.006495669               0.000516641              -0.000752175               0.002415926               0.001663752               0.000000000               0.000000000               0.000000000               0.000000000               0.000094395               0.006183253               0.000465402              -0.000737507               0.002306899               0.001569393               0.000000000               0.000000000               0.000000000               0.000000000               0.000047723               0.005874026               0.000399931              -0.000716355               0.002196774               0.001480419               0.000000000               0.000000000               0.000000000               0.000000000               0.000019615               0.005565736               0.000303884              -0.000688360               0.002084680               0.001396320               0.000000000               0.000000000               0.000000000               0.000000000               0.000005757               0.005262553               0.000169214              -0.000655659               0.001972720               0.001317061               0.000000000               0.000000000               0.000000000               0.000000000              -0.000016808               0.005062920               0.000099222              -0.000639166               0.001900678               0.001261512               0.000000000               0.000000000               0.000000000               0.000000000               0.002349271               0.017380169              -0.003574863              -0.001291544               0.006223846               0.004932302               0.000000000               0.000000000               0.000000000               0.000000000               0.001582219               0.014222947              -0.001868810              -0.001184534               0.005135779               0.003951245               0.000000000               0.000000000               0.000000000               0.000000000               0.001374801               0.011937655              -0.000207463              -0.000976654               0.004304730               0.003328076               0.000000000               0.000000000               0.000000000               0.000000000               0.001027439               0.010581338               0.000437368              -0.000937376               0.003839536               0.002902160               0.000000000               0.000000000               0.000000000               0.000000000               0.000717322               0.009666372               0.000683471              -0.000939299               0.003535191               0.002595893               0.000000000               0.000000000               0.000000000               0.000000000               0.000474561               0.008985953               0.000764067              -0.000945282               0.003310381               0.002365100               0.000000000               0.000000000               0.000000000               0.000000000               0.000296580               0.008445726               0.000774141              -0.000944496               0.003130046               0.002185550               0.000000000               0.000000000               0.000000000               0.000000000               0.000163910               0.007992533               0.000753773              -0.000937598               0.002976684               0.002039086               0.000000000               0.000000000               0.000000000               0.000000000               0.000064556               0.007595978               0.000713725              -0.000925287               0.002840396               0.001915110               0.000000000               0.000000000               0.000000000               0.000000000              -0.000002697               0.007235833               0.000663459              -0.000905488               0.002713749               0.001808261               0.000000000               0.000000000               0.000000000               0.000000000              -0.000042533               0.006905247               0.000610952              -0.000879104               0.002594761               0.001715657               0.000000000               0.000000000               0.000000000               0.000000000              -0.000059833               0.006602636               0.000555530              -0.000847765               0.002483445               0.001635680               0.000000000               0.000000000               0.000000000               0.000000000              -0.000059924               0.006327067               0.000492547              -0.000813353               0.002380119               0.001566766               0.000000000               0.000000000               0.000000000               0.000000000              -0.000049909               0.006077000               0.000411597              -0.000778339               0.002285093               0.001506754               0.000000000               0.000000000               0.000000000               0.000000000              -0.000036081               0.005857903               0.000301003              -0.000745767               0.002201204               0.001455437               0.000000000               0.000000000               0.000000000               0.000000000              -0.000019369               0.005686158               0.000161052              -0.000718031               0.002134711               0.001416680               0.000000000               0.000000000               0.000000000               0.000000000              -0.000015091               0.005599423               0.000087940              -0.000705585               0.002101651               0.001396066               0.000000000               0.000000000               0.000000000               0.000000000               0.002446344               0.015153572              -0.004054494              -0.000976818               0.005376745               0.004399927               0.000000000               0.000000000               0.000000000               0.000000000               0.001274862               0.012824073              -0.002155534              -0.001124934               0.004649626               0.003524692               0.000000000               0.000000000               0.000000000               0.000000000               0.000636514               0.011320306              -0.000327933              -0.001176342               0.004165512               0.002989169               0.000000000               0.000000000               0.000000000               0.000000000               0.000203934               0.010310481               0.000342084              -0.001212332               0.003840903               0.002628571               0.000000000               0.000000000               0.000000000               0.000000000              -0.000066021               0.009556822               0.000584490              -0.001219358               0.003592028               0.002372670               0.000000000               0.000000000               0.000000000               0.000000000              -0.000221982               0.008952424               0.000658894              -0.001202293               0.003384876               0.002182583               0.000000000               0.000000000               0.000000000               0.000000000              -0.000303906               0.008445162               0.000665659              -0.001169607               0.003204895               0.002035288               0.000000000               0.000000000               0.000000000               0.000000000              -0.000338140               0.008006481               0.000645599              -0.001127610               0.003044670               0.001917061               0.000000000               0.000000000               0.000000000               0.000000000              -0.000341087               0.007614877               0.000607306              -0.001079765               0.002898188               0.001818424               0.000000000               0.000000000               0.000000000               0.000000000              -0.000319370               0.007265255               0.000556643              -0.001027918               0.002764367               0.001736449               0.000000000               0.000000000               0.000000000               0.000000000              -0.000281928               0.006955187               0.000503977              -0.000975119               0.002643412               0.001668293               0.000000000               0.000000000               0.000000000               0.000000000              -0.000229117               0.006682335               0.000447496              -0.000921208               0.002534492               0.001613284               0.000000000               0.000000000               0.000000000               0.000000000              -0.000168341               0.006442075               0.000384472              -0.000868385               0.002436798               0.001568413               0.000000000               0.000000000               0.000000000               0.000000000              -0.000112688               0.006240306               0.000308627              -0.000822294               0.002354179               0.001531885               0.000000000               0.000000000               0.000000000               0.000000000              -0.000064253               0.006089300               0.000215228              -0.000785255               0.002291498               0.001506243               0.000000000               0.000000000               0.000000000               0.000000000              -0.000026641               0.005995669               0.000108904              -0.000759447               0.002251686               0.001492238               0.000000000               0.000000000               0.000000000               0.000000000              -0.000013072               0.005960417               0.000055392              -0.000749952               0.002236770               0.001486818               0.000000000               0.000000000               0.000000000               0.000000000               0.002333373               0.012739746              -0.004121882              -0.000717455               0.004485690               0.003768235               0.000000000               0.000000000               0.000000000               0.000000000               0.000843972               0.011329855              -0.002273781              -0.001099741               0.004143161               0.003043419               0.000000000               0.000000000               0.000000000               0.000000000              -0.000146814               0.010633711              -0.000508163              -0.001384266               0.004005957               0.002621691               0.000000000               0.000000000               0.000000000               0.000000000              -0.000587403               0.009948297               0.000109093              -0.001463810               0.003804003               0.002340193               0.000000000               0.000000000               0.000000000               0.000000000              -0.000766271               0.009342440               0.000328731              -0.001455153               0.003599167               0.002144014               0.000000000               0.000000000               0.000000000               0.000000000              -0.000808705               0.008816495               0.000397242              -0.001405323               0.003407243               0.002001920               0.000000000               0.000000000               0.000000000               0.000000000              -0.000778478               0.008350356               0.000411691              -0.001335721               0.003228664               0.001892944               0.000000000               0.000000000               0.000000000               0.000000000              -0.000708437               0.007937146               0.000403884              -0.001257804               0.003064957               0.001807153               0.000000000               0.000000000               0.000000000               0.000000000              -0.000621949               0.007565478               0.000377403              -0.001178913               0.002914772               0.001735859               0.000000000               0.000000000               0.000000000               0.000000000              -0.000524134               0.007236434               0.000340261              -0.001101102               0.002779155               0.001678053               0.000000000               0.000000000               0.000000000               0.000000000              -0.000421434               0.006943537               0.000300938              -0.001025977               0.002656482               0.001630504               0.000000000               0.000000000               0.000000000               0.000000000              -0.000320733               0.006681924               0.000257666              -0.000955513               0.002545790               0.001590277               0.000000000               0.000000000               0.000000000               0.000000000              -0.000225651               0.006456286               0.000212244              -0.000891653               0.002449291               0.001557639               0.000000000               0.000000000               0.000000000               0.000000000              -0.000145683               0.006274867               0.000166032              -0.000838987               0.002371264               0.001532276               0.000000000               0.000000000               0.000000000               0.000000000              -0.000084043               0.006139922               0.000113095              -0.000799005               0.002312955               0.001513951               0.000000000               0.000000000               0.000000000               0.000000000              -0.000035762               0.006045315               0.000054976              -0.000769073               0.002271443               0.001502369               0.000000000               0.000000000               0.000000000               0.000000000              -0.000024278               0.005991601               0.000032166              -0.000758052               0.002249864               0.001491812               0.000000000               0.000000000               0.000000000               0.000000000               0.001958539               0.010338812              -0.003842917              -0.000557902               0.003632202               0.003074301               0.000000000               0.000000000               0.000000000               0.000000000               0.000313191               0.009857011              -0.002270225              -0.001114679               0.003657197               0.002542518               0.000000000               0.000000000               0.000000000               0.000000000              -0.000884888               0.009913004              -0.000756593              -0.001570955               0.003827953               0.002256998               0.000000000               0.000000000               0.000000000               0.000000000              -0.001241496               0.009507357              -0.000228928              -0.001653977               0.003720413               0.002066436               0.000000000               0.000000000               0.000000000               0.000000000              -0.001285894               0.009030529              -0.000023398              -0.001611022               0.003547154               0.001936131               0.000000000               0.000000000               0.000000000               0.000000000              -0.001202266               0.008576396               0.000057530              -0.001522896               0.003366402               0.001843506               0.000000000               0.000000000               0.000000000               0.000000000              -0.001063895               0.008159124               0.000091418              -0.001418848               0.003192630               0.001773782               0.000000000               0.000000000               0.000000000               0.000000000              -0.000906287               0.007784239               0.000105080              -0.001312884               0.003032348               0.001719464               0.000000000               0.000000000               0.000000000               0.000000000              -0.000745877               0.007440455               0.000101512              -0.001209758               0.002883379               0.001673622               0.000000000               0.000000000               0.000000000               0.000000000              -0.000593211               0.007117291               0.000089170              -0.001112113               0.002743111               0.001630998               0.000000000               0.000000000               0.000000000               0.000000000              -0.000456472               0.006815590               0.000075052              -0.001023123               0.002612882               0.001589759               0.000000000               0.000000000               0.000000000               0.000000000              -0.000338465               0.006544557               0.000061903              -0.000944992               0.002496494               0.001551503               0.000000000               0.000000000               0.000000000               0.000000000              -0.000241253               0.006316212               0.000054150              -0.000879994               0.002398714               0.001518720               0.000000000               0.000000000               0.000000000               0.000000000              -0.000164712               0.006132498               0.000051621              -0.000828327               0.002320255               0.001491927               0.000000000               0.000000000               0.000000000               0.000000000              -0.000102263               0.005984013               0.000045470              -0.000786348               0.002256767               0.001470419               0.000000000               0.000000000               0.000000000               0.000000000              -0.000048794               0.005857942               0.000028913              -0.000750539               0.002202808               0.001452269               0.000000000               0.000000000               0.000000000               0.000000000              -0.000043032               0.005771059               0.000028667              -0.000737518               0.002169506               0.001431989               0.000000000               0.000000000               0.000000000               0.000000000               0.001349173               0.008107707              -0.003309467              -0.000507526               0.002871716               0.002364190               0.000000000               0.000000000               0.000000000               0.000000000              -0.000276174               0.008497362              -0.002188915              -0.001165734               0.003221003               0.002055269               0.000000000               0.000000000               0.000000000               0.000000000              -0.001499806               0.009182755              -0.001061641              -0.001710267               0.003630977               0.001920709               0.000000000               0.000000000               0.000000000               0.000000000              -0.001699800               0.009006012              -0.000618968              -0.001763172               0.003589698               0.001826526               0.000000000               0.000000000               0.000000000               0.000000000              -0.001592457               0.008645131              -0.000404748              -0.001677809               0.003440951               0.001763142               0.000000000               0.000000000               0.000000000               0.000000000              -0.001390529               0.008260625              -0.000290933              -0.001554023               0.003271522               0.001717499               0.000000000               0.000000000               0.000000000               0.000000000              -0.001160661               0.007901888              -0.000225668              -0.001422981               0.003108263               0.001685283               0.000000000               0.000000000               0.000000000               0.000000000              -0.000935673               0.007559590              -0.000181515              -0.001295823               0.002951779               0.001655956               0.000000000               0.000000000               0.000000000               0.000000000              -0.000733847               0.007215493              -0.000156436              -0.001177126               0.002797516               0.001620389               0.000000000               0.000000000               0.000000000               0.000000000              -0.000561854               0.006876448              -0.000139118              -0.001070249               0.002648876               0.001578627               0.000000000               0.000000000               0.000000000               0.000000000              -0.000418809               0.006559885              -0.000115198              -0.000977036               0.002512285               0.001535249               0.000000000               0.000000000               0.000000000               0.000000000              -0.000307918               0.006283618              -0.000083330              -0.000900919               0.002394825               0.001493906               0.000000000               0.000000000               0.000000000               0.000000000              -0.000224366               0.006054054              -0.000043465              -0.000840892               0.002298295               0.001457403               0.000000000               0.000000000               0.000000000               0.000000000              -0.000159747               0.005861655              -0.000002258              -0.000792610               0.002218069               0.001425459               0.000000000               0.000000000               0.000000000               0.000000000              -0.000104174               0.005695717               0.000024374              -0.000751028               0.002148896               0.001397868               0.000000000               0.000000000               0.000000000               0.000000000              -0.000053258               0.005551197               0.000026841              -0.000713870               0.002088337               0.001374468               0.000000000               0.000000000               0.000000000               0.000000000              -0.000042685               0.005461864               0.000029886              -0.000698738               0.002053516               0.001354778               0.000000000               0.000000000               0.000000000               0.000000000               0.000604494               0.006217690              -0.002628471              -0.000550527               0.002256051               0.001705524               0.000000000               0.000000000               0.000000000               0.000000000              -0.000837847               0.007289561              -0.002077181              -0.001225386               0.002838291               0.001612905               0.000000000               0.000000000               0.000000000               0.000000000              -0.001952413               0.008477746              -0.001416307              -0.001791869               0.003423177               0.001631308               0.000000000               0.000000000               0.000000000               0.000000000              -0.001988281               0.008534185              -0.001028423              -0.001812374               0.003448825               0.001636450               0.000000000               0.000000000               0.000000000               0.000000000              -0.001760745               0.008304258              -0.000786200              -0.001698308               0.003334161               0.001635853               0.000000000               0.000000000               0.000000000               0.000000000              -0.001467022               0.008008065              -0.000627567              -0.001551137               0.003186374               0.001635237               0.000000000               0.000000000               0.000000000               0.000000000              -0.001168724               0.007705024              -0.000522860              -0.001401396               0.003035448               0.001634052               0.000000000               0.000000000               0.000000000               0.000000000              -0.000904366               0.007375399              -0.000447463              -0.001261059               0.002878795               0.001617736               0.000000000               0.000000000               0.000000000               0.000000000              -0.000676052               0.007026151              -0.000390849              -0.001131786               0.002719289               0.001587503               0.000000000               0.000000000               0.000000000               0.000000000              -0.000484146               0.006678721              -0.000337243              -0.001016392               0.002565015               0.001548623               0.000000000               0.000000000               0.000000000               0.000000000              -0.000336159               0.006359911              -0.000272307              -0.000921046               0.002426964               0.001505918               0.000000000               0.000000000               0.000000000               0.000000000              -0.000236868               0.006084648              -0.000195923              -0.000849404               0.002311330               0.001461926               0.000000000               0.000000000               0.000000000               0.000000000              -0.000180836               0.005848685              -0.000118092              -0.000798897               0.002215841               0.001416944               0.000000000               0.000000000               0.000000000               0.000000000              -0.000149093               0.005639346              -0.000049690              -0.000760826               0.002133372               0.001372546               0.000000000               0.000000000               0.000000000               0.000000000              -0.000124581               0.005448354              -0.000000556              -0.000727760               0.002058686               0.001330926               0.000000000               0.000000000               0.000000000               0.000000000              -0.000105785               0.005280896               0.000020314              -0.000699780               0.001993541               0.001293761               0.000000000               0.000000000               0.000000000               0.000000000              -0.000095045               0.005197272               0.000023596              -0.000685299               0.001960840               0.001275541               0.000000000               0.000000000               0.000000000               0.000000000              -0.000291805               0.004460564              -0.001897204              -0.000666997               0.001709172               0.001042174               0.000000000               0.000000000               0.000000000               0.000000000              -0.001292616               0.005905472              -0.001946123              -0.001222913               0.002376108               0.001153195               0.000000000               0.000000000               0.000000000               0.000000000              -0.002185934               0.007453515              -0.001794514              -0.001751411               0.003068283               0.001316873               0.000000000               0.000000000               0.000000000               0.000000000              -0.002140705               0.007833629              -0.001474451              -0.001781964               0.003205171               0.001423208               0.000000000               0.000000000               0.000000000               0.000000000              -0.001866167               0.007824877              -0.001205078              -0.001677918               0.003167572               0.001489654               0.000000000               0.000000000               0.000000000               0.000000000              -0.001541564               0.007692094              -0.001000197              -0.001539595               0.003077204               0.001537609               0.000000000               0.000000000               0.000000000               0.000000000              -0.001223762               0.007493744              -0.000848317              -0.001395625               0.002963098               0.001567473               0.000000000               0.000000000               0.000000000               0.000000000              -0.000942036               0.007236593              -0.000730062              -0.001257835               0.002831452               0.001573617               0.000000000               0.000000000               0.000000000               0.000000000              -0.000704329               0.006937862              -0.000635795              -0.001131353               0.002689715               0.001558362               0.000000000               0.000000000               0.000000000               0.000000000              -0.000509393               0.006614100              -0.000546475              -0.001017782               0.002543939               0.001526156               0.000000000               0.000000000               0.000000000               0.000000000              -0.000355541               0.006301853              -0.000447948              -0.000921057               0.002407616               0.001486559               0.000000000               0.000000000               0.000000000               0.000000000              -0.000251446               0.006014493              -0.000341147              -0.000846102               0.002286845               0.001440743               0.000000000               0.000000000               0.000000000               0.000000000              -0.000194945               0.005762581              -0.000234978              -0.000793425               0.002185316               0.001391891               0.000000000               0.000000000               0.000000000               0.000000000              -0.000178612               0.005540657              -0.000140287              -0.000759560               0.002100054               0.001340494               0.000000000               0.000000000               0.000000000               0.000000000              -0.000184356               0.005345791              -0.000061258              -0.000737356               0.002027698               0.001290342               0.000000000               0.000000000               0.000000000               0.000000000              -0.000201428               0.005168765              -0.000009673              -0.000721629               0.001963447               0.001241818               0.000000000               0.000000000               0.000000000               0.000000000              -0.000211052               0.005077836               0.000006622              -0.000713872               0.001930552               0.001216680               0.000000000               0.000000000               0.000000000               0.000000000              -0.001479920               0.002869869              -0.001159542              -0.000913702               0.001261180               0.000347478               0.000000000               0.000000000               0.000000000               0.000000000              -0.001815231               0.004524624              -0.001746155              -0.001246287               0.001923622               0.000677334               0.000000000               0.000000000               0.000000000               0.000000000              -0.002335783               0.006273137              -0.002087116              -0.001660057               0.002644376               0.000984319               0.000000000               0.000000000               0.000000000               0.000000000              -0.002217727               0.006956786              -0.001895975              -0.001701242               0.002885986               0.001184743               0.000000000               0.000000000               0.000000000               0.000000000              -0.001923511               0.007200844              -0.001632717              -0.001621419               0.002940730               0.001319311               0.000000000               0.000000000               0.000000000               0.000000000              -0.001590716               0.007260155              -0.001397603              -0.001504034               0.002921372               0.001417338               0.000000000               0.000000000               0.000000000               0.000000000              -0.001276598               0.007196973              -0.001204977              -0.001378343               0.002858415               0.001480072               0.000000000               0.000000000               0.000000000               0.000000000              -0.000992444               0.007045690              -0.001049773              -0.001252875               0.002766164               0.001513290               0.000000000               0.000000000               0.000000000               0.000000000              -0.000741968               0.006836831              -0.000918411              -0.001132839               0.002656534               0.001523695               0.000000000               0.000000000               0.000000000               0.000000000              -0.000533667               0.006584933              -0.000796724              -0.001023240               0.002536036               0.001512796               0.000000000               0.000000000               0.000000000               0.000000000              -0.000360031               0.006313327              -0.000675517              -0.000924175               0.002412480               0.001488304               0.000000000               0.000000000               0.000000000               0.000000000              -0.000229956               0.006033622              -0.000550310              -0.000840434               0.002291332               0.001450898               0.000000000               0.000000000               0.000000000               0.000000000              -0.000149691               0.005771700              -0.000422723              -0.000777595               0.002183079               0.001405484               0.000000000               0.000000000               0.000000000               0.000000000              -0.000123617               0.005538203              -0.000296776              -0.000738630               0.002092259               0.001353629               0.000000000               0.000000000               0.000000000               0.000000000              -0.000148261               0.005338160              -0.000178583              -0.000722866               0.002020324               0.001297458               0.000000000               0.000000000               0.000000000               0.000000000              -0.000215975               0.005160077              -0.000075012              -0.000725998               0.001962008               0.001236010               0.000000000               0.000000000               0.000000000               0.000000000              -0.000276439               0.005061622              -0.000022323              -0.000736365               0.001932646               0.001196280               0.000000000               0.000000000               0.000000000               0.000000000              -0.002880083               0.001555365              -0.000471816              -0.001274449               0.000943265              -0.000331184               0.000000000               0.000000000               0.000000000               0.000000000              -0.002455341               0.003225581              -0.001457296              -0.001323948               0.001516498               0.000192550               0.000000000               0.000000000               0.000000000               0.000000000              -0.002441092               0.004953806              -0.002196125              -0.001534632               0.002162795               0.000628163               0.000000000               0.000000000               0.000000000               0.000000000              -0.002184862               0.005851674              -0.002168391              -0.001550780               0.002467464               0.000916685               0.000000000               0.000000000               0.000000000               0.000000000              -0.001860550               0.006331667              -0.001956811              -0.001489162               0.002606921               0.001117759               0.000000000               0.000000000               0.000000000               0.000000000              -0.001527791               0.006590623              -0.001725969              -0.001396747               0.002662434               0.001265688               0.000000000               0.000000000               0.000000000               0.000000000              -0.001224205               0.006688510              -0.001516359              -0.001295138               0.002661193               0.001366055               0.000000000               0.000000000               0.000000000               0.000000000              -0.000951377               0.006671531              -0.001339760              -0.001190705               0.002620723               0.001430018               0.000000000               0.000000000               0.000000000               0.000000000              -0.000706272               0.006573291              -0.001184857              -0.001086511               0.002553245               0.001466734               0.000000000               0.000000000               0.000000000               0.000000000              -0.000490012               0.006420990              -0.001039802              -0.000986376               0.002469101               0.001482725               0.000000000               0.000000000               0.000000000               0.000000000              -0.000303342               0.006227849              -0.000899507              -0.000892232               0.002373340               0.001481107               0.000000000               0.000000000               0.000000000               0.000000000              -0.000148487               0.006001705              -0.000759430              -0.000805894               0.002269179               0.001463285               0.000000000               0.000000000               0.000000000               0.000000000              -0.000030765               0.005766332              -0.000618622              -0.000732327               0.002166200               0.001433874               0.000000000               0.000000000               0.000000000               0.000000000               0.000037120               0.005540903              -0.000471431              -0.000678691               0.002073180               0.001394488               0.000000000               0.000000000               0.000000000               0.000000000               0.000038620               0.005338383              -0.000315075              -0.000652814               0.001997048               0.001344234               0.000000000               0.000000000               0.000000000               0.000000000              -0.000035343               0.005158792              -0.000154365              -0.000658101               0.001938947               0.001280846               0.000000000               0.000000000               0.000000000               0.000000000              -0.000119080               0.005058299              -0.000064872              -0.000676941               0.001911730               0.001234789               0.000000000               0.000000000               0.000000000               0.000000000              -0.004383018               0.000583174               0.000073782              -0.001716526               0.000766562              -0.000949965               0.000000000               0.000000000               0.000000000               0.000000000              -0.003168133               0.002077517              -0.001116851              -0.001447737               0.001175076              -0.000272661               0.000000000               0.000000000               0.000000000               0.000000000              -0.002522589               0.003606121              -0.002098213              -0.001396733               0.001667605               0.000270872               0.000000000               0.000000000               0.000000000               0.000000000              -0.002062726               0.004608791              -0.002221704              -0.001349619               0.001986120               0.000636501               0.000000000               0.000000000               0.000000000               0.000000000              -0.001681423               0.005277197              -0.002087112              -0.001290181               0.002189108               0.000898927               0.000000000               0.000000000               0.000000000               0.000000000              -0.001347923               0.005720574              -0.001889315              -0.001220541               0.002313685               0.001093145               0.000000000               0.000000000               0.000000000               0.000000000              -0.001057619               0.005978008              -0.001693319              -0.001143856               0.002373934               0.001230078               0.000000000               0.000000000               0.000000000               0.000000000              -0.000800196               0.006106634              -0.001518046              -0.001063401               0.002389991               0.001326590               0.000000000               0.000000000               0.000000000               0.000000000              -0.000567367               0.006139033              -0.001357918              -0.000980140               0.002373037               0.001392897               0.000000000               0.000000000               0.000000000               0.000000000              -0.000353383               0.006099500              -0.001206448              -0.000894954               0.002331464               0.001436510               0.000000000               0.000000000               0.000000000               0.000000000              -0.000160512               0.006007893              -0.001059752              -0.000811177               0.002273003               0.001461826               0.000000000               0.000000000               0.000000000               0.000000000               0.000016115               0.005871554              -0.000918768              -0.000727900               0.002199798               0.001471898               0.000000000               0.000000000               0.000000000               0.000000000               0.000176686               0.005701074              -0.000777129              -0.000646376               0.002115797               0.001469422               0.000000000               0.000000000               0.000000000               0.000000000               0.000305941               0.005516842              -0.000617920              -0.000574876               0.002030554               0.001455678               0.000000000               0.000000000               0.000000000               0.000000000               0.000379383               0.005333252              -0.000433570              -0.000524387               0.001952528               0.001428142               0.000000000               0.000000000               0.000000000               0.000000000               0.000379518               0.005161468              -0.000226363              -0.000502863               0.001888093               0.001385230               0.000000000               0.000000000               0.000000000               0.000000000               0.000341462               0.005070883              -0.000111898              -0.000505811               0.001858881               0.001353070               0.000000000               0.000000000               0.000000000               0.000000000              -0.005836542              -0.000057159               0.000394302              -0.002181556               0.000708128              -0.001473429               0.000000000               0.000000000               0.000000000               0.000000000              -0.003887883               0.001143944              -0.000773739              -0.001600947               0.000914957              -0.000685990               0.000000000               0.000000000               0.000000000               0.000000000              -0.002598963               0.002359380              -0.001791035              -0.001269532               0.001209628              -0.000059904               0.000000000               0.000000000               0.000000000               0.000000000              -0.001891639               0.003368992              -0.002009379              -0.001130487               0.001499814               0.000369327               0.000000000               0.000000000               0.000000000               0.000000000              -0.001424740               0.004156875              -0.001951277              -0.001053885               0.001736905               0.000683020               0.000000000               0.000000000               0.000000000               0.000000000              -0.001073910               0.004744236              -0.001806267              -0.000995744               0.001913310               0.000917566               0.000000000               0.000000000               0.000000000               0.000000000              -0.000789962               0.005145097              -0.001645888              -0.000939371               0.002028139               0.001088767               0.000000000               0.000000000               0.000000000               0.000000000              -0.000547936               0.005405502              -0.001493811              -0.000881162               0.002095536               0.001214374               0.000000000               0.000000000               0.000000000               0.000000000              -0.000331374               0.005561284              -0.001349725              -0.000819424               0.002126884               0.001307459               0.000000000               0.000000000               0.000000000               0.000000000              -0.000126405               0.005641929              -0.001209373              -0.000752642               0.002131505               0.001378863               0.000000000               0.000000000               0.000000000               0.000000000               0.000073452               0.005658836              -0.001075660              -0.000679809               0.002112863               0.001433054               0.000000000               0.000000000               0.000000000               0.000000000               0.000271932               0.005621402              -0.000952029              -0.000600700               0.002074015               0.001473315               0.000000000               0.000000000               0.000000000               0.000000000               0.000469251               0.005542539              -0.000825067              -0.000516847               0.002019777               0.001502929               0.000000000               0.000000000               0.000000000               0.000000000               0.000659647               0.005432955              -0.000671507              -0.000431751               0.001954884               0.001523133               0.000000000               0.000000000               0.000000000               0.000000000               0.000830894               0.005299777              -0.000484313              -0.000350886               0.001883537               0.001532651               0.000000000               0.000000000               0.000000000               0.000000000               0.000965460               0.005153822              -0.000260692              -0.000282180               0.001811983               0.001529804               0.000000000               0.000000000               0.000000000               0.000000000               0.001039395               0.005087053              -0.000141540              -0.000246108               0.001777703               0.001531596               0.000000000               0.000000000               0.000000000               0.000000000              -0.007057300              -0.000424664               0.000459008              -0.002593403               0.000722908              -0.001870495               0.000000000               0.000000000               0.000000000               0.000000000              -0.004519030               0.000465039              -0.000466894              -0.001752764               0.000739263              -0.001013502               0.000000000               0.000000000               0.000000000               0.000000000              -0.002676808               0.001349441              -0.001302754              -0.001172481               0.000840634              -0.000331847               0.000000000               0.000000000               0.000000000               0.000000000              -0.001727555               0.002301599              -0.001527839              -0.000935531               0.001079035               0.000143504               0.000000000               0.000000000               0.000000000               0.000000000              -0.001159733               0.003143953              -0.001521870              -0.000827893               0.001323938               0.000496045               0.000000000               0.000000000               0.000000000               0.000000000              -0.000774878               0.003825485              -0.001434566              -0.000768764               0.001531403               0.000762639               0.000000000               0.000000000               0.000000000               0.000000000              -0.000490080               0.004331790              -0.001324173              -0.000725252               0.001685666               0.000960413               0.000000000               0.000000000               0.000000000               0.000000000              -0.000258315               0.004699208              -0.001211944              -0.000684268               0.001794476               0.001110208               0.000000000               0.000000000               0.000000000               0.000000000              -0.000055020               0.004961343              -0.001101019              -0.000640799               0.001867364               0.001226565               0.000000000               0.000000000               0.000000000               0.000000000               0.000140644               0.005143651              -0.000992991              -0.000590214               0.001911271               0.001321057               0.000000000               0.000000000               0.000000000               0.000000000               0.000343535               0.005257515              -0.000893487              -0.000528363               0.001928608               0.001400246               0.000000000               0.000000000               0.000000000               0.000000000               0.000559441               0.005316315              -0.000801489              -0.000454748               0.001923670               0.001468922               0.000000000               0.000000000               0.000000000               0.000000000               0.000785861               0.005328273              -0.000703421              -0.000371335               0.001899852               0.001528516               0.000000000               0.000000000               0.000000000               0.000000000               0.001028277               0.005299395              -0.000582180              -0.000276820               0.001858721               0.001581901               0.000000000               0.000000000               0.000000000               0.000000000               0.001293198               0.005233161              -0.000427691              -0.000169196               0.001800768               0.001631572               0.000000000               0.000000000               0.000000000               0.000000000               0.001574312               0.005129690              -0.000232625              -0.000050845               0.001726828               0.001675983               0.000000000               0.000000000               0.000000000               0.000000000               0.001783513               0.005094710              -0.000132744               0.000031978               0.001687560               0.001719538               0.000000000               0.000000000               0.000000000               0.000000000              -0.007875776              -0.000596482               0.000295753              -0.002878854               0.000760785              -0.002118068               0.000000000               0.000000000               0.000000000               0.000000000              -0.004954795               0.000059329              -0.000213679              -0.001865463               0.000641593              -0.001223870               0.000000000               0.000000000               0.000000000               0.000000000              -0.002735485               0.000694418              -0.000683114              -0.001112608               0.000602338              -0.000510270               0.000000000               0.000000000               0.000000000               0.000000000              -0.001610835               0.001577694              -0.000824937              -0.000801273               0.000792983              -0.000008290               0.000000000               0.000000000               0.000000000               0.000000000              -0.000960263               0.002432501              -0.000836292              -0.000664160               0.001032212               0.000368052               0.000000000               0.000000000               0.000000000               0.000000000              -0.000542372               0.003160610              -0.000798462              -0.000598465               0.001253014               0.000654549               0.000000000               0.000000000               0.000000000               0.000000000              -0.000253302               0.003730017              -0.000743391              -0.000561239               0.001430406               0.000869167               0.000000000               0.000000000               0.000000000               0.000000000              -0.000029948               0.004166773              -0.000683070              -0.000532076               0.001566269               0.001034193               0.000000000               0.000000000               0.000000000               0.000000000               0.000165206               0.004499005              -0.000621852              -0.000500422               0.001666461               0.001166038               0.000000000               0.000000000               0.000000000               0.000000000               0.000359556               0.004753003              -0.000562985              -0.000459291               0.001737415               0.001278125               0.000000000               0.000000000               0.000000000               0.000000000               0.000563184               0.004938080              -0.000510850              -0.000406065               0.001781365               0.001375300               0.000000000               0.000000000               0.000000000               0.000000000               0.000783506               0.005066383              -0.000462030              -0.000339482               0.001801938               0.001462456               0.000000000               0.000000000               0.000000000               0.000000000               0.001027700               0.005145608              -0.000407561              -0.000257813               0.001801123               0.001543310               0.000000000               0.000000000               0.000000000               0.000000000               0.001308166               0.005177395              -0.000341014              -0.000156612               0.001777985               0.001621373               0.000000000               0.000000000               0.000000000               0.000000000               0.001639780               0.005161256              -0.000252905              -0.000030240               0.001730481               0.001700242               0.000000000               0.000000000               0.000000000               0.000000000               0.002037255               0.005096621              -0.000138214               0.000126892               0.001656559               0.001783451               0.000000000               0.000000000               0.000000000               0.000000000               0.002357560               0.005090643              -0.000081476               0.000247752               0.001614280               0.001862032               0.000000000               0.000000000               0.000000000               0.000000000               0.000000000               0.000000000               0.000000000               0.000000000               0.000000000               0.000000000               0.000000000               0.000000000               0.000000000               0.000000000               0.000000000               0.000000000               0.000000000               0.000000000               0.000000000               0.000000000               0.000000000               0.000000000               0.000000000               0.000000000               0.000000000               0.000000000               0.000000000               0.000000000               0.000000000               0.000000000               0.000000000               0.000000000               0.000000000               0.000000000               0.000000000               0.000000000               0.000000000               0.000000000               0.000000000               0.000000000               0.000000000               0.000000000               0.000000000               0.000000000               0.000000000               0.000000000               0.000000000               0.000000000               0.000000000               0.000000000               0.000000000               0.000000000               0.000000000               0.000000000               0.000000000               0.000000000               0.000000000               0.000000000               0.000000000               0.000000000               0.000000000               0.000000000               0.000000000               0.000000000               0.000000000               0.000000000               0.000000000               0.000000000               0.000000000               0.000000000               0.000000000               0.000000000               0.000000000               0.000000000               0.000000000               0.000000000               0.000000000               0.000000000               0.000000000               0.000000000               0.000000000               0.000000000               0.000000000               0.000000000               0.000000000               0.000000000               0.000000000               0.000000000               0.000000000               0.000000000               0.000000000               0.000000000               0.000000000               0.000000000               0.000000000               0.000000000               0.000000000               0.000000000               0.000000000               0.000000000               0.000000000               0.000000000               0.000000000               0.000000000               0.000000000               0.000000000               0.000000000               0.000000000               0.000000000               0.000000000               0.000000000               0.000000000               0.000000000               0.000000000               0.000000000               0.000000000               0.000000000               0.000000000               0.000000000               0.000000000               0.000000000               0.000000000               0.000000000               0.000000000               0.000000000               0.000000000               0.000000000               0.000000000               0.000000000               0.000000000               0.000000000               0.000000000               0.000000000               0.000000000               0.000000000               0.000000000               0.000000000               0.000000000               0.000000000               0.000000000               0.000000000               0.000000000               0.000000000               0.000000000               0.000000000               0.000000000               0.000000000               0.000000000               0.000000000               0.000000000               0.000000000               0.000000000               0.000000000               0.000000000               0.000000000               0.000000000               0.000000000               0.000000000               0.000000000               0.000000000               0.000000000               0.000000000               0.000000000               0.000000000               0.000000000               0.000000000               0.000000000               0.000000000               0.000000000               0.000000000               0.000000000               0.000000000               0.000000000               0.000000000               0.000000000               0.000000000               0.000000000               0.000000000               0.000000000               0.000000000               0.000000000               0.000000000               0.000000000               0.000000000               0.000000000               0.000000000               0.000000000               0.000000000               0.000000000               0.000000000               0.000000000               0.000000000               0.000000000               0.000000000               0.000000000               0.000000000               0.000000000               0.000000000               0.000000000               0.000000000               0.000000000               0.000000000               0.000000000               0.000000000               0.000000000               0.000000000               0.000000000               0.000000000               0.000000000               0.000000000               0.000000000               0.000000000               0.000000000               0.000000000               0.000000000               0.000000000               0.000000000               0.000000000               0.000000000               0.000000000               0.000000000               0.000000000               0.000000000               0.000000000               0.000000000               0.000000000               0.000000000               0.000000000               0.000000000               0.000000000               0.000000000               0.000000000               0.000000000               0.000000000               0.000000000               0.000000000               0.000000000               0.000000000               0.000000000               0.000000000               0.000000000               0.000000000               0.000000000               0.000000000               0.000000000               0.000000000               0.000000000               0.000000000               0.000000000               0.000000000               0.000000000               0.000000000               0.000000000               0.000000000               0.000000000               0.000000000               0.000000000               0.000000000               0.000000000               0.000000000               0.000000000               0.000000000               0.000000000               0.000000000               0.000000000               0.000000000               0.000000000               0.000000000               0.000000000               0.000000000               0.000000000               0.000000000               0.000000000               0.000000000               0.000000000               0.000000000               0.000000000               0.000000000               0.000000000               0.000000000               0.000000000               0.000000000               0.000000000               0.000000000               0.000000000               0.000000000               0.000000000               0.000000000               0.000000000               0.000000000               0.000000000               0.000000000               0.000000000               0.000000000               0.000000000               0.000000000               0.000000000               0.000000000               0.000000000               0.000000000               0.000000000               0.000000000               0.000000000               0.000000000               0.000000000               0.000000000               0.000000000               0.000000000               0.000000000               0.000000000               0.000000000               0.000000000               0.000000000               0.000000000               0.000000000               0.000000000               0.000000000               0.000000000               0.000000000               0.000000000               0.000000000               0.000000000               0.000000000               0.000000000               0.000000000               0.000000000               0.000000000               0.000000000               0.000000000               0.000000000               0.000000000               0.000000000               0.000000000               0.000000000               0.000000000               0.000000000               0.000000000               0.000000000               0.000000000               0.000000000               0.000000000               0.000000000               0.000000000               0.000000000               0.001956755               0.020384695               0.001435100              -0.001814300               0.007399597               0.005585297               0.000000000               0.000000000               0.000000000               0.000000000               0.001860404               0.016153421               0.000744931              -0.001321523               0.005824927               0.004503404               0.000000000               0.000000000               0.000000000               0.000000000               0.002362583               0.012772665               0.000058237              -0.000710613               0.004494383               0.003783771               0.000000000               0.000000000               0.000000000               0.000000000               0.002248549               0.010877131              -0.000230049              -0.000516434               0.003797819               0.003281385               0.000000000               0.000000000               0.000000000               0.000000000               0.001958044               0.009694495              -0.000350618              -0.000477544               0.003390647               0.002913103               0.000000000               0.000000000               0.000000000               0.000000000               0.001634828               0.008888424              -0.000394742              -0.000497991               0.003128776               0.002630784               0.000000000               0.000000000               0.000000000               0.000000000               0.001334175               0.008294391              -0.000401125              -0.000536482               0.002943597               0.002407115               0.000000000               0.000000000               0.000000000               0.000000000               0.001069077               0.007825226              -0.000394487              -0.000577248               0.002800799               0.002223551               0.000000000               0.000000000               0.000000000               0.000000000               0.000838313               0.007427158              -0.000379615              -0.000614026               0.002680370               0.002066344               0.000000000               0.000000000               0.000000000               0.000000000               0.000642193               0.007068148              -0.000359487              -0.000642694               0.002570257               0.001927563               0.000000000               0.000000000               0.000000000               0.000000000               0.000480266               0.006730191              -0.000337757              -0.000661172               0.002463765               0.001802593               0.000000000               0.000000000               0.000000000               0.000000000               0.000347865               0.006399272              -0.000313129              -0.000669458               0.002356222               0.001686764               0.000000000               0.000000000               0.000000000               0.000000000               0.000238963               0.006063611              -0.000286909              -0.000668339               0.002243963               0.001575624               0.000000000               0.000000000               0.000000000               0.000000000               0.000146074               0.005712189              -0.000253126              -0.000659244               0.002123792               0.001464548               0.000000000               0.000000000               0.000000000               0.000000000               0.000071867               0.005333510              -0.000198348              -0.000639737               0.001991065               0.001351328               0.000000000               0.000000000               0.000000000               0.000000000               0.000026823               0.004914933              -0.000113683              -0.000604307               0.001839730               0.001235424               0.000000000               0.000000000               0.000000000               0.000000000              -0.000019353               0.004603864              -0.000069329              -0.000582739               0.001728852               0.001146113               0.000000000               0.000000000               0.000000000               0.000000000               0.002146241               0.019193555               0.002678094              -0.001594351               0.006929238               0.005334887               0.000000000               0.000000000               0.000000000               0.000000000               0.001769789               0.015381002               0.001392354              -0.001258952               0.005546600               0.004287648               0.000000000               0.000000000               0.000000000               0.000000000               0.001974386               0.012439908               0.000124598              -0.000814592               0.004418125               0.003603533               0.000000000               0.000000000               0.000000000               0.000000000               0.001751248               0.010768267              -0.000392192              -0.000689314               0.003819158               0.003129844               0.000000000               0.000000000               0.000000000               0.000000000               0.001443628               0.009699754              -0.000599654              -0.000671107               0.003456921               0.002785814               0.000000000               0.000000000               0.000000000               0.000000000               0.001145653               0.008945755              -0.000671853              -0.000688598               0.003211421               0.002522823               0.000000000               0.000000000               0.000000000               0.000000000               0.000890714               0.008375487              -0.000683495              -0.000712916               0.003029440               0.002316524               0.000000000               0.000000000               0.000000000               0.000000000               0.000678462               0.007915651              -0.000669546              -0.000735032               0.002883535               0.002148503               0.000000000               0.000000000               0.000000000               0.000000000               0.000500254               0.007518049              -0.000639427              -0.000752159               0.002756711               0.002004552               0.000000000               0.000000000               0.000000000               0.000000000               0.000357933               0.007157240              -0.000601625              -0.000760428               0.002639199               0.001878771               0.000000000               0.000000000               0.000000000               0.000000000               0.000246344               0.006818779              -0.000561256              -0.000759966               0.002526226               0.001766259               0.000000000               0.000000000               0.000000000               0.000000000               0.000159419               0.006495669              -0.000516641              -0.000752175               0.002415926               0.001663752               0.000000000               0.000000000               0.000000000               0.000000000               0.000094395               0.006183253              -0.000465402              -0.000737507               0.002306899               0.001569393               0.000000000               0.000000000               0.000000000               0.000000000               0.000047723               0.005874026              -0.000399931              -0.000716355               0.002196774               0.001480419               0.000000000               0.000000000               0.000000000               0.000000000               0.000019615               0.005565736              -0.000303884              -0.000688360               0.002084680               0.001396320               0.000000000               0.000000000               0.000000000               0.000000000               0.000005757               0.005262553              -0.000169214              -0.000655659               0.001972720               0.001317061               0.000000000               0.000000000               0.000000000               0.000000000              -0.000016808               0.005062920              -0.000099222              -0.000639166               0.001900678               0.001261512               0.000000000               0.000000000               0.000000000               0.000000000               0.002349271               0.017380169               0.003574863              -0.001291544               0.006223846               0.004932302               0.000000000               0.000000000               0.000000000               0.000000000               0.001582219               0.014222947               0.001868810              -0.001184534               0.005135779               0.003951245               0.000000000               0.000000000               0.000000000               0.000000000               0.001374801               0.011937655               0.000207463              -0.000976654               0.004304730               0.003328076               0.000000000               0.000000000               0.000000000               0.000000000               0.001027439               0.010581338              -0.000437368              -0.000937376               0.003839536               0.002902160               0.000000000               0.000000000               0.000000000               0.000000000               0.000717322               0.009666372              -0.000683471              -0.000939299               0.003535191               0.002595893               0.000000000               0.000000000               0.000000000               0.000000000               0.000474561               0.008985953              -0.000764067              -0.000945282               0.003310381               0.002365100               0.000000000               0.000000000               0.000000000               0.000000000               0.000296580               0.008445726              -0.000774141              -0.000944496               0.003130046               0.002185550               0.000000000               0.000000000               0.000000000               0.000000000               0.000163910               0.007992533              -0.000753773              -0.000937598               0.002976684               0.002039086               0.000000000               0.000000000               0.000000000               0.000000000               0.000064556               0.007595978              -0.000713725              -0.000925287               0.002840396               0.001915110               0.000000000               0.000000000               0.000000000               0.000000000              -0.000002697               0.007235833              -0.000663459              -0.000905488               0.002713749               0.001808261               0.000000000               0.000000000               0.000000000               0.000000000              -0.000042533               0.006905247              -0.000610952              -0.000879104               0.002594761               0.001715657               0.000000000               0.000000000               0.000000000               0.000000000              -0.000059833               0.006602636              -0.000555530              -0.000847765               0.002483445               0.001635680               0.000000000               0.000000000               0.000000000               0.000000000              -0.000059924               0.006327067              -0.000492547              -0.000813353               0.002380119               0.001566766               0.000000000               0.000000000               0.000000000               0.000000000              -0.000049909               0.006077000              -0.000411597              -0.000778339               0.002285093               0.001506754               0.000000000               0.000000000               0.000000000               0.000000000              -0.000036081               0.005857903              -0.000301003              -0.000745767               0.002201204               0.001455437               0.000000000               0.000000000               0.000000000               0.000000000              -0.000019369               0.005686158              -0.000161052              -0.000718031               0.002134711               0.001416680               0.000000000               0.000000000               0.000000000               0.000000000              -0.000015091               0.005599423              -0.000087940              -0.000705585               0.002101651               0.001396066               0.000000000               0.000000000               0.000000000               0.000000000               0.002446344               0.015153572               0.004054494              -0.000976818               0.005376745               0.004399927               0.000000000               0.000000000               0.000000000               0.000000000               0.001274862               0.012824073               0.002155534              -0.001124934               0.004649626               0.003524692               0.000000000               0.000000000               0.000000000               0.000000000               0.000636514               0.011320306               0.000327933              -0.001176342               0.004165512               0.002989169               0.000000000               0.000000000               0.000000000               0.000000000               0.000203934               0.010310481              -0.000342084              -0.001212332               0.003840903               0.002628571               0.000000000               0.000000000               0.000000000               0.000000000              -0.000066021               0.009556822              -0.000584490              -0.001219358               0.003592028               0.002372670               0.000000000               0.000000000               0.000000000               0.000000000              -0.000221982               0.008952424              -0.000658894              -0.001202293               0.003384876               0.002182583               0.000000000               0.000000000               0.000000000               0.000000000              -0.000303906               0.008445162              -0.000665659              -0.001169607               0.003204895               0.002035288               0.000000000               0.000000000               0.000000000               0.000000000              -0.000338140               0.008006481              -0.000645599              -0.001127610               0.003044670               0.001917061               0.000000000               0.000000000               0.000000000               0.000000000              -0.000341087               0.007614877              -0.000607306              -0.001079765               0.002898188               0.001818424               0.000000000               0.000000000               0.000000000               0.000000000              -0.000319370               0.007265255              -0.000556643              -0.001027918               0.002764367               0.001736449               0.000000000               0.000000000               0.000000000               0.000000000              -0.000281928               0.006955187              -0.000503977              -0.000975119               0.002643412               0.001668293               0.000000000               0.000000000               0.000000000               0.000000000              -0.000229117               0.006682335              -0.000447496              -0.000921208               0.002534492               0.001613284               0.000000000               0.000000000               0.000000000               0.000000000              -0.000168341               0.006442075              -0.000384472              -0.000868385               0.002436798               0.001568413               0.000000000               0.000000000               0.000000000               0.000000000              -0.000112688               0.006240306              -0.000308627              -0.000822294               0.002354179               0.001531885               0.000000000               0.000000000               0.000000000               0.000000000              -0.000064253               0.006089300              -0.000215228              -0.000785255               0.002291498               0.001506243               0.000000000               0.000000000               0.000000000               0.000000000              -0.000026641               0.005995669              -0.000108904              -0.000759447               0.002251686               0.001492238               0.000000000               0.000000000               0.000000000               0.000000000              -0.000013072               0.005960417              -0.000055392              -0.000749952               0.002236770               0.001486818               0.000000000               0.000000000               0.000000000               0.000000000               0.002333373               0.012739746               0.004121882              -0.000717455               0.004485690               0.003768235               0.000000000               0.000000000               0.000000000               0.000000000               0.000843972               0.011329855               0.002273781              -0.001099741               0.004143161               0.003043419               0.000000000               0.000000000               0.000000000               0.000000000              -0.000146814               0.010633711               0.000508163              -0.001384266               0.004005957               0.002621691               0.000000000               0.000000000               0.000000000               0.000000000              -0.000587403               0.009948297              -0.000109093              -0.001463810               0.003804003               0.002340193               0.000000000               0.000000000               0.000000000               0.000000000              -0.000766271               0.009342440              -0.000328731              -0.001455153               0.003599167               0.002144014               0.000000000               0.000000000               0.000000000               0.000000000              -0.000808705               0.008816495              -0.000397242              -0.001405323               0.003407243               0.002001920               0.000000000               0.000000000               0.000000000               0.000000000              -0.000778478               0.008350356              -0.000411691              -0.001335721               0.003228664               0.001892944               0.000000000               0.000000000               0.000000000               0.000000000              -0.000708437               0.007937146              -0.000403884              -0.001257804               0.003064957               0.001807153               0.000000000               0.000000000               0.000000000               0.000000000              -0.000621949               0.007565478              -0.000377403              -0.001178913               0.002914772               0.001735859               0.000000000               0.000000000               0.000000000               0.000000000              -0.000524134               0.007236434              -0.000340261              -0.001101102               0.002779155               0.001678053               0.000000000               0.000000000               0.000000000               0.000000000              -0.000421434               0.006943537              -0.000300938              -0.001025977               0.002656482               0.001630504               0.000000000               0.000000000               0.000000000               0.000000000              -0.000320733               0.006681924              -0.000257666              -0.000955513               0.002545790               0.001590277               0.000000000               0.000000000               0.000000000               0.000000000              -0.000225651               0.006456286              -0.000212244              -0.000891653               0.002449291               0.001557639               0.000000000               0.000000000               0.000000000               0.000000000              -0.000145683               0.006274867              -0.000166032              -0.000838987               0.002371264               0.001532276               0.000000000               0.000000000               0.000000000               0.000000000              -0.000084043               0.006139922              -0.000113095              -0.000799005               0.002312955               0.001513951               0.000000000               0.000000000               0.000000000               0.000000000              -0.000035762               0.006045315              -0.000054976              -0.000769073               0.002271443               0.001502369               0.000000000               0.000000000               0.000000000               0.000000000              -0.000024278               0.005991601              -0.000032166              -0.000758052               0.002249864               0.001491812               0.000000000               0.000000000               0.000000000               0.000000000               0.001958539               0.010338812               0.003842917              -0.000557902               0.003632202               0.003074301               0.000000000               0.000000000               0.000000000               0.000000000               0.000313191               0.009857011               0.002270225              -0.001114679               0.003657197               0.002542518               0.000000000               0.000000000               0.000000000               0.000000000              -0.000884888               0.009913004               0.000756593              -0.001570955               0.003827953               0.002256998               0.000000000               0.000000000               0.000000000               0.000000000              -0.001241496               0.009507357               0.000228928              -0.001653977               0.003720413               0.002066436               0.000000000               0.000000000               0.000000000               0.000000000              -0.001285894               0.009030529               0.000023398              -0.001611022               0.003547154               0.001936131               0.000000000               0.000000000               0.000000000               0.000000000              -0.001202266               0.008576396              -0.000057530              -0.001522896               0.003366402               0.001843506               0.000000000               0.000000000               0.000000000               0.000000000              -0.001063895               0.008159124              -0.000091418              -0.001418848               0.003192630               0.001773782               0.000000000               0.000000000               0.000000000               0.000000000              -0.000906287               0.007784239              -0.000105080              -0.001312884               0.003032348               0.001719464               0.000000000               0.000000000               0.000000000               0.000000000              -0.000745877               0.007440455              -0.000101512              -0.001209758               0.002883379               0.001673622               0.000000000               0.000000000               0.000000000               0.000000000              -0.000593211               0.007117291              -0.000089170              -0.001112113               0.002743111               0.001630998               0.000000000               0.000000000               0.000000000               0.000000000              -0.000456472               0.006815590              -0.000075052              -0.001023123               0.002612882               0.001589759               0.000000000               0.000000000               0.000000000               0.000000000              -0.000338465               0.006544557              -0.000061903              -0.000944992               0.002496494               0.001551503               0.000000000               0.000000000               0.000000000               0.000000000              -0.000241253               0.006316212              -0.000054150              -0.000879994               0.002398714               0.001518720               0.000000000               0.000000000               0.000000000               0.000000000              -0.000164712               0.006132498              -0.000051621              -0.000828327               0.002320255               0.001491927               0.000000000               0.000000000               0.000000000               0.000000000              -0.000102263               0.005984013              -0.000045470              -0.000786348               0.002256767               0.001470419               0.000000000               0.000000000               0.000000000               0.000000000              -0.000048794               0.005857942              -0.000028913              -0.000750539               0.002202808               0.001452269               0.000000000               0.000000000               0.000000000               0.000000000              -0.000043032               0.005771059              -0.000028667              -0.000737518               0.002169506               0.001431989               0.000000000               0.000000000               0.000000000               0.000000000               0.001349173               0.008107707               0.003309467              -0.000507526               0.002871716               0.002364190               0.000000000               0.000000000               0.000000000               0.000000000              -0.000276174               0.008497362               0.002188915              -0.001165734               0.003221003               0.002055269               0.000000000               0.000000000               0.000000000               0.000000000              -0.001499806               0.009182755               0.001061641              -0.001710267               0.003630977               0.001920709               0.000000000               0.000000000               0.000000000               0.000000000              -0.001699800               0.009006012               0.000618968              -0.001763172               0.003589698               0.001826526               0.000000000               0.000000000               0.000000000               0.000000000              -0.001592457               0.008645131               0.000404748              -0.001677809               0.003440951               0.001763142               0.000000000               0.000000000               0.000000000               0.000000000              -0.001390529               0.008260625               0.000290933              -0.001554023               0.003271522               0.001717499               0.000000000               0.000000000               0.000000000               0.000000000              -0.001160661               0.007901888               0.000225668              -0.001422981               0.003108263               0.001685283               0.000000000               0.000000000               0.000000000               0.000000000              -0.000935673               0.007559590               0.000181515              -0.001295823               0.002951779               0.001655956               0.000000000               0.000000000               0.000000000               0.000000000              -0.000733847               0.007215493               0.000156436              -0.001177126               0.002797516               0.001620389               0.000000000               0.000000000               0.000000000               0.000000000              -0.000561854               0.006876448               0.000139118              -0.001070249               0.002648876               0.001578627               0.000000000               0.000000000               0.000000000               0.000000000              -0.000418809               0.006559885               0.000115198              -0.000977036               0.002512285               0.001535249               0.000000000               0.000000000               0.000000000               0.000000000              -0.000307918               0.006283618               0.000083330              -0.000900919               0.002394825               0.001493906               0.000000000               0.000000000               0.000000000               0.000000000              -0.000224366               0.006054054               0.000043465              -0.000840892               0.002298295               0.001457403               0.000000000               0.000000000               0.000000000               0.000000000              -0.000159747               0.005861655               0.000002258              -0.000792610               0.002218069               0.001425459               0.000000000               0.000000000               0.000000000               0.000000000              -0.000104174               0.005695717              -0.000024374              -0.000751028               0.002148896               0.001397868               0.000000000               0.000000000               0.000000000               0.000000000              -0.000053258               0.005551197              -0.000026841              -0.000713870               0.002088337               0.001374468               0.000000000               0.000000000               0.000000000               0.000000000              -0.000042685               0.005461864              -0.000029886              -0.000698738               0.002053516               0.001354778               0.000000000               0.000000000               0.000000000               0.000000000               0.000604494               0.006217690               0.002628471              -0.000550527               0.002256051               0.001705524               0.000000000               0.000000000               0.000000000               0.000000000              -0.000837847               0.007289561               0.002077181              -0.001225386               0.002838291               0.001612905               0.000000000               0.000000000               0.000000000               0.000000000              -0.001952413               0.008477746               0.001416307              -0.001791869               0.003423177               0.001631308               0.000000000               0.000000000               0.000000000               0.000000000              -0.001988281               0.008534185               0.001028423              -0.001812374               0.003448825               0.001636450               0.000000000               0.000000000               0.000000000               0.000000000              -0.001760745               0.008304258               0.000786200              -0.001698308               0.003334161               0.001635853               0.000000000               0.000000000               0.000000000               0.000000000              -0.001467022               0.008008065               0.000627567              -0.001551137               0.003186374               0.001635237               0.000000000               0.000000000               0.000000000               0.000000000              -0.001168724               0.007705024               0.000522860              -0.001401396               0.003035448               0.001634052               0.000000000               0.000000000               0.000000000               0.000000000              -0.000904366               0.007375399               0.000447463              -0.001261059               0.002878795               0.001617736               0.000000000               0.000000000               0.000000000               0.000000000              -0.000676052               0.007026151               0.000390849              -0.001131786               0.002719289               0.001587503               0.000000000               0.000000000               0.000000000               0.000000000              -0.000484146               0.006678721               0.000337243              -0.001016392               0.002565015               0.001548623               0.000000000               0.000000000               0.000000000               0.000000000              -0.000336159               0.006359911               0.000272307              -0.000921046               0.002426964               0.001505918               0.000000000               0.000000000               0.000000000               0.000000000              -0.000236868               0.006084648               0.000195923              -0.000849404               0.002311330               0.001461926               0.000000000               0.000000000               0.000000000               0.000000000              -0.000180836               0.005848685               0.000118092              -0.000798897               0.002215841               0.001416944               0.000000000               0.000000000               0.000000000               0.000000000              -0.000149093               0.005639346               0.000049690              -0.000760826               0.002133372               0.001372546               0.000000000               0.000000000               0.000000000               0.000000000              -0.000124581               0.005448354               0.000000556              -0.000727760               0.002058686               0.001330926               0.000000000               0.000000000               0.000000000               0.000000000              -0.000105785               0.005280896              -0.000020314              -0.000699780               0.001993541               0.001293761               0.000000000               0.000000000               0.000000000               0.000000000              -0.000095045               0.005197272              -0.000023596              -0.000685299               0.001960840               0.001275541               0.000000000               0.000000000               0.000000000               0.000000000              -0.000291805               0.004460564               0.001897204              -0.000666997               0.001709172               0.001042174               0.000000000               0.000000000               0.000000000               0.000000000              -0.001292616               0.005905472               0.001946123              -0.001222913               0.002376108               0.001153195               0.000000000               0.000000000               0.000000000               0.000000000              -0.002185934               0.007453515               0.001794514              -0.001751411               0.003068283               0.001316873               0.000000000               0.000000000               0.000000000               0.000000000              -0.002140705               0.007833629               0.001474451              -0.001781964               0.003205171               0.001423208               0.000000000               0.000000000               0.000000000               0.000000000              -0.001866167               0.007824877               0.001205078              -0.001677918               0.003167572               0.001489654               0.000000000               0.000000000               0.000000000               0.000000000              -0.001541564               0.007692094               0.001000197              -0.001539595               0.003077204               0.001537609               0.000000000               0.000000000               0.000000000               0.000000000              -0.001223762               0.007493744               0.000848317              -0.001395625               0.002963098               0.001567473               0.000000000               0.000000000               0.000000000               0.000000000              -0.000942036               0.007236593               0.000730062              -0.001257835               0.002831452               0.001573617               0.000000000               0.000000000               0.000000000               0.000000000              -0.000704329               0.006937862               0.000635795              -0.001131353               0.002689715               0.001558362               0.000000000               0.000000000               0.000000000               0.000000000              -0.000509393               0.006614100               0.000546475              -0.001017782               0.002543939               0.001526156               0.000000000               0.000000000               0.000000000               0.000000000              -0.000355541               0.006301853               0.000447948              -0.000921057               0.002407616               0.001486559               0.000000000               0.000000000               0.000000000               0.000000000              -0.000251446               0.006014493               0.000341147              -0.000846102               0.002286845               0.001440743               0.000000000               0.000000000               0.000000000               0.000000000              -0.000194945               0.005762581               0.000234978              -0.000793425               0.002185316               0.001391891               0.000000000               0.000000000               0.000000000               0.000000000              -0.000178612               0.005540657               0.000140287              -0.000759560               0.002100054               0.001340494               0.000000000               0.000000000               0.000000000               0.000000000              -0.000184356               0.005345791               0.000061258              -0.000737356               0.002027698               0.001290342               0.000000000               0.000000000               0.000000000               0.000000000              -0.000201428               0.005168765               0.000009673              -0.000721629               0.001963447               0.001241818               0.000000000               0.000000000               0.000000000               0.000000000              -0.000211052               0.005077836              -0.000006622              -0.000713872               0.001930552               0.001216680               0.000000000               0.000000000               0.000000000               0.000000000              -0.001479920               0.002869869               0.001159542              -0.000913702               0.001261180               0.000347478               0.000000000               0.000000000               0.000000000               0.000000000              -0.001815231               0.004524624               0.001746155              -0.001246287               0.001923622               0.000677334               0.000000000               0.000000000               0.000000000               0.000000000              -0.002335783               0.006273137               0.002087116              -0.001660057               0.002644376               0.000984319               0.000000000               0.000000000               0.000000000               0.000000000              -0.002217727               0.006956786               0.001895975              -0.001701242               0.002885986               0.001184743               0.000000000               0.000000000               0.000000000               0.000000000              -0.001923511               0.007200844               0.001632717              -0.001621419               0.002940730               0.001319311               0.000000000               0.000000000               0.000000000               0.000000000              -0.001590716               0.007260155               0.001397603              -0.001504034               0.002921372               0.001417338               0.000000000               0.000000000               0.000000000               0.000000000              -0.001276598               0.007196973               0.001204977              -0.001378343               0.002858415               0.001480072               0.000000000               0.000000000               0.000000000               0.000000000              -0.000992444               0.007045690               0.001049773              -0.001252875               0.002766164               0.001513290               0.000000000               0.000000000               0.000000000               0.000000000              -0.000741968               0.006836831               0.000918411              -0.001132839               0.002656534               0.001523695               0.000000000               0.000000000               0.000000000               0.000000000              -0.000533667               0.006584933               0.000796724              -0.001023240               0.002536036               0.001512796               0.000000000               0.000000000               0.000000000               0.000000000              -0.000360031               0.006313327               0.000675517              -0.000924175               0.002412480               0.001488304               0.000000000               0.000000000               0.000000000               0.000000000              -0.000229956               0.006033622               0.000550310              -0.000840434               0.002291332               0.001450898               0.000000000               0.000000000               0.000000000               0.000000000              -0.000149691               0.005771700               0.000422723              -0.000777595               0.002183079               0.001405484               0.000000000               0.000000000               0.000000000               0.000000000              -0.000123617               0.005538203               0.000296776              -0.000738630               0.002092259               0.001353629               0.000000000               0.000000000               0.000000000               0.000000000              -0.000148261               0.005338160               0.000178583              -0.000722866               0.002020324               0.001297458               0.000000000               0.000000000               0.000000000               0.000000000              -0.000215975               0.005160077               0.000075012              -0.000725998               0.001962008               0.001236010               0.000000000               0.000000000               0.000000000               0.000000000              -0.000276439               0.005061622               0.000022323              -0.000736365               0.001932646               0.001196280               0.000000000               0.000000000               0.000000000               0.000000000              -0.002880083               0.001555365               0.000471816              -0.001274449               0.000943265              -0.000331184               0.000000000               0.000000000               0.000000000               0.000000000              -0.002455341               0.003225581               0.001457296              -0.001323948               0.001516498               0.000192550               0.000000000               0.000000000               0.000000000               0.000000000              -0.002441092               0.004953806               0.002196125              -0.001534632               0.002162795               0.000628163               0.000000000               0.000000000               0.000000000               0.000000000              -0.002184862               0.005851674               0.002168391              -0.001550780               0.002467464               0.000916685               0.000000000               0.000000000               0.000000000               0.000000000              -0.001860550               0.006331667               0.001956811              -0.001489162               0.002606921               0.001117759               0.000000000               0.000000000               0.000000000               0.000000000              -0.001527791               0.006590623               0.001725969              -0.001396747               0.002662434               0.001265688               0.000000000               0.000000000               0.000000000               0.000000000              -0.001224205               0.006688510               0.001516359              -0.001295138               0.002661193               0.001366055               0.000000000               0.000000000               0.000000000               0.000000000              -0.000951377               0.006671531               0.001339760              -0.001190705               0.002620723               0.001430018               0.000000000               0.000000000               0.000000000               0.000000000              -0.000706272               0.006573291               0.001184857              -0.001086511               0.002553245               0.001466734               0.000000000               0.000000000               0.000000000               0.000000000              -0.000490012               0.006420990               0.001039802              -0.000986376               0.002469101               0.001482725               0.000000000               0.000000000               0.000000000               0.000000000              -0.000303342               0.006227849               0.000899507              -0.000892232               0.002373340               0.001481107               0.000000000               0.000000000               0.000000000               0.000000000              -0.000148487               0.006001705               0.000759430              -0.000805894               0.002269179               0.001463285               0.000000000               0.000000000               0.000000000               0.000000000              -0.000030765               0.005766332               0.000618622              -0.000732327               0.002166200               0.001433874               0.000000000               0.000000000               0.000000000               0.000000000               0.000037120               0.005540903               0.000471431              -0.000678691               0.002073180               0.001394488               0.000000000               0.000000000               0.000000000               0.000000000               0.000038620               0.005338383               0.000315075              -0.000652814               0.001997048               0.001344234               0.000000000               0.000000000               0.000000000               0.000000000              -0.000035343               0.005158792               0.000154365              -0.000658101               0.001938947               0.001280846               0.000000000               0.000000000               0.000000000               0.000000000              -0.000119080               0.005058299               0.000064872              -0.000676941               0.001911730               0.001234789               0.000000000               0.000000000               0.000000000               0.000000000              -0.004383018               0.000583174              -0.000073782              -0.001716526               0.000766562              -0.000949965               0.000000000               0.000000000               0.000000000               0.000000000              -0.003168133               0.002077517               0.001116851              -0.001447737               0.001175076              -0.000272661               0.000000000               0.000000000               0.000000000               0.000000000              -0.002522589               0.003606121               0.002098213              -0.001396733               0.001667605               0.000270872               0.000000000               0.000000000               0.000000000               0.000000000              -0.002062726               0.004608791               0.002221704              -0.001349619               0.001986120               0.000636501               0.000000000               0.000000000               0.000000000               0.000000000              -0.001681423               0.005277197               0.002087112              -0.001290181               0.002189108               0.000898927               0.000000000               0.000000000               0.000000000               0.000000000              -0.001347923               0.005720574               0.001889315              -0.001220541               0.002313685               0.001093145               0.000000000               0.000000000               0.000000000               0.000000000              -0.001057619               0.005978008               0.001693319              -0.001143856               0.002373934               0.001230078               0.000000000               0.000000000               0.000000000               0.000000000              -0.000800196               0.006106634               0.001518046              -0.001063401               0.002389991               0.001326590               0.000000000               0.000000000               0.000000000               0.000000000              -0.000567367               0.006139033               0.001357918              -0.000980140               0.002373037               0.001392897               0.000000000               0.000000000               0.000000000               0.000000000              -0.000353383               0.006099500               0.001206448              -0.000894954               0.002331464               0.001436510               0.000000000               0.000000000               0.000000000               0.000000000              -0.000160512               0.006007893               0.001059752              -0.000811177               0.002273003               0.001461826               0.000000000               0.000000000               0.000000000               0.000000000               0.000016115               0.005871554               0.000918768              -0.000727900               0.002199798               0.001471898               0.000000000               0.000000000               0.000000000               0.000000000               0.000176686               0.005701074               0.000777129              -0.000646376               0.002115797               0.001469422               0.000000000               0.000000000               0.000000000               0.000000000               0.000305941               0.005516842               0.000617920              -0.000574876               0.002030554               0.001455678               0.000000000               0.000000000               0.000000000               0.000000000               0.000379383               0.005333252               0.000433570              -0.000524387               0.001952528               0.001428142               0.000000000               0.000000000               0.000000000               0.000000000               0.000379518               0.005161468               0.000226363              -0.000502863               0.001888093               0.001385230               0.000000000               0.000000000               0.000000000               0.000000000               0.000341462               0.005070883               0.000111898              -0.000505811               0.001858881               0.001353070               0.000000000               0.000000000               0.000000000               0.000000000              -0.005836542              -0.000057159              -0.000394302              -0.002181556               0.000708128              -0.001473429               0.000000000               0.000000000               0.000000000               0.000000000              -0.003887883               0.001143944               0.000773739              -0.001600947               0.000914957              -0.000685990               0.000000000               0.000000000               0.000000000               0.000000000              -0.002598963               0.002359380               0.001791035              -0.001269532               0.001209628              -0.000059904               0.000000000               0.000000000               0.000000000               0.000000000              -0.001891639               0.003368992               0.002009379              -0.001130487               0.001499814               0.000369327               0.000000000               0.000000000               0.000000000               0.000000000              -0.001424740               0.004156875               0.001951277              -0.001053885               0.001736905               0.000683020               0.000000000               0.000000000               0.000000000               0.000000000              -0.001073910               0.004744236               0.001806267              -0.000995744               0.001913310               0.000917566               0.000000000               0.000000000               0.000000000               0.000000000              -0.000789962               0.005145097               0.001645888              -0.000939371               0.002028139               0.001088767               0.000000000               0.000000000               0.000000000               0.000000000              -0.000547936               0.005405502               0.001493811              -0.000881162               0.002095536               0.001214374               0.000000000               0.000000000               0.000000000               0.000000000              -0.000331374               0.005561284               0.001349725              -0.000819424               0.002126884               0.001307459               0.000000000               0.000000000               0.000000000               0.000000000              -0.000126405               0.005641929               0.001209373              -0.000752642               0.002131505               0.001378863               0.000000000               0.000000000               0.000000000               0.000000000               0.000073452               0.005658836               0.001075660              -0.000679809               0.002112863               0.001433054               0.000000000               0.000000000               0.000000000               0.000000000               0.000271932               0.005621402               0.000952029              -0.000600700               0.002074015               0.001473315               0.000000000               0.000000000               0.000000000               0.000000000               0.000469251               0.005542539               0.000825067              -0.000516847               0.002019777               0.001502929               0.000000000               0.000000000               0.000000000               0.000000000               0.000659647               0.005432955               0.000671507              -0.000431751               0.001954884               0.001523133               0.000000000               0.000000000               0.000000000               0.000000000               0.000830894               0.005299777               0.000484313              -0.000350886               0.001883537               0.001532651               0.000000000               0.000000000               0.000000000               0.000000000               0.000965460               0.005153822               0.000260692              -0.000282180               0.001811983               0.001529804               0.000000000               0.000000000               0.000000000               0.000000000               0.001039395               0.005087053               0.000141540              -0.000246108               0.001777703               0.001531596               0.000000000               0.000000000               0.000000000               0.000000000              -0.007057300              -0.000424664              -0.000459008              -0.002593403               0.000722908              -0.001870495               0.000000000               0.000000000               0.000000000               0.000000000              -0.004519030               0.000465039               0.000466894              -0.001752764               0.000739263              -0.001013502               0.000000000               0.000000000               0.000000000               0.000000000              -0.002676808               0.001349441               0.001302754              -0.001172481               0.000840634              -0.000331847               0.000000000               0.000000000               0.000000000               0.000000000              -0.001727555               0.002301599               0.001527839              -0.000935531               0.001079035               0.000143504               0.000000000               0.000000000               0.000000000               0.000000000              -0.001159733               0.003143953               0.001521870              -0.000827893               0.001323938               0.000496045               0.000000000               0.000000000               0.000000000               0.000000000              -0.000774878               0.003825485               0.001434566              -0.000768764               0.001531403               0.000762639               0.000000000               0.000000000               0.000000000               0.000000000              -0.000490080               0.004331790               0.001324173              -0.000725252               0.001685666               0.000960413               0.000000000               0.000000000               0.000000000               0.000000000              -0.000258315               0.004699208               0.001211944              -0.000684268               0.001794476               0.001110208               0.000000000               0.000000000               0.000000000               0.000000000              -0.000055020               0.004961343               0.001101019              -0.000640799               0.001867364               0.001226565               0.000000000               0.000000000               0.000000000               0.000000000               0.000140644               0.005143651               0.000992991              -0.000590214               0.001911271               0.001321057               0.000000000               0.000000000               0.000000000               0.000000000               0.000343535               0.005257515               0.000893487              -0.000528363               0.001928608               0.001400246               0.000000000               0.000000000               0.000000000               0.000000000               0.000559441               0.005316315               0.000801489              -0.000454748               0.001923670               0.001468922               0.000000000               0.000000000               0.000000000               0.000000000               0.000785861               0.005328273               0.000703421              -0.000371335               0.001899852               0.001528516               0.000000000               0.000000000               0.000000000               0.000000000               0.001028277               0.005299395               0.000582180              -0.000276820               0.001858721               0.001581901               0.000000000               0.000000000               0.000000000               0.000000000               0.001293198               0.005233161               0.000427691              -0.000169196               0.001800768               0.001631572               0.000000000               0.000000000               0.000000000               0.000000000               0.001574312               0.005129690               0.000232625              -0.000050845               0.001726828               0.001675983               0.000000000               0.000000000               0.000000000               0.000000000               0.001783513               0.005094710               0.000132744               0.000031978               0.001687560               0.001719538               0.000000000               0.000000000               0.000000000               0.000000000              -0.007875776              -0.000596482              -0.000295753              -0.002878854               0.000760785              -0.002118068               0.000000000               0.000000000               0.000000000               0.000000000              -0.004954795               0.000059329               0.000213679              -0.001865463               0.000641593              -0.001223870               0.000000000               0.000000000               0.000000000               0.000000000              -0.002735485               0.000694418               0.000683114              -0.001112608               0.000602338              -0.000510270               0.000000000               0.000000000               0.000000000               0.000000000              -0.001610835               0.001577694               0.000824937              -0.000801273               0.000792983              -0.000008290               0.000000000               0.000000000               0.000000000               0.000000000              -0.000960263               0.002432501               0.000836292              -0.000664160               0.001032212               0.000368052               0.000000000               0.000000000               0.000000000               0.000000000              -0.000542372               0.003160610               0.000798462              -0.000598465               0.001253014               0.000654549               0.000000000               0.000000000               0.000000000               0.000000000              -0.000253302               0.003730017               0.000743391              -0.000561239               0.001430406               0.000869167               0.000000000               0.000000000               0.000000000               0.000000000              -0.000029948               0.004166773               0.000683070              -0.000532076               0.001566269               0.001034193               0.000000000               0.000000000               0.000000000               0.000000000               0.000165206               0.004499005               0.000621852              -0.000500422               0.001666461               0.001166038               0.000000000               0.000000000               0.000000000               0.000000000               0.000359556               0.004753003               0.000562985              -0.000459291               0.001737415               0.001278125               0.000000000               0.000000000               0.000000000               0.000000000               0.000563184               0.004938080               0.000510850              -0.000406065               0.001781365               0.001375300               0.000000000               0.000000000               0.000000000               0.000000000               0.000783506               0.005066383               0.000462030              -0.000339482               0.001801938               0.001462456               0.000000000               0.000000000               0.000000000               0.000000000               0.001027700               0.005145608               0.000407561              -0.000257813               0.001801123               0.001543310               0.000000000               0.000000000               0.000000000               0.000000000               0.001308166               0.005177395               0.000341014              -0.000156612               0.001777985               0.001621373               0.000000000               0.000000000               0.000000000               0.000000000               0.001639780               0.005161256               0.000252905              -0.000030240               0.001730481               0.001700242               0.000000000               0.000000000               0.000000000               0.000000000               0.002037255               0.005096621               0.000138214               0.000126892               0.001656559               0.001783451               0.000000000               0.000000000               0.000000000               0.000000000               0.002357560               0.005090643               0.000081476               0.000247752               0.001614280               0.001862032               0.000000000               0.000000000               0.000000000               0.000000000               0.000000000               0.000000000               0.000000000               0.000000000               0.000000000               0.000000000               0.000000000               0.000000000               0.000000000               0.000000000               0.000000000               0.000000000               0.000000000               0.000000000               0.000000000               0.000000000               0.000000000               0.000000000               0.000000000               0.000000000               0.000000000               0.000000000               0.000000000               0.000000000               0.000000000               0.000000000               0.000000000               0.000000000               0.000000000               0.000000000               0.000000000               0.000000000               0.000000000               0.000000000               0.000000000               0.000000000               0.000000000               0.000000000               0.000000000               0.000000000               0.000000000               0.000000000               0.000000000               0.000000000               0.000000000               0.000000000               0.000000000               0.000000000               0.000000000               0.000000000               0.000000000               0.000000000               0.000000000               0.000000000               0.000000000               0.000000000               0.000000000               0.000000000               0.000000000               0.000000000               0.000000000               0.000000000               0.000000000               0.000000000               0.000000000               0.000000000               0.000000000               0.000000000               0.000000000               0.000000000               0.000000000               0.000000000               0.000000000               0.000000000               0.000000000               0.000000000               0.000000000               0.000000000               0.000000000               0.000000000               0.000000000               0.000000000               0.000000000               0.000000000               0.000000000               0.000000000               0.000000000               0.000000000               0.000000000               0.000000000               0.000000000               0.000000000               0.000000000               0.000000000               0.000000000               0.000000000               0.000000000               0.000000000               0.000000000               0.000000000               0.000000000               0.000000000               0.000000000               0.000000000               0.000000000               0.000000000               0.000000000               0.000000000               0.000000000               0.000000000               0.000000000               0.000000000               0.000000000               0.000000000               0.000000000               0.000000000               0.000000000               0.000000000               0.000000000               0.000000000               0.000000000               0.000000000               0.000000000               0.000000000               0.000000000               0.000000000               0.000000000               0.000000000               0.000000000               0.000000000               0.000000000               0.000000000               0.000000000               0.000000000               0.000000000               0.000000000               0.000000000               0.000000000               0.000000000               0.000000000               0.000000000               0.000000000               0.000000000               0.000000000               0.000000000               0.000000000               0.000000000               0.000000000               0.000000000               0.000000000               0.000000000               0.000000000               0.000000000               0.000000000               0.000000000               0.000000000               0.000000000               0.000000000               0.000000000               0.000000000               0.000000000               0.000000000               0.000000000               0.000000000               0.000000000               0.000000000               0.000000000               0.000000000               0.000000000               0.000000000 </DataArray>
</PointData>
</Piece>
</UnstructuredGrid> </VTKFile>
