<?xml version="1.0"?>
<VTKFile type="UnstructuredGrid" version="0.1">
<UnstructuredGrid>
<Piece NumberOfPoints="      1156" NumberOfCells="      1024">
<Points>
<DataArray type="Float64"                                    Name="coordinates"                                                      NumberOfComponents=" 3" format="ascii">
              0.133000000               0.000000000               0.000000000               0.155937500               0.000000000               0.000000000               0.178875000               0.000000000               0.000000000               0.201812500               0.000000000               0.000000000               0.224750000               0.000000000               0.000000000               0.247687500               0.000000000               0.000000000               0.270625000               0.000000000               0.000000000               0.293562500               0.000000000               0.000000000               0.316500000               0.000000000               0.000000000               0.339437500               0.000000000               0.000000000               0.362375000               0.000000000               0.000000000               0.385312500               0.000000000               0.000000000               0.408250000               0.000000000               0.000000000               0.431187500               0.000000000               0.000000000               0.454125000               0.000000000               0.000000000               0.477062500               0.000000000               0.000000000               0.500000000               0.000000000               0.000000000               0.132359569               0.013036280               0.000000000               0.155337096               0.016127762               0.000000000               0.178314623               0.019219245               0.000000000               0.201292150               0.022310727               0.000000000               0.224269676               0.025402210               0.000000000               0.247247203               0.028493692               0.000000000               0.270224730               0.031585175               0.000000000               0.293202257               0.034676657               0.000000000               0.316179784               0.037768140               0.000000000               0.339157311               0.040859622               0.000000000               0.362134838               0.043951105               0.000000000               0.385112365               0.047042587               0.000000000               0.408089892               0.050134070               0.000000000               0.431067419               0.053225552               0.000000000               0.454044946               0.056317035               0.000000000               0.477022473               0.059408517               0.000000000               0.500000000               0.062500000               0.000000000               0.130444442               0.025947013               0.000000000               0.153541665               0.032137825               0.000000000               0.176638887               0.038328636               0.000000000               0.199736109               0.044519448               0.000000000               0.222833332               0.050710260               0.000000000               0.245930554               0.056901071               0.000000000               0.269027776               0.063091883               0.000000000               0.292124999               0.069282695               0.000000000               0.315222221               0.075473506               0.000000000               0.338319444               0.081664318               0.000000000               0.361416666               0.087855130               0.000000000               0.384513888               0.094045942               0.000000000               0.407611111               0.100236753               0.000000000               0.430708333               0.106427565               0.000000000               0.453805555               0.112618377               0.000000000               0.476902778               0.118809188               0.000000000               0.500000000               0.125000000               0.000000000               0.127273065               0.038607862               0.000000000               0.150568498               0.047913621               0.000000000               0.173863932               0.057219379               0.000000000               0.197159365               0.066525138               0.000000000               0.220454798               0.075830897               0.000000000               0.243750232               0.085136655               0.000000000               0.267045665               0.094442414               0.000000000               0.290341099               0.103748172               0.000000000               0.313636532               0.113053931               0.000000000               0.336931966               0.122359690               0.000000000               0.360227399               0.131665448               0.000000000               0.383522833               0.140971207               0.000000000               0.406818266               0.150276966               0.000000000               0.430113700               0.159582724               0.000000000               0.453409133               0.168888483               0.000000000               0.476704567               0.178194241               0.000000000               0.500000000               0.187500000               0.000000000               0.122875978               0.050896897               0.000000000               0.146446229               0.063340840               0.000000000               0.170016481               0.075784784               0.000000000               0.193586732               0.088228728               0.000000000               0.217156983               0.100672672               0.000000000               0.240727235               0.113116616               0.000000000               0.264297486               0.125560560               0.000000000               0.287867738               0.138004504               0.000000000               0.311437989               0.150448448               0.000000000               0.335008240               0.162892392               0.000000000               0.358578492               0.175336336               0.000000000               0.382148743               0.187780280               0.000000000               0.405718994               0.200224224               0.000000000               0.429289246               0.212668168               0.000000000               0.452859497               0.225112112               0.000000000               0.476429749               0.237556056               0.000000000               0.500000000               0.250000000               0.000000000               0.117295528               0.062695766               0.000000000               0.141214558               0.078308531               0.000000000               0.165133587               0.093921295               0.000000000               0.189052617               0.109534060               0.000000000               0.212971646               0.125146824               0.000000000               0.236890676               0.140759589               0.000000000               0.260809705               0.156372354               0.000000000               0.284728735               0.171985118               0.000000000               0.308647764               0.187597883               0.000000000               0.332566794               0.203210648               0.000000000               0.356485823               0.218823412               0.000000000               0.380404853               0.234436177               0.000000000               0.404323882               0.250048941               0.000000000               0.428242912               0.265661706               0.000000000               0.452161941               0.281274471               0.000000000               0.476080971               0.296887235               0.000000000               0.500000000               0.312500000               0.000000000               0.110585458               0.073890841               0.000000000               0.134923867               0.092710163               0.000000000               0.159262276               0.111529486               0.000000000               0.183600685               0.130348808               0.000000000               0.207939094               0.149168131               0.000000000               0.232277503               0.167987453               0.000000000               0.256615912               0.186806776               0.000000000               0.280954320               0.205626098               0.000000000               0.305292729               0.224445420               0.000000000               0.329631138               0.243264743               0.000000000               0.353969547               0.262084065               0.000000000               0.378307956               0.280903388               0.000000000               0.402646365               0.299722710               0.000000000               0.426984773               0.318542033               0.000000000               0.451323182               0.337361355               0.000000000               0.475661591               0.356180678               0.000000000               0.500000000               0.375000000               0.000000000               0.102810390               0.084374307               0.000000000               0.127634741               0.106444663               0.000000000               0.152459092               0.128515018               0.000000000               0.177283442               0.150585374               0.000000000               0.202107793               0.172655730               0.000000000               0.226932143               0.194726086               0.000000000               0.251756494               0.216796442               0.000000000               0.276580845               0.238866798               0.000000000               0.301405195               0.260937153               0.000000000               0.326229546               0.283007509               0.000000000               0.351053896               0.305077865               0.000000000               0.375878247               0.327148221               0.000000000               0.400702598               0.349218577               0.000000000               0.425526948               0.371288933               0.000000000               0.450351299               0.393359288               0.000000000               0.475175649               0.415429644               0.000000000               0.500000000               0.437500000               0.000000000               0.094045202               0.094045202               0.000000000               0.119417377               0.119417377               0.000000000               0.144789552               0.144789552               0.000000000               0.170161727               0.170161727               0.000000000               0.195533901               0.195533901               0.000000000               0.220906076               0.220906076               0.000000000               0.246278251               0.246278251               0.000000000               0.271650426               0.271650426               0.000000000               0.297022601               0.297022601               0.000000000               0.322394776               0.322394776               0.000000000               0.347766951               0.347766951               0.000000000               0.373139126               0.373139126               0.000000000               0.398511300               0.398511300               0.000000000               0.423883475               0.423883475               0.000000000               0.449255650               0.449255650               0.000000000               0.474627825               0.474627825               0.000000000               0.500000000               0.500000000               0.000000000               0.084374307               0.102810390               0.000000000               0.106444663               0.127634741               0.000000000               0.128515018               0.152459092               0.000000000               0.150585374               0.177283442               0.000000000               0.172655730               0.202107793               0.000000000               0.194726086               0.226932143               0.000000000               0.216796442               0.251756494               0.000000000               0.238866798               0.276580845               0.000000000               0.260937153               0.301405195               0.000000000               0.283007509               0.326229546               0.000000000               0.305077865               0.351053896               0.000000000               0.327148221               0.375878247               0.000000000               0.349218577               0.400702598               0.000000000               0.371288933               0.425526948               0.000000000               0.393359288               0.450351299               0.000000000               0.415429644               0.475175649               0.000000000               0.437500000               0.500000000               0.000000000               0.073890841               0.110585458               0.000000000               0.092710163               0.134923867               0.000000000               0.111529486               0.159262276               0.000000000               0.130348808               0.183600685               0.000000000               0.149168131               0.207939094               0.000000000               0.167987453               0.232277503               0.000000000               0.186806776               0.256615912               0.000000000               0.205626098               0.280954320               0.000000000               0.224445420               0.305292729               0.000000000               0.243264743               0.329631138               0.000000000               0.262084065               0.353969547               0.000000000               0.280903388               0.378307956               0.000000000               0.299722710               0.402646365               0.000000000               0.318542033               0.426984773               0.000000000               0.337361355               0.451323182               0.000000000               0.356180678               0.475661591               0.000000000               0.375000000               0.500000000               0.000000000               0.062695766               0.117295528               0.000000000               0.078308531               0.141214558               0.000000000               0.093921295               0.165133587               0.000000000               0.109534060               0.189052617               0.000000000               0.125146824               0.212971646               0.000000000               0.140759589               0.236890676               0.000000000               0.156372354               0.260809705               0.000000000               0.171985118               0.284728735               0.000000000               0.187597883               0.308647764               0.000000000               0.203210648               0.332566794               0.000000000               0.218823412               0.356485823               0.000000000               0.234436177               0.380404853               0.000000000               0.250048941               0.404323882               0.000000000               0.265661706               0.428242912               0.000000000               0.281274471               0.452161941               0.000000000               0.296887235               0.476080971               0.000000000               0.312500000               0.500000000               0.000000000               0.050896897               0.122875978               0.000000000               0.063340840               0.146446229               0.000000000               0.075784784               0.170016481               0.000000000               0.088228728               0.193586732               0.000000000               0.100672672               0.217156983               0.000000000               0.113116616               0.240727235               0.000000000               0.125560560               0.264297486               0.000000000               0.138004504               0.287867738               0.000000000               0.150448448               0.311437989               0.000000000               0.162892392               0.335008240               0.000000000               0.175336336               0.358578492               0.000000000               0.187780280               0.382148743               0.000000000               0.200224224               0.405718994               0.000000000               0.212668168               0.429289246               0.000000000               0.225112112               0.452859497               0.000000000               0.237556056               0.476429749               0.000000000               0.250000000               0.500000000               0.000000000               0.038607862               0.127273065               0.000000000               0.047913621               0.150568498               0.000000000               0.057219379               0.173863932               0.000000000               0.066525138               0.197159365               0.000000000               0.075830897               0.220454798               0.000000000               0.085136655               0.243750232               0.000000000               0.094442414               0.267045665               0.000000000               0.103748172               0.290341099               0.000000000               0.113053931               0.313636532               0.000000000               0.122359690               0.336931966               0.000000000               0.131665448               0.360227399               0.000000000               0.140971207               0.383522833               0.000000000               0.150276966               0.406818266               0.000000000               0.159582724               0.430113700               0.000000000               0.168888483               0.453409133               0.000000000               0.178194241               0.476704567               0.000000000               0.187500000               0.500000000               0.000000000               0.025947013               0.130444442               0.000000000               0.032137825               0.153541665               0.000000000               0.038328636               0.176638887               0.000000000               0.044519448               0.199736109               0.000000000               0.050710260               0.222833332               0.000000000               0.056901071               0.245930554               0.000000000               0.063091883               0.269027776               0.000000000               0.069282695               0.292124999               0.000000000               0.075473506               0.315222221               0.000000000               0.081664318               0.338319444               0.000000000               0.087855130               0.361416666               0.000000000               0.094045942               0.384513888               0.000000000               0.100236753               0.407611111               0.000000000               0.106427565               0.430708333               0.000000000               0.112618377               0.453805555               0.000000000               0.118809188               0.476902778               0.000000000               0.125000000               0.500000000               0.000000000               0.013036280               0.132359569               0.000000000               0.016127762               0.155337096               0.000000000               0.019219245               0.178314623               0.000000000               0.022310727               0.201292150               0.000000000               0.025402210               0.224269676               0.000000000               0.028493692               0.247247203               0.000000000               0.031585175               0.270224730               0.000000000               0.034676657               0.293202257               0.000000000               0.037768140               0.316179784               0.000000000               0.040859622               0.339157311               0.000000000               0.043951105               0.362134838               0.000000000               0.047042587               0.385112365               0.000000000               0.050134070               0.408089892               0.000000000               0.053225552               0.431067419               0.000000000               0.056317035               0.454044946               0.000000000               0.059408517               0.477022473               0.000000000               0.062500000               0.500000000               0.000000000               0.000000000               0.133000000               0.000000000               0.000000000               0.155937500               0.000000000               0.000000000               0.178875000               0.000000000               0.000000000               0.201812500               0.000000000               0.000000000               0.224750000               0.000000000               0.000000000               0.247687500               0.000000000               0.000000000               0.270625000               0.000000000               0.000000000               0.293562500               0.000000000               0.000000000               0.316500000               0.000000000               0.000000000               0.339437500               0.000000000               0.000000000               0.362375000               0.000000000               0.000000000               0.385312500               0.000000000               0.000000000               0.408250000               0.000000000               0.000000000               0.431187500               0.000000000               0.000000000               0.454125000               0.000000000               0.000000000               0.477062500               0.000000000               0.000000000               0.500000000               0.000000000               0.133000000               0.000000000               0.000000000               0.155937500               0.000000000               0.000000000               0.178875000               0.000000000               0.000000000               0.201812500               0.000000000               0.000000000               0.224750000               0.000000000               0.000000000               0.247687500               0.000000000               0.000000000               0.270625000               0.000000000               0.000000000               0.293562500               0.000000000               0.000000000               0.316500000               0.000000000               0.000000000               0.339437500               0.000000000               0.000000000               0.362375000               0.000000000               0.000000000               0.385312500               0.000000000               0.000000000               0.408250000               0.000000000               0.000000000               0.431187500               0.000000000               0.000000000               0.454125000               0.000000000               0.000000000               0.477062500               0.000000000               0.000000000               0.500000000               0.000000000               0.000000000               0.132359569              -0.013036280               0.000000000               0.155337096              -0.016127762               0.000000000               0.178314623              -0.019219245               0.000000000               0.201292150              -0.022310727               0.000000000               0.224269676              -0.025402210               0.000000000               0.247247203              -0.028493692               0.000000000               0.270224730              -0.031585175               0.000000000               0.293202257              -0.034676657               0.000000000               0.316179784              -0.037768140               0.000000000               0.339157311              -0.040859622               0.000000000               0.362134838              -0.043951105               0.000000000               0.385112365              -0.047042587               0.000000000               0.408089892              -0.050134070               0.000000000               0.431067419              -0.053225552               0.000000000               0.454044946              -0.056317035               0.000000000               0.477022473              -0.059408517               0.000000000               0.500000000              -0.062500000               0.000000000               0.130444442              -0.025947013               0.000000000               0.153541665              -0.032137825               0.000000000               0.176638887              -0.038328636               0.000000000               0.199736109              -0.044519448               0.000000000               0.222833332              -0.050710260               0.000000000               0.245930554              -0.056901071               0.000000000               0.269027776              -0.063091883               0.000000000               0.292124999              -0.069282695               0.000000000               0.315222221              -0.075473506               0.000000000               0.338319444              -0.081664318               0.000000000               0.361416666              -0.087855130               0.000000000               0.384513888              -0.094045942               0.000000000               0.407611111              -0.100236753               0.000000000               0.430708333              -0.106427565               0.000000000               0.453805555              -0.112618377               0.000000000               0.476902778              -0.118809188               0.000000000               0.500000000              -0.125000000               0.000000000               0.127273065              -0.038607862               0.000000000               0.150568498              -0.047913621               0.000000000               0.173863932              -0.057219379               0.000000000               0.197159365              -0.066525138               0.000000000               0.220454798              -0.075830897               0.000000000               0.243750232              -0.085136655               0.000000000               0.267045665              -0.094442414               0.000000000               0.290341099              -0.103748172               0.000000000               0.313636532              -0.113053931               0.000000000               0.336931966              -0.122359690               0.000000000               0.360227399              -0.131665448               0.000000000               0.383522833              -0.140971207               0.000000000               0.406818266              -0.150276966               0.000000000               0.430113700              -0.159582724               0.000000000               0.453409133              -0.168888483               0.000000000               0.476704567              -0.178194241               0.000000000               0.500000000              -0.187500000               0.000000000               0.122875978              -0.050896897               0.000000000               0.146446229              -0.063340840               0.000000000               0.170016481              -0.075784784               0.000000000               0.193586732              -0.088228728               0.000000000               0.217156983              -0.100672672               0.000000000               0.240727235              -0.113116616               0.000000000               0.264297486              -0.125560560               0.000000000               0.287867738              -0.138004504               0.000000000               0.311437989              -0.150448448               0.000000000               0.335008240              -0.162892392               0.000000000               0.358578492              -0.175336336               0.000000000               0.382148743              -0.187780280               0.000000000               0.405718994              -0.200224224               0.000000000               0.429289246              -0.212668168               0.000000000               0.452859497              -0.225112112               0.000000000               0.476429749              -0.237556056               0.000000000               0.500000000              -0.250000000               0.000000000               0.117295528              -0.062695766               0.000000000               0.141214558              -0.078308531               0.000000000               0.165133587              -0.093921295               0.000000000               0.189052617              -0.109534060               0.000000000               0.212971646              -0.125146824               0.000000000               0.236890676              -0.140759589               0.000000000               0.260809705              -0.156372354               0.000000000               0.284728735              -0.171985118               0.000000000               0.308647764              -0.187597883               0.000000000               0.332566794              -0.203210648               0.000000000               0.356485823              -0.218823412               0.000000000               0.380404853              -0.234436177               0.000000000               0.404323882              -0.250048941               0.000000000               0.428242912              -0.265661706               0.000000000               0.452161941              -0.281274471               0.000000000               0.476080971              -0.296887235               0.000000000               0.500000000              -0.312500000               0.000000000               0.110585458              -0.073890841               0.000000000               0.134923867              -0.092710163               0.000000000               0.159262276              -0.111529486               0.000000000               0.183600685              -0.130348808               0.000000000               0.207939094              -0.149168131               0.000000000               0.232277503              -0.167987453               0.000000000               0.256615912              -0.186806776               0.000000000               0.280954320              -0.205626098               0.000000000               0.305292729              -0.224445420               0.000000000               0.329631138              -0.243264743               0.000000000               0.353969547              -0.262084065               0.000000000               0.378307956              -0.280903388               0.000000000               0.402646365              -0.299722710               0.000000000               0.426984773              -0.318542033               0.000000000               0.451323182              -0.337361355               0.000000000               0.475661591              -0.356180678               0.000000000               0.500000000              -0.375000000               0.000000000               0.102810390              -0.084374307               0.000000000               0.127634741              -0.106444663               0.000000000               0.152459092              -0.128515018               0.000000000               0.177283442              -0.150585374               0.000000000               0.202107793              -0.172655730               0.000000000               0.226932143              -0.194726086               0.000000000               0.251756494              -0.216796442               0.000000000               0.276580845              -0.238866798               0.000000000               0.301405195              -0.260937153               0.000000000               0.326229546              -0.283007509               0.000000000               0.351053896              -0.305077865               0.000000000               0.375878247              -0.327148221               0.000000000               0.400702598              -0.349218577               0.000000000               0.425526948              -0.371288933               0.000000000               0.450351299              -0.393359288               0.000000000               0.475175649              -0.415429644               0.000000000               0.500000000              -0.437500000               0.000000000               0.094045202              -0.094045202               0.000000000               0.119417377              -0.119417377               0.000000000               0.144789552              -0.144789552               0.000000000               0.170161727              -0.170161727               0.000000000               0.195533901              -0.195533901               0.000000000               0.220906076              -0.220906076               0.000000000               0.246278251              -0.246278251               0.000000000               0.271650426              -0.271650426               0.000000000               0.297022601              -0.297022601               0.000000000               0.322394776              -0.322394776               0.000000000               0.347766951              -0.347766951               0.000000000               0.373139126              -0.373139126               0.000000000               0.398511300              -0.398511300               0.000000000               0.423883475              -0.423883475               0.000000000               0.449255650              -0.449255650               0.000000000               0.474627825              -0.474627825               0.000000000               0.500000000              -0.500000000               0.000000000               0.084374307              -0.102810390               0.000000000               0.106444663              -0.127634741               0.000000000               0.128515018              -0.152459092               0.000000000               0.150585374              -0.177283442               0.000000000               0.172655730              -0.202107793               0.000000000               0.194726086              -0.226932143               0.000000000               0.216796442              -0.251756494               0.000000000               0.238866798              -0.276580845               0.000000000               0.260937153              -0.301405195               0.000000000               0.283007509              -0.326229546               0.000000000               0.305077865              -0.351053896               0.000000000               0.327148221              -0.375878247               0.000000000               0.349218577              -0.400702598               0.000000000               0.371288933              -0.425526948               0.000000000               0.393359288              -0.450351299               0.000000000               0.415429644              -0.475175649               0.000000000               0.437500000              -0.500000000               0.000000000               0.073890841              -0.110585458               0.000000000               0.092710163              -0.134923867               0.000000000               0.111529486              -0.159262276               0.000000000               0.130348808              -0.183600685               0.000000000               0.149168131              -0.207939094               0.000000000               0.167987453              -0.232277503               0.000000000               0.186806776              -0.256615912               0.000000000               0.205626098              -0.280954320               0.000000000               0.224445420              -0.305292729               0.000000000               0.243264743              -0.329631138               0.000000000               0.262084065              -0.353969547               0.000000000               0.280903388              -0.378307956               0.000000000               0.299722710              -0.402646365               0.000000000               0.318542033              -0.426984773               0.000000000               0.337361355              -0.451323182               0.000000000               0.356180678              -0.475661591               0.000000000               0.375000000              -0.500000000               0.000000000               0.062695766              -0.117295528               0.000000000               0.078308531              -0.141214558               0.000000000               0.093921295              -0.165133587               0.000000000               0.109534060              -0.189052617               0.000000000               0.125146824              -0.212971646               0.000000000               0.140759589              -0.236890676               0.000000000               0.156372354              -0.260809705               0.000000000               0.171985118              -0.284728735               0.000000000               0.187597883              -0.308647764               0.000000000               0.203210648              -0.332566794               0.000000000               0.218823412              -0.356485823               0.000000000               0.234436177              -0.380404853               0.000000000               0.250048941              -0.404323882               0.000000000               0.265661706              -0.428242912               0.000000000               0.281274471              -0.452161941               0.000000000               0.296887235              -0.476080971               0.000000000               0.312500000              -0.500000000               0.000000000               0.050896897              -0.122875978               0.000000000               0.063340840              -0.146446229               0.000000000               0.075784784              -0.170016481               0.000000000               0.088228728              -0.193586732               0.000000000               0.100672672              -0.217156983               0.000000000               0.113116616              -0.240727235               0.000000000               0.125560560              -0.264297486               0.000000000               0.138004504              -0.287867738               0.000000000               0.150448448              -0.311437989               0.000000000               0.162892392              -0.335008240               0.000000000               0.175336336              -0.358578492               0.000000000               0.187780280              -0.382148743               0.000000000               0.200224224              -0.405718994               0.000000000               0.212668168              -0.429289246               0.000000000               0.225112112              -0.452859497               0.000000000               0.237556056              -0.476429749               0.000000000               0.250000000              -0.500000000               0.000000000               0.038607862              -0.127273065               0.000000000               0.047913621              -0.150568498               0.000000000               0.057219379              -0.173863932               0.000000000               0.066525138              -0.197159365               0.000000000               0.075830897              -0.220454798               0.000000000               0.085136655              -0.243750232               0.000000000               0.094442414              -0.267045665               0.000000000               0.103748172              -0.290341099               0.000000000               0.113053931              -0.313636532               0.000000000               0.122359690              -0.336931966               0.000000000               0.131665448              -0.360227399               0.000000000               0.140971207              -0.383522833               0.000000000               0.150276966              -0.406818266               0.000000000               0.159582724              -0.430113700               0.000000000               0.168888483              -0.453409133               0.000000000               0.178194241              -0.476704567               0.000000000               0.187500000              -0.500000000               0.000000000               0.025947013              -0.130444442               0.000000000               0.032137825              -0.153541665               0.000000000               0.038328636              -0.176638887               0.000000000               0.044519448              -0.199736109               0.000000000               0.050710260              -0.222833332               0.000000000               0.056901071              -0.245930554               0.000000000               0.063091883              -0.269027776               0.000000000               0.069282695              -0.292124999               0.000000000               0.075473506              -0.315222221               0.000000000               0.081664318              -0.338319444               0.000000000               0.087855130              -0.361416666               0.000000000               0.094045942              -0.384513888               0.000000000               0.100236753              -0.407611111               0.000000000               0.106427565              -0.430708333               0.000000000               0.112618377              -0.453805555               0.000000000               0.118809188              -0.476902778               0.000000000               0.125000000              -0.500000000               0.000000000               0.013036280              -0.132359569               0.000000000               0.016127762              -0.155337096               0.000000000               0.019219245              -0.178314623               0.000000000               0.022310727              -0.201292150               0.000000000               0.025402210              -0.224269676               0.000000000               0.028493692              -0.247247203               0.000000000               0.031585175              -0.270224730               0.000000000               0.034676657              -0.293202257               0.000000000               0.037768140              -0.316179784               0.000000000               0.040859622              -0.339157311               0.000000000               0.043951105              -0.362134838               0.000000000               0.047042587              -0.385112365               0.000000000               0.050134070              -0.408089892               0.000000000               0.053225552              -0.431067419               0.000000000               0.056317035              -0.454044946               0.000000000               0.059408517              -0.477022473               0.000000000               0.062500000              -0.500000000               0.000000000               0.000000000              -0.133000000               0.000000000               0.000000000              -0.155937500               0.000000000               0.000000000              -0.178875000               0.000000000               0.000000000              -0.201812500               0.000000000               0.000000000              -0.224750000               0.000000000               0.000000000              -0.247687500               0.000000000               0.000000000              -0.270625000               0.000000000               0.000000000              -0.293562500               0.000000000               0.000000000              -0.316500000               0.000000000               0.000000000              -0.339437500               0.000000000               0.000000000              -0.362375000               0.000000000               0.000000000              -0.385312500               0.000000000               0.000000000              -0.408250000               0.000000000               0.000000000              -0.431187500               0.000000000               0.000000000              -0.454125000               0.000000000               0.000000000              -0.477062500               0.000000000               0.000000000              -0.500000000               0.000000000              -0.133000000               0.000000000               0.000000000              -0.155937500               0.000000000               0.000000000              -0.178875000               0.000000000               0.000000000              -0.201812500               0.000000000               0.000000000              -0.224750000               0.000000000               0.000000000              -0.247687500               0.000000000               0.000000000              -0.270625000               0.000000000               0.000000000              -0.293562500               0.000000000               0.000000000              -0.316500000               0.000000000               0.000000000              -0.339437500               0.000000000               0.000000000              -0.362375000               0.000000000               0.000000000              -0.385312500               0.000000000               0.000000000              -0.408250000               0.000000000               0.000000000              -0.431187500               0.000000000               0.000000000              -0.454125000               0.000000000               0.000000000              -0.477062500               0.000000000               0.000000000              -0.500000000               0.000000000               0.000000000              -0.132359569              -0.013036280               0.000000000              -0.155337096              -0.016127762               0.000000000              -0.178314623              -0.019219245               0.000000000              -0.201292150              -0.022310727               0.000000000              -0.224269676              -0.025402210               0.000000000              -0.247247203              -0.028493692               0.000000000              -0.270224730              -0.031585175               0.000000000              -0.293202257              -0.034676657               0.000000000              -0.316179784              -0.037768140               0.000000000              -0.339157311              -0.040859622               0.000000000              -0.362134838              -0.043951105               0.000000000              -0.385112365              -0.047042587               0.000000000              -0.408089892              -0.050134070               0.000000000              -0.431067419              -0.053225552               0.000000000              -0.454044946              -0.056317035               0.000000000              -0.477022473              -0.059408517               0.000000000              -0.500000000              -0.062500000               0.000000000              -0.130444442              -0.025947013               0.000000000              -0.153541665              -0.032137825               0.000000000              -0.176638887              -0.038328636               0.000000000              -0.199736109              -0.044519448               0.000000000              -0.222833332              -0.050710260               0.000000000              -0.245930554              -0.056901071               0.000000000              -0.269027776              -0.063091883               0.000000000              -0.292124999              -0.069282695               0.000000000              -0.315222221              -0.075473506               0.000000000              -0.338319444              -0.081664318               0.000000000              -0.361416666              -0.087855130               0.000000000              -0.384513888              -0.094045942               0.000000000              -0.407611111              -0.100236753               0.000000000              -0.430708333              -0.106427565               0.000000000              -0.453805555              -0.112618377               0.000000000              -0.476902778              -0.118809188               0.000000000              -0.500000000              -0.125000000               0.000000000              -0.127273065              -0.038607862               0.000000000              -0.150568498              -0.047913621               0.000000000              -0.173863932              -0.057219379               0.000000000              -0.197159365              -0.066525138               0.000000000              -0.220454798              -0.075830897               0.000000000              -0.243750232              -0.085136655               0.000000000              -0.267045665              -0.094442414               0.000000000              -0.290341099              -0.103748172               0.000000000              -0.313636532              -0.113053931               0.000000000              -0.336931966              -0.122359690               0.000000000              -0.360227399              -0.131665448               0.000000000              -0.383522833              -0.140971207               0.000000000              -0.406818266              -0.150276966               0.000000000              -0.430113700              -0.159582724               0.000000000              -0.453409133              -0.168888483               0.000000000              -0.476704567              -0.178194241               0.000000000              -0.500000000              -0.187500000               0.000000000              -0.122875978              -0.050896897               0.000000000              -0.146446229              -0.063340840               0.000000000              -0.170016481              -0.075784784               0.000000000              -0.193586732              -0.088228728               0.000000000              -0.217156983              -0.100672672               0.000000000              -0.240727235              -0.113116616               0.000000000              -0.264297486              -0.125560560               0.000000000              -0.287867738              -0.138004504               0.000000000              -0.311437989              -0.150448448               0.000000000              -0.335008240              -0.162892392               0.000000000              -0.358578492              -0.175336336               0.000000000              -0.382148743              -0.187780280               0.000000000              -0.405718994              -0.200224224               0.000000000              -0.429289246              -0.212668168               0.000000000              -0.452859497              -0.225112112               0.000000000              -0.476429749              -0.237556056               0.000000000              -0.500000000              -0.250000000               0.000000000              -0.117295528              -0.062695766               0.000000000              -0.141214558              -0.078308531               0.000000000              -0.165133587              -0.093921295               0.000000000              -0.189052617              -0.109534060               0.000000000              -0.212971646              -0.125146824               0.000000000              -0.236890676              -0.140759589               0.000000000              -0.260809705              -0.156372354               0.000000000              -0.284728735              -0.171985118               0.000000000              -0.308647764              -0.187597883               0.000000000              -0.332566794              -0.203210648               0.000000000              -0.356485823              -0.218823412               0.000000000              -0.380404853              -0.234436177               0.000000000              -0.404323882              -0.250048941               0.000000000              -0.428242912              -0.265661706               0.000000000              -0.452161941              -0.281274471               0.000000000              -0.476080971              -0.296887235               0.000000000              -0.500000000              -0.312500000               0.000000000              -0.110585458              -0.073890841               0.000000000              -0.134923867              -0.092710163               0.000000000              -0.159262276              -0.111529486               0.000000000              -0.183600685              -0.130348808               0.000000000              -0.207939094              -0.149168131               0.000000000              -0.232277503              -0.167987453               0.000000000              -0.256615912              -0.186806776               0.000000000              -0.280954320              -0.205626098               0.000000000              -0.305292729              -0.224445420               0.000000000              -0.329631138              -0.243264743               0.000000000              -0.353969547              -0.262084065               0.000000000              -0.378307956              -0.280903388               0.000000000              -0.402646365              -0.299722710               0.000000000              -0.426984773              -0.318542033               0.000000000              -0.451323182              -0.337361355               0.000000000              -0.475661591              -0.356180678               0.000000000              -0.500000000              -0.375000000               0.000000000              -0.102810390              -0.084374307               0.000000000              -0.127634741              -0.106444663               0.000000000              -0.152459092              -0.128515018               0.000000000              -0.177283442              -0.150585374               0.000000000              -0.202107793              -0.172655730               0.000000000              -0.226932143              -0.194726086               0.000000000              -0.251756494              -0.216796442               0.000000000              -0.276580845              -0.238866798               0.000000000              -0.301405195              -0.260937153               0.000000000              -0.326229546              -0.283007509               0.000000000              -0.351053896              -0.305077865               0.000000000              -0.375878247              -0.327148221               0.000000000              -0.400702598              -0.349218577               0.000000000              -0.425526948              -0.371288933               0.000000000              -0.450351299              -0.393359288               0.000000000              -0.475175649              -0.415429644               0.000000000              -0.500000000              -0.437500000               0.000000000              -0.094045202              -0.094045202               0.000000000              -0.119417377              -0.119417377               0.000000000              -0.144789552              -0.144789552               0.000000000              -0.170161727              -0.170161727               0.000000000              -0.195533901              -0.195533901               0.000000000              -0.220906076              -0.220906076               0.000000000              -0.246278251              -0.246278251               0.000000000              -0.271650426              -0.271650426               0.000000000              -0.297022601              -0.297022601               0.000000000              -0.322394776              -0.322394776               0.000000000              -0.347766951              -0.347766951               0.000000000              -0.373139126              -0.373139126               0.000000000              -0.398511300              -0.398511300               0.000000000              -0.423883475              -0.423883475               0.000000000              -0.449255650              -0.449255650               0.000000000              -0.474627825              -0.474627825               0.000000000              -0.500000000              -0.500000000               0.000000000              -0.084374307              -0.102810390               0.000000000              -0.106444663              -0.127634741               0.000000000              -0.128515018              -0.152459092               0.000000000              -0.150585374              -0.177283442               0.000000000              -0.172655730              -0.202107793               0.000000000              -0.194726086              -0.226932143               0.000000000              -0.216796442              -0.251756494               0.000000000              -0.238866798              -0.276580845               0.000000000              -0.260937153              -0.301405195               0.000000000              -0.283007509              -0.326229546               0.000000000              -0.305077865              -0.351053896               0.000000000              -0.327148221              -0.375878247               0.000000000              -0.349218577              -0.400702598               0.000000000              -0.371288933              -0.425526948               0.000000000              -0.393359288              -0.450351299               0.000000000              -0.415429644              -0.475175649               0.000000000              -0.437500000              -0.500000000               0.000000000              -0.073890841              -0.110585458               0.000000000              -0.092710163              -0.134923867               0.000000000              -0.111529486              -0.159262276               0.000000000              -0.130348808              -0.183600685               0.000000000              -0.149168131              -0.207939094               0.000000000              -0.167987453              -0.232277503               0.000000000              -0.186806776              -0.256615912               0.000000000              -0.205626098              -0.280954320               0.000000000              -0.224445420              -0.305292729               0.000000000              -0.243264743              -0.329631138               0.000000000              -0.262084065              -0.353969547               0.000000000              -0.280903388              -0.378307956               0.000000000              -0.299722710              -0.402646365               0.000000000              -0.318542033              -0.426984773               0.000000000              -0.337361355              -0.451323182               0.000000000              -0.356180678              -0.475661591               0.000000000              -0.375000000              -0.500000000               0.000000000              -0.062695766              -0.117295528               0.000000000              -0.078308531              -0.141214558               0.000000000              -0.093921295              -0.165133587               0.000000000              -0.109534060              -0.189052617               0.000000000              -0.125146824              -0.212971646               0.000000000              -0.140759589              -0.236890676               0.000000000              -0.156372354              -0.260809705               0.000000000              -0.171985118              -0.284728735               0.000000000              -0.187597883              -0.308647764               0.000000000              -0.203210648              -0.332566794               0.000000000              -0.218823412              -0.356485823               0.000000000              -0.234436177              -0.380404853               0.000000000              -0.250048941              -0.404323882               0.000000000              -0.265661706              -0.428242912               0.000000000              -0.281274471              -0.452161941               0.000000000              -0.296887235              -0.476080971               0.000000000              -0.312500000              -0.500000000               0.000000000              -0.050896897              -0.122875978               0.000000000              -0.063340840              -0.146446229               0.000000000              -0.075784784              -0.170016481               0.000000000              -0.088228728              -0.193586732               0.000000000              -0.100672672              -0.217156983               0.000000000              -0.113116616              -0.240727235               0.000000000              -0.125560560              -0.264297486               0.000000000              -0.138004504              -0.287867738               0.000000000              -0.150448448              -0.311437989               0.000000000              -0.162892392              -0.335008240               0.000000000              -0.175336336              -0.358578492               0.000000000              -0.187780280              -0.382148743               0.000000000              -0.200224224              -0.405718994               0.000000000              -0.212668168              -0.429289246               0.000000000              -0.225112112              -0.452859497               0.000000000              -0.237556056              -0.476429749               0.000000000              -0.250000000              -0.500000000               0.000000000              -0.038607862              -0.127273065               0.000000000              -0.047913621              -0.150568498               0.000000000              -0.057219379              -0.173863932               0.000000000              -0.066525138              -0.197159365               0.000000000              -0.075830897              -0.220454798               0.000000000              -0.085136655              -0.243750232               0.000000000              -0.094442414              -0.267045665               0.000000000              -0.103748172              -0.290341099               0.000000000              -0.113053931              -0.313636532               0.000000000              -0.122359690              -0.336931966               0.000000000              -0.131665448              -0.360227399               0.000000000              -0.140971207              -0.383522833               0.000000000              -0.150276966              -0.406818266               0.000000000              -0.159582724              -0.430113700               0.000000000              -0.168888483              -0.453409133               0.000000000              -0.178194241              -0.476704567               0.000000000              -0.187500000              -0.500000000               0.000000000              -0.025947013              -0.130444442               0.000000000              -0.032137825              -0.153541665               0.000000000              -0.038328636              -0.176638887               0.000000000              -0.044519448              -0.199736109               0.000000000              -0.050710260              -0.222833332               0.000000000              -0.056901071              -0.245930554               0.000000000              -0.063091883              -0.269027776               0.000000000              -0.069282695              -0.292124999               0.000000000              -0.075473506              -0.315222221               0.000000000              -0.081664318              -0.338319444               0.000000000              -0.087855130              -0.361416666               0.000000000              -0.094045942              -0.384513888               0.000000000              -0.100236753              -0.407611111               0.000000000              -0.106427565              -0.430708333               0.000000000              -0.112618377              -0.453805555               0.000000000              -0.118809188              -0.476902778               0.000000000              -0.125000000              -0.500000000               0.000000000              -0.013036280              -0.132359569               0.000000000              -0.016127762              -0.155337096               0.000000000              -0.019219245              -0.178314623               0.000000000              -0.022310727              -0.201292150               0.000000000              -0.025402210              -0.224269676               0.000000000              -0.028493692              -0.247247203               0.000000000              -0.031585175              -0.270224730               0.000000000              -0.034676657              -0.293202257               0.000000000              -0.037768140              -0.316179784               0.000000000              -0.040859622              -0.339157311               0.000000000              -0.043951105              -0.362134838               0.000000000              -0.047042587              -0.385112365               0.000000000              -0.050134070              -0.408089892               0.000000000              -0.053225552              -0.431067419               0.000000000              -0.056317035              -0.454044946               0.000000000              -0.059408517              -0.477022473               0.000000000              -0.062500000              -0.500000000               0.000000000               0.000000000              -0.133000000               0.000000000               0.000000000              -0.155937500               0.000000000               0.000000000              -0.178875000               0.000000000               0.000000000              -0.201812500               0.000000000               0.000000000              -0.224750000               0.000000000               0.000000000              -0.247687500               0.000000000               0.000000000              -0.270625000               0.000000000               0.000000000              -0.293562500               0.000000000               0.000000000              -0.316500000               0.000000000               0.000000000              -0.339437500               0.000000000               0.000000000              -0.362375000               0.000000000               0.000000000              -0.385312500               0.000000000               0.000000000              -0.408250000               0.000000000               0.000000000              -0.431187500               0.000000000               0.000000000              -0.454125000               0.000000000               0.000000000              -0.477062500               0.000000000               0.000000000              -0.500000000               0.000000000              -0.133000000               0.000000000               0.000000000              -0.155937500               0.000000000               0.000000000              -0.178875000               0.000000000               0.000000000              -0.201812500               0.000000000               0.000000000              -0.224750000               0.000000000               0.000000000              -0.247687500               0.000000000               0.000000000              -0.270625000               0.000000000               0.000000000              -0.293562500               0.000000000               0.000000000              -0.316500000               0.000000000               0.000000000              -0.339437500               0.000000000               0.000000000              -0.362375000               0.000000000               0.000000000              -0.385312500               0.000000000               0.000000000              -0.408250000               0.000000000               0.000000000              -0.431187500               0.000000000               0.000000000              -0.454125000               0.000000000               0.000000000              -0.477062500               0.000000000               0.000000000              -0.500000000               0.000000000               0.000000000              -0.132359569               0.013036280               0.000000000              -0.155337096               0.016127762               0.000000000              -0.178314623               0.019219245               0.000000000              -0.201292150               0.022310727               0.000000000              -0.224269676               0.025402210               0.000000000              -0.247247203               0.028493692               0.000000000              -0.270224730               0.031585175               0.000000000              -0.293202257               0.034676657               0.000000000              -0.316179784               0.037768140               0.000000000              -0.339157311               0.040859622               0.000000000              -0.362134838               0.043951105               0.000000000              -0.385112365               0.047042587               0.000000000              -0.408089892               0.050134070               0.000000000              -0.431067419               0.053225552               0.000000000              -0.454044946               0.056317035               0.000000000              -0.477022473               0.059408517               0.000000000              -0.500000000               0.062500000               0.000000000              -0.130444442               0.025947013               0.000000000              -0.153541665               0.032137825               0.000000000              -0.176638887               0.038328636               0.000000000              -0.199736109               0.044519448               0.000000000              -0.222833332               0.050710260               0.000000000              -0.245930554               0.056901071               0.000000000              -0.269027776               0.063091883               0.000000000              -0.292124999               0.069282695               0.000000000              -0.315222221               0.075473506               0.000000000              -0.338319444               0.081664318               0.000000000              -0.361416666               0.087855130               0.000000000              -0.384513888               0.094045942               0.000000000              -0.407611111               0.100236753               0.000000000              -0.430708333               0.106427565               0.000000000              -0.453805555               0.112618377               0.000000000              -0.476902778               0.118809188               0.000000000              -0.500000000               0.125000000               0.000000000              -0.127273065               0.038607862               0.000000000              -0.150568498               0.047913621               0.000000000              -0.173863932               0.057219379               0.000000000              -0.197159365               0.066525138               0.000000000              -0.220454798               0.075830897               0.000000000              -0.243750232               0.085136655               0.000000000              -0.267045665               0.094442414               0.000000000              -0.290341099               0.103748172               0.000000000              -0.313636532               0.113053931               0.000000000              -0.336931966               0.122359690               0.000000000              -0.360227399               0.131665448               0.000000000              -0.383522833               0.140971207               0.000000000              -0.406818266               0.150276966               0.000000000              -0.430113700               0.159582724               0.000000000              -0.453409133               0.168888483               0.000000000              -0.476704567               0.178194241               0.000000000              -0.500000000               0.187500000               0.000000000              -0.122875978               0.050896897               0.000000000              -0.146446229               0.063340840               0.000000000              -0.170016481               0.075784784               0.000000000              -0.193586732               0.088228728               0.000000000              -0.217156983               0.100672672               0.000000000              -0.240727235               0.113116616               0.000000000              -0.264297486               0.125560560               0.000000000              -0.287867738               0.138004504               0.000000000              -0.311437989               0.150448448               0.000000000              -0.335008240               0.162892392               0.000000000              -0.358578492               0.175336336               0.000000000              -0.382148743               0.187780280               0.000000000              -0.405718994               0.200224224               0.000000000              -0.429289246               0.212668168               0.000000000              -0.452859497               0.225112112               0.000000000              -0.476429749               0.237556056               0.000000000              -0.500000000               0.250000000               0.000000000              -0.117295528               0.062695766               0.000000000              -0.141214558               0.078308531               0.000000000              -0.165133587               0.093921295               0.000000000              -0.189052617               0.109534060               0.000000000              -0.212971646               0.125146824               0.000000000              -0.236890676               0.140759589               0.000000000              -0.260809705               0.156372354               0.000000000              -0.284728735               0.171985118               0.000000000              -0.308647764               0.187597883               0.000000000              -0.332566794               0.203210648               0.000000000              -0.356485823               0.218823412               0.000000000              -0.380404853               0.234436177               0.000000000              -0.404323882               0.250048941               0.000000000              -0.428242912               0.265661706               0.000000000              -0.452161941               0.281274471               0.000000000              -0.476080971               0.296887235               0.000000000              -0.500000000               0.312500000               0.000000000              -0.110585458               0.073890841               0.000000000              -0.134923867               0.092710163               0.000000000              -0.159262276               0.111529486               0.000000000              -0.183600685               0.130348808               0.000000000              -0.207939094               0.149168131               0.000000000              -0.232277503               0.167987453               0.000000000              -0.256615912               0.186806776               0.000000000              -0.280954320               0.205626098               0.000000000              -0.305292729               0.224445420               0.000000000              -0.329631138               0.243264743               0.000000000              -0.353969547               0.262084065               0.000000000              -0.378307956               0.280903388               0.000000000              -0.402646365               0.299722710               0.000000000              -0.426984773               0.318542033               0.000000000              -0.451323182               0.337361355               0.000000000              -0.475661591               0.356180678               0.000000000              -0.500000000               0.375000000               0.000000000              -0.102810390               0.084374307               0.000000000              -0.127634741               0.106444663               0.000000000              -0.152459092               0.128515018               0.000000000              -0.177283442               0.150585374               0.000000000              -0.202107793               0.172655730               0.000000000              -0.226932143               0.194726086               0.000000000              -0.251756494               0.216796442               0.000000000              -0.276580845               0.238866798               0.000000000              -0.301405195               0.260937153               0.000000000              -0.326229546               0.283007509               0.000000000              -0.351053896               0.305077865               0.000000000              -0.375878247               0.327148221               0.000000000              -0.400702598               0.349218577               0.000000000              -0.425526948               0.371288933               0.000000000              -0.450351299               0.393359288               0.000000000              -0.475175649               0.415429644               0.000000000              -0.500000000               0.437500000               0.000000000              -0.094045202               0.094045202               0.000000000              -0.119417377               0.119417377               0.000000000              -0.144789552               0.144789552               0.000000000              -0.170161727               0.170161727               0.000000000              -0.195533901               0.195533901               0.000000000              -0.220906076               0.220906076               0.000000000              -0.246278251               0.246278251               0.000000000              -0.271650426               0.271650426               0.000000000              -0.297022601               0.297022601               0.000000000              -0.322394776               0.322394776               0.000000000              -0.347766951               0.347766951               0.000000000              -0.373139126               0.373139126               0.000000000              -0.398511300               0.398511300               0.000000000              -0.423883475               0.423883475               0.000000000              -0.449255650               0.449255650               0.000000000              -0.474627825               0.474627825               0.000000000              -0.500000000               0.500000000               0.000000000              -0.084374307               0.102810390               0.000000000              -0.106444663               0.127634741               0.000000000              -0.128515018               0.152459092               0.000000000              -0.150585374               0.177283442               0.000000000              -0.172655730               0.202107793               0.000000000              -0.194726086               0.226932143               0.000000000              -0.216796442               0.251756494               0.000000000              -0.238866798               0.276580845               0.000000000              -0.260937153               0.301405195               0.000000000              -0.283007509               0.326229546               0.000000000              -0.305077865               0.351053896               0.000000000              -0.327148221               0.375878247               0.000000000              -0.349218577               0.400702598               0.000000000              -0.371288933               0.425526948               0.000000000              -0.393359288               0.450351299               0.000000000              -0.415429644               0.475175649               0.000000000              -0.437500000               0.500000000               0.000000000              -0.073890841               0.110585458               0.000000000              -0.092710163               0.134923867               0.000000000              -0.111529486               0.159262276               0.000000000              -0.130348808               0.183600685               0.000000000              -0.149168131               0.207939094               0.000000000              -0.167987453               0.232277503               0.000000000              -0.186806776               0.256615912               0.000000000              -0.205626098               0.280954320               0.000000000              -0.224445420               0.305292729               0.000000000              -0.243264743               0.329631138               0.000000000              -0.262084065               0.353969547               0.000000000              -0.280903388               0.378307956               0.000000000              -0.299722710               0.402646365               0.000000000              -0.318542033               0.426984773               0.000000000              -0.337361355               0.451323182               0.000000000              -0.356180678               0.475661591               0.000000000              -0.375000000               0.500000000               0.000000000              -0.062695766               0.117295528               0.000000000              -0.078308531               0.141214558               0.000000000              -0.093921295               0.165133587               0.000000000              -0.109534060               0.189052617               0.000000000              -0.125146824               0.212971646               0.000000000              -0.140759589               0.236890676               0.000000000              -0.156372354               0.260809705               0.000000000              -0.171985118               0.284728735               0.000000000              -0.187597883               0.308647764               0.000000000              -0.203210648               0.332566794               0.000000000              -0.218823412               0.356485823               0.000000000              -0.234436177               0.380404853               0.000000000              -0.250048941               0.404323882               0.000000000              -0.265661706               0.428242912               0.000000000              -0.281274471               0.452161941               0.000000000              -0.296887235               0.476080971               0.000000000              -0.312500000               0.500000000               0.000000000              -0.050896897               0.122875978               0.000000000              -0.063340840               0.146446229               0.000000000              -0.075784784               0.170016481               0.000000000              -0.088228728               0.193586732               0.000000000              -0.100672672               0.217156983               0.000000000              -0.113116616               0.240727235               0.000000000              -0.125560560               0.264297486               0.000000000              -0.138004504               0.287867738               0.000000000              -0.150448448               0.311437989               0.000000000              -0.162892392               0.335008240               0.000000000              -0.175336336               0.358578492               0.000000000              -0.187780280               0.382148743               0.000000000              -0.200224224               0.405718994               0.000000000              -0.212668168               0.429289246               0.000000000              -0.225112112               0.452859497               0.000000000              -0.237556056               0.476429749               0.000000000              -0.250000000               0.500000000               0.000000000              -0.038607862               0.127273065               0.000000000              -0.047913621               0.150568498               0.000000000              -0.057219379               0.173863932               0.000000000              -0.066525138               0.197159365               0.000000000              -0.075830897               0.220454798               0.000000000              -0.085136655               0.243750232               0.000000000              -0.094442414               0.267045665               0.000000000              -0.103748172               0.290341099               0.000000000              -0.113053931               0.313636532               0.000000000              -0.122359690               0.336931966               0.000000000              -0.131665448               0.360227399               0.000000000              -0.140971207               0.383522833               0.000000000              -0.150276966               0.406818266               0.000000000              -0.159582724               0.430113700               0.000000000              -0.168888483               0.453409133               0.000000000              -0.178194241               0.476704567               0.000000000              -0.187500000               0.500000000               0.000000000              -0.025947013               0.130444442               0.000000000              -0.032137825               0.153541665               0.000000000              -0.038328636               0.176638887               0.000000000              -0.044519448               0.199736109               0.000000000              -0.050710260               0.222833332               0.000000000              -0.056901071               0.245930554               0.000000000              -0.063091883               0.269027776               0.000000000              -0.069282695               0.292124999               0.000000000              -0.075473506               0.315222221               0.000000000              -0.081664318               0.338319444               0.000000000              -0.087855130               0.361416666               0.000000000              -0.094045942               0.384513888               0.000000000              -0.100236753               0.407611111               0.000000000              -0.106427565               0.430708333               0.000000000              -0.112618377               0.453805555               0.000000000              -0.118809188               0.476902778               0.000000000              -0.125000000               0.500000000               0.000000000              -0.013036280               0.132359569               0.000000000              -0.016127762               0.155337096               0.000000000              -0.019219245               0.178314623               0.000000000              -0.022310727               0.201292150               0.000000000              -0.025402210               0.224269676               0.000000000              -0.028493692               0.247247203               0.000000000              -0.031585175               0.270224730               0.000000000              -0.034676657               0.293202257               0.000000000              -0.037768140               0.316179784               0.000000000              -0.040859622               0.339157311               0.000000000              -0.043951105               0.362134838               0.000000000              -0.047042587               0.385112365               0.000000000              -0.050134070               0.408089892               0.000000000              -0.053225552               0.431067419               0.000000000              -0.056317035               0.454044946               0.000000000              -0.059408517               0.477022473               0.000000000              -0.062500000               0.500000000               0.000000000               0.000000000               0.133000000               0.000000000               0.000000000               0.155937500               0.000000000               0.000000000               0.178875000               0.000000000               0.000000000               0.201812500               0.000000000               0.000000000               0.224750000               0.000000000               0.000000000               0.247687500               0.000000000               0.000000000               0.270625000               0.000000000               0.000000000               0.293562500               0.000000000               0.000000000               0.316500000               0.000000000               0.000000000               0.339437500               0.000000000               0.000000000               0.362375000               0.000000000               0.000000000               0.385312500               0.000000000               0.000000000               0.408250000               0.000000000               0.000000000               0.431187500               0.000000000               0.000000000               0.454125000               0.000000000               0.000000000               0.477062500               0.000000000               0.000000000               0.500000000               0.000000000 </DataArray>
</Points>
<Cells>
<DataArray type="Int32"                                    Name="connectivity"                                                      NumberOfComponents=" 1" format="ascii">
         0          1         18         17          1          2         19         18          2          3         20         19          3          4         21         20          4          5         22         21          5          6         23         22          6          7         24         23          7          8         25         24          8          9         26         25          9         10         27         26         10         11         28         27         11         12         29         28         12         13         30         29         13         14         31         30         14         15         32         31         15         16         33         32         17         18         35         34         18         19         36         35         19         20         37         36         20         21         38         37         21         22         39         38         22         23         40         39         23         24         41         40         24         25         42         41         25         26         43         42         26         27         44         43         27         28         45         44         28         29         46         45         29         30         47         46         30         31         48         47         31         32         49         48         32         33         50         49         34         35         52         51         35         36         53         52         36         37         54         53         37         38         55         54         38         39         56         55         39         40         57         56         40         41         58         57         41         42         59         58         42         43         60         59         43         44         61         60         44         45         62         61         45         46         63         62         46         47         64         63         47         48         65         64         48         49         66         65         49         50         67         66         51         52         69         68         52         53         70         69         53         54         71         70         54         55         72         71         55         56         73         72         56         57         74         73         57         58         75         74         58         59         76         75         59         60         77         76         60         61         78         77         61         62         79         78         62         63         80         79         63         64         81         80         64         65         82         81         65         66         83         82         66         67         84         83         68         69         86         85         69         70         87         86         70         71         88         87         71         72         89         88         72         73         90         89         73         74         91         90         74         75         92         91         75         76         93         92         76         77         94         93         77         78         95         94         78         79         96         95         79         80         97         96         80         81         98         97         81         82         99         98         82         83        100         99         83         84        101        100         85         86        103        102         86         87        104        103         87         88        105        104         88         89        106        105         89         90        107        106         90         91        108        107         91         92        109        108         92         93        110        109         93         94        111        110         94         95        112        111         95         96        113        112         96         97        114        113         97         98        115        114         98         99        116        115         99        100        117        116        100        101        118        117        102        103        120        119        103        104        121        120        104        105        122        121        105        106        123        122        106        107        124        123        107        108        125        124        108        109        126        125        109        110        127        126        110        111        128        127        111        112        129        128        112        113        130        129        113        114        131        130        114        115        132        131        115        116        133        132        116        117        134        133        117        118        135        134        119        120        137        136        120        121        138        137        121        122        139        138        122        123        140        139        123        124        141        140        124        125        142        141        125        126        143        142        126        127        144        143        127        128        145        144        128        129        146        145        129        130        147        146        130        131        148        147        131        132        149        148        132        133        150        149        133        134        151        150        134        135        152        151        136        137        154        153        137        138        155        154        138        139        156        155        139        140        157        156        140        141        158        157        141        142        159        158        142        143        160        159        143        144        161        160        144        145        162        161        145        146        163        162        146        147        164        163        147        148        165        164        148        149        166        165        149        150        167        166        150        151        168        167        151        152        169        168        153        154        171        170        154        155        172        171        155        156        173        172        156        157        174        173        157        158        175        174        158        159        176        175        159        160        177        176        160        161        178        177        161        162        179        178        162        163        180        179        163        164        181        180        164        165        182        181        165        166        183        182        166        167        184        183        167        168        185        184        168        169        186        185        170        171        188        187        171        172        189        188        172        173        190        189        173        174        191        190        174        175        192        191        175        176        193        192        176        177        194        193        177        178        195        194        178        179        196        195        179        180        197        196        180        181        198        197        181        182        199        198        182        183        200        199        183        184        201        200        184        185        202        201        185        186        203        202        187        188        205        204        188        189        206        205        189        190        207        206        190        191        208        207        191        192        209        208        192        193        210        209        193        194        211        210        194        195        212        211        195        196        213        212        196        197        214        213        197        198        215        214        198        199        216        215        199        200        217        216        200        201        218        217        201        202        219        218        202        203        220        219        204        205        222        221        205        206        223        222        206        207        224        223        207        208        225        224        208        209        226        225        209        210        227        226        210        211        228        227        211        212        229        228        212        213        230        229        213        214        231        230        214        215        232        231        215        216        233        232        216        217        234        233        217        218        235        234        218        219        236        235        219        220        237        236        221        222        239        238        222        223        240        239        223        224        241        240        224        225        242        241        225        226        243        242        226        227        244        243        227        228        245        244        228        229        246        245        229        230        247        246        230        231        248        247        231        232        249        248        232        233        250        249        233        234        251        250        234        235        252        251        235        236        253        252        236        237        254        253        238        239        256        255        239        240        257        256        240        241        258        257        241        242        259        258        242        243        260        259        243        244        261        260        244        245        262        261        245        246        263        262        246        247        264        263        247        248        265        264        248        249        266        265        249        250        267        266        250        251        268        267        251        252        269        268        252        253        270        269        253        254        271        270        255        256        273        272        256        257        274        273        257        258        275        274        258        259        276        275        259        260        277        276        260        261        278        277        261        262        279        278        262        263        280        279        263        264        281        280        264        265        282        281        265        266        283        282        266        267        284        283        267        268        285        284        268        269        286        285        269        270        287        286        270        271        288        287        306        307          1          0        307        308          2          1        308        309          3          2        309        310          4          3        310        311          5          4        311        312          6          5        312        313          7          6        313        314          8          7        314        315          9          8        315        316         10          9        316        317         11         10        317        318         12         11        318        319         13         12        319        320         14         13        320        321         15         14        321        322         16         15        323        324        307        306        324        325        308        307        325        326        309        308        326        327        310        309        327        328        311        310        328        329        312        311        329        330        313        312        330        331        314        313        331        332        315        314        332        333        316        315        333        334        317        316        334        335        318        317        335        336        319        318        336        337        320        319        337        338        321        320        338        339        322        321        340        341        324        323        341        342        325        324        342        343        326        325        343        344        327        326        344        345        328        327        345        346        329        328        346        347        330        329        347        348        331        330        348        349        332        331        349        350        333        332        350        351        334        333        351        352        335        334        352        353        336        335        353        354        337        336        354        355        338        337        355        356        339        338        357        358        341        340        358        359        342        341        359        360        343        342        360        361        344        343        361        362        345        344        362        363        346        345        363        364        347        346        364        365        348        347        365        366        349        348        366        367        350        349        367        368        351        350        368        369        352        351        369        370        353        352        370        371        354        353        371        372        355        354        372        373        356        355        374        375        358        357        375        376        359        358        376        377        360        359        377        378        361        360        378        379        362        361        379        380        363        362        380        381        364        363        381        382        365        364        382        383        366        365        383        384        367        366        384        385        368        367        385        386        369        368        386        387        370        369        387        388        371        370        388        389        372        371        389        390        373        372        391        392        375        374        392        393        376        375        393        394        377        376        394        395        378        377        395        396        379        378        396        397        380        379        397        398        381        380        398        399        382        381        399        400        383        382        400        401        384        383        401        402        385        384        402        403        386        385        403        404        387        386        404        405        388        387        405        406        389        388        406        407        390        389        408        409        392        391        409        410        393        392        410        411        394        393        411        412        395        394        412        413        396        395        413        414        397        396        414        415        398        397        415        416        399        398        416        417        400        399        417        418        401        400        418        419        402        401        419        420        403        402        420        421        404        403        421        422        405        404        422        423        406        405        423        424        407        406        425        426        409        408        426        427        410        409        427        428        411        410        428        429        412        411        429        430        413        412        430        431        414        413        431        432        415        414        432        433        416        415        433        434        417        416        434        435        418        417        435        436        419        418        436        437        420        419        437        438        421        420        438        439        422        421        439        440        423        422        440        441        424        423        442        443        426        425        443        444        427        426        444        445        428        427        445        446        429        428        446        447        430        429        447        448        431        430        448        449        432        431        449        450        433        432        450        451        434        433        451        452        435        434        452        453        436        435        453        454        437        436        454        455        438        437        455        456        439        438        456        457        440        439        457        458        441        440        459        460        443        442        460        461        444        443        461        462        445        444        462        463        446        445        463        464        447        446        464        465        448        447        465        466        449        448        466        467        450        449        467        468        451        450        468        469        452        451        469        470        453        452        470        471        454        453        471        472        455        454        472        473        456        455        473        474        457        456        474        475        458        457        476        477        460        459        477        478        461        460        478        479        462        461        479        480        463        462        480        481        464        463        481        482        465        464        482        483        466        465        483        484        467        466        484        485        468        467        485        486        469        468        486        487        470        469        487        488        471        470        488        489        472        471        489        490        473        472        490        491        474        473        491        492        475        474        493        494        477        476        494        495        478        477        495        496        479        478        496        497        480        479        497        498        481        480        498        499        482        481        499        500        483        482        500        501        484        483        501        502        485        484        502        503        486        485        503        504        487        486        504        505        488        487        505        506        489        488        506        507        490        489        507        508        491        490        508        509        492        491        510        511        494        493        511        512        495        494        512        513        496        495        513        514        497        496        514        515        498        497        515        516        499        498        516        517        500        499        517        518        501        500        518        519        502        501        519        520        503        502        520        521        504        503        521        522        505        504        522        523        506        505        523        524        507        506        524        525        508        507        525        526        509        508        527        528        511        510        528        529        512        511        529        530        513        512        530        531        514        513        531        532        515        514        532        533        516        515        533        534        517        516        534        535        518        517        535        536        519        518        536        537        520        519        537        538        521        520        538        539        522        521        539        540        523        522        540        541        524        523        541        542        525        524        542        543        526        525        544        545        528        527        545        546        529        528        546        547        530        529        547        548        531        530        548        549        532        531        549        550        533        532        550        551        534        533        551        552        535        534        552        553        536        535        553        554        537        536        554        555        538        537        555        556        539        538        556        557        540        539        557        558        541        540        558        559        542        541        559        560        543        542        561        562        545        544        562        563        546        545        563        564        547        546        564        565        548        547        565        566        549        548        566        567        550        549        567        568        551        550        568        569        552        551        569        570        553        552        570        571        554        553        571        572        555        554        572        573        556        555        573        574        557        556        574        575        558        557        575        576        559        558        576        577        560        559        578        579        596        595        579        580        597        596        580        581        598        597        581        582        599        598        582        583        600        599        583        584        601        600        584        585        602        601        585        586        603        602        586        587        604        603        587        588        605        604        588        589        606        605        589        590        607        606        590        591        608        607        591        592        609        608        592        593        610        609        593        594        611        610        595        596        613        612        596        597        614        613        597        598        615        614        598        599        616        615        599        600        617        616        600        601        618        617        601        602        619        618        602        603        620        619        603        604        621        620        604        605        622        621        605        606        623        622        606        607        624        623        607        608        625        624        608        609        626        625        609        610        627        626        610        611        628        627        612        613        630        629        613        614        631        630        614        615        632        631        615        616        633        632        616        617        634        633        617        618        635        634        618        619        636        635        619        620        637        636        620        621        638        637        621        622        639        638        622        623        640        639        623        624        641        640        624        625        642        641        625        626        643        642        626        627        644        643        627        628        645        644        629        630        647        646        630        631        648        647        631        632        649        648        632        633        650        649        633        634        651        650        634        635        652        651        635        636        653        652        636        637        654        653        637        638        655        654        638        639        656        655        639        640        657        656        640        641        658        657        641        642        659        658        642        643        660        659        643        644        661        660        644        645        662        661        646        647        664        663        647        648        665        664        648        649        666        665        649        650        667        666        650        651        668        667        651        652        669        668        652        653        670        669        653        654        671        670        654        655        672        671        655        656        673        672        656        657        674        673        657        658        675        674        658        659        676        675        659        660        677        676        660        661        678        677        661        662        679        678        663        664        681        680        664        665        682        681        665        666        683        682        666        667        684        683        667        668        685        684        668        669        686        685        669        670        687        686        670        671        688        687        671        672        689        688        672        673        690        689        673        674        691        690        674        675        692        691        675        676        693        692        676        677        694        693        677        678        695        694        678        679        696        695        680        681        698        697        681        682        699        698        682        683        700        699        683        684        701        700        684        685        702        701        685        686        703        702        686        687        704        703        687        688        705        704        688        689        706        705        689        690        707        706        690        691        708        707        691        692        709        708        692        693        710        709        693        694        711        710        694        695        712        711        695        696        713        712        697        698        715        714        698        699        716        715        699        700        717        716        700        701        718        717        701        702        719        718        702        703        720        719        703        704        721        720        704        705        722        721        705        706        723        722        706        707        724        723        707        708        725        724        708        709        726        725        709        710        727        726        710        711        728        727        711        712        729        728        712        713        730        729        714        715        732        731        715        716        733        732        716        717        734        733        717        718        735        734        718        719        736        735        719        720        737        736        720        721        738        737        721        722        739        738        722        723        740        739        723        724        741        740        724        725        742        741        725        726        743        742        726        727        744        743        727        728        745        744        728        729        746        745        729        730        747        746        731        732        749        748        732        733        750        749        733        734        751        750        734        735        752        751        735        736        753        752        736        737        754        753        737        738        755        754        738        739        756        755        739        740        757        756        740        741        758        757        741        742        759        758        742        743        760        759        743        744        761        760        744        745        762        761        745        746        763        762        746        747        764        763        748        749        766        765        749        750        767        766        750        751        768        767        751        752        769        768        752        753        770        769        753        754        771        770        754        755        772        771        755        756        773        772        756        757        774        773        757        758        775        774        758        759        776        775        759        760        777        776        760        761        778        777        761        762        779        778        762        763        780        779        763        764        781        780        765        766        783        782        766        767        784        783        767        768        785        784        768        769        786        785        769        770        787        786        770        771        788        787        771        772        789        788        772        773        790        789        773        774        791        790        774        775        792        791        775        776        793        792        776        777        794        793        777        778        795        794        778        779        796        795        779        780        797        796        780        781        798        797        782        783        800        799        783        784        801        800        784        785        802        801        785        786        803        802        786        787        804        803        787        788        805        804        788        789        806        805        789        790        807        806        790        791        808        807        791        792        809        808        792        793        810        809        793        794        811        810        794        795        812        811        795        796        813        812        796        797        814        813        797        798        815        814        799        800        817        816        800        801        818        817        801        802        819        818        802        803        820        819        803        804        821        820        804        805        822        821        805        806        823        822        806        807        824        823        807        808        825        824        808        809        826        825        809        810        827        826        810        811        828        827        811        812        829        828        812        813        830        829        813        814        831        830        814        815        832        831        816        817        834        833        817        818        835        834        818        819        836        835        819        820        837        836        820        821        838        837        821        822        839        838        822        823        840        839        823        824        841        840        824        825        842        841        825        826        843        842        826        827        844        843        827        828        845        844        828        829        846        845        829        830        847        846        830        831        848        847        831        832        849        848        833        834        562        561        834        835        563        562        835        836        564        563        836        837        565        564        837        838        566        565        838        839        567        566        839        840        568        567        840        841        569        568        841        842        570        569        842        843        571        570        843        844        572        571        844        845        573        572        845        846        574        573        846        847        575        574        847        848        576        575        848        849        577        576        884        885        579        578        885        886        580        579        886        887        581        580        887        888        582        581        888        889        583        582        889        890        584        583        890        891        585        584        891        892        586        585        892        893        587        586        893        894        588        587        894        895        589        588        895        896        590        589        896        897        591        590        897        898        592        591        898        899        593        592        899        900        594        593        901        902        885        884        902        903        886        885        903        904        887        886        904        905        888        887        905        906        889        888        906        907        890        889        907        908        891        890        908        909        892        891        909        910        893        892        910        911        894        893        911        912        895        894        912        913        896        895        913        914        897        896        914        915        898        897        915        916        899        898        916        917        900        899        918        919        902        901        919        920        903        902        920        921        904        903        921        922        905        904        922        923        906        905        923        924        907        906        924        925        908        907        925        926        909        908        926        927        910        909        927        928        911        910        928        929        912        911        929        930        913        912        930        931        914        913        931        932        915        914        932        933        916        915        933        934        917        916        935        936        919        918        936        937        920        919        937        938        921        920        938        939        922        921        939        940        923        922        940        941        924        923        941        942        925        924        942        943        926        925        943        944        927        926        944        945        928        927        945        946        929        928        946        947        930        929        947        948        931        930        948        949        932        931        949        950        933        932        950        951        934        933        952        953        936        935        953        954        937        936        954        955        938        937        955        956        939        938        956        957        940        939        957        958        941        940        958        959        942        941        959        960        943        942        960        961        944        943        961        962        945        944        962        963        946        945        963        964        947        946        964        965        948        947        965        966        949        948        966        967        950        949        967        968        951        950        969        970        953        952        970        971        954        953        971        972        955        954        972        973        956        955        973        974        957        956        974        975        958        957        975        976        959        958        976        977        960        959        977        978        961        960        978        979        962        961        979        980        963        962        980        981        964        963        981        982        965        964        982        983        966        965        983        984        967        966        984        985        968        967        986        987        970        969        987        988        971        970        988        989        972        971        989        990        973        972        990        991        974        973        991        992        975        974        992        993        976        975        993        994        977        976        994        995        978        977        995        996        979        978        996        997        980        979        997        998        981        980        998        999        982        981        999       1000        983        982       1000       1001        984        983       1001       1002        985        984       1003       1004        987        986       1004       1005        988        987       1005       1006        989        988       1006       1007        990        989       1007       1008        991        990       1008       1009        992        991       1009       1010        993        992       1010       1011        994        993       1011       1012        995        994       1012       1013        996        995       1013       1014        997        996       1014       1015        998        997       1015       1016        999        998       1016       1017       1000        999       1017       1018       1001       1000       1018       1019       1002       1001       1020       1021       1004       1003       1021       1022       1005       1004       1022       1023       1006       1005       1023       1024       1007       1006       1024       1025       1008       1007       1025       1026       1009       1008       1026       1027       1010       1009       1027       1028       1011       1010       1028       1029       1012       1011       1029       1030       1013       1012       1030       1031       1014       1013       1031       1032       1015       1014       1032       1033       1016       1015       1033       1034       1017       1016       1034       1035       1018       1017       1035       1036       1019       1018       1037       1038       1021       1020       1038       1039       1022       1021       1039       1040       1023       1022       1040       1041       1024       1023       1041       1042       1025       1024       1042       1043       1026       1025       1043       1044       1027       1026       1044       1045       1028       1027       1045       1046       1029       1028       1046       1047       1030       1029       1047       1048       1031       1030       1048       1049       1032       1031       1049       1050       1033       1032       1050       1051       1034       1033       1051       1052       1035       1034       1052       1053       1036       1035       1054       1055       1038       1037       1055       1056       1039       1038       1056       1057       1040       1039       1057       1058       1041       1040       1058       1059       1042       1041       1059       1060       1043       1042       1060       1061       1044       1043       1061       1062       1045       1044       1062       1063       1046       1045       1063       1064       1047       1046       1064       1065       1048       1047       1065       1066       1049       1048       1066       1067       1050       1049       1067       1068       1051       1050       1068       1069       1052       1051       1069       1070       1053       1052       1071       1072       1055       1054       1072       1073       1056       1055       1073       1074       1057       1056       1074       1075       1058       1057       1075       1076       1059       1058       1076       1077       1060       1059       1077       1078       1061       1060       1078       1079       1062       1061       1079       1080       1063       1062       1080       1081       1064       1063       1081       1082       1065       1064       1082       1083       1066       1065       1083       1084       1067       1066       1084       1085       1068       1067       1085       1086       1069       1068       1086       1087       1070       1069       1088       1089       1072       1071       1089       1090       1073       1072       1090       1091       1074       1073       1091       1092       1075       1074       1092       1093       1076       1075       1093       1094       1077       1076       1094       1095       1078       1077       1095       1096       1079       1078       1096       1097       1080       1079       1097       1098       1081       1080       1098       1099       1082       1081       1099       1100       1083       1082       1100       1101       1084       1083       1101       1102       1085       1084       1102       1103       1086       1085       1103       1104       1087       1086       1105       1106       1089       1088       1106       1107       1090       1089       1107       1108       1091       1090       1108       1109       1092       1091       1109       1110       1093       1092       1110       1111       1094       1093       1111       1112       1095       1094       1112       1113       1096       1095       1113       1114       1097       1096       1114       1115       1098       1097       1115       1116       1099       1098       1116       1117       1100       1099       1117       1118       1101       1100       1118       1119       1102       1101       1119       1120       1103       1102       1120       1121       1104       1103       1122       1123       1106       1105       1123       1124       1107       1106       1124       1125       1108       1107       1125       1126       1109       1108       1126       1127       1110       1109       1127       1128       1111       1110       1128       1129       1112       1111       1129       1130       1113       1112       1130       1131       1114       1113       1131       1132       1115       1114       1132       1133       1116       1115       1133       1134       1117       1116       1134       1135       1118       1117       1135       1136       1119       1118       1136       1137       1120       1119       1137       1138       1121       1120        272        273       1123       1122        273        274       1124       1123        274        275       1125       1124        275        276       1126       1125        276        277       1127       1126        277        278       1128       1127        278        279       1129       1128        279        280       1130       1129        280        281       1131       1130        281        282       1132       1131        282        283       1133       1132        283        284       1134       1133        284        285       1135       1134        285        286       1136       1135        286        287       1137       1136        287        288       1138       1137 </DataArray>
<DataArray type="Int32"                                    Name="offsets"                                                      NumberOfComponents=" 1" format="ascii">
         4          8         12         16         20         24         28         32         36         40         44         48         52         56         60         64         68         72         76         80         84         88         92         96        100        104        108        112        116        120        124        128        132        136        140        144        148        152        156        160        164        168        172        176        180        184        188        192        196        200        204        208        212        216        220        224        228        232        236        240        244        248        252        256        260        264        268        272        276        280        284        288        292        296        300        304        308        312        316        320        324        328        332        336        340        344        348        352        356        360        364        368        372        376        380        384        388        392        396        400        404        408        412        416        420        424        428        432        436        440        444        448        452        456        460        464        468        472        476        480        484        488        492        496        500        504        508        512        516        520        524        528        532        536        540        544        548        552        556        560        564        568        572        576        580        584        588        592        596        600        604        608        612        616        620        624        628        632        636        640        644        648        652        656        660        664        668        672        676        680        684        688        692        696        700        704        708        712        716        720        724        728        732        736        740        744        748        752        756        760        764        768        772        776        780        784        788        792        796        800        804        808        812        816        820        824        828        832        836        840        844        848        852        856        860        864        868        872        876        880        884        888        892        896        900        904        908        912        916        920        924        928        932        936        940        944        948        952        956        960        964        968        972        976        980        984        988        992        996       1000       1004       1008       1012       1016       1020       1024       1028       1032       1036       1040       1044       1048       1052       1056       1060       1064       1068       1072       1076       1080       1084       1088       1092       1096       1100       1104       1108       1112       1116       1120       1124       1128       1132       1136       1140       1144       1148       1152       1156       1160       1164       1168       1172       1176       1180       1184       1188       1192       1196       1200       1204       1208       1212       1216       1220       1224       1228       1232       1236       1240       1244       1248       1252       1256       1260       1264       1268       1272       1276       1280       1284       1288       1292       1296       1300       1304       1308       1312       1316       1320       1324       1328       1332       1336       1340       1344       1348       1352       1356       1360       1364       1368       1372       1376       1380       1384       1388       1392       1396       1400       1404       1408       1412       1416       1420       1424       1428       1432       1436       1440       1444       1448       1452       1456       1460       1464       1468       1472       1476       1480       1484       1488       1492       1496       1500       1504       1508       1512       1516       1520       1524       1528       1532       1536       1540       1544       1548       1552       1556       1560       1564       1568       1572       1576       1580       1584       1588       1592       1596       1600       1604       1608       1612       1616       1620       1624       1628       1632       1636       1640       1644       1648       1652       1656       1660       1664       1668       1672       1676       1680       1684       1688       1692       1696       1700       1704       1708       1712       1716       1720       1724       1728       1732       1736       1740       1744       1748       1752       1756       1760       1764       1768       1772       1776       1780       1784       1788       1792       1796       1800       1804       1808       1812       1816       1820       1824       1828       1832       1836       1840       1844       1848       1852       1856       1860       1864       1868       1872       1876       1880       1884       1888       1892       1896       1900       1904       1908       1912       1916       1920       1924       1928       1932       1936       1940       1944       1948       1952       1956       1960       1964       1968       1972       1976       1980       1984       1988       1992       1996       2000       2004       2008       2012       2016       2020       2024       2028       2032       2036       2040       2044       2048       2052       2056       2060       2064       2068       2072       2076       2080       2084       2088       2092       2096       2100       2104       2108       2112       2116       2120       2124       2128       2132       2136       2140       2144       2148       2152       2156       2160       2164       2168       2172       2176       2180       2184       2188       2192       2196       2200       2204       2208       2212       2216       2220       2224       2228       2232       2236       2240       2244       2248       2252       2256       2260       2264       2268       2272       2276       2280       2284       2288       2292       2296       2300       2304       2308       2312       2316       2320       2324       2328       2332       2336       2340       2344       2348       2352       2356       2360       2364       2368       2372       2376       2380       2384       2388       2392       2396       2400       2404       2408       2412       2416       2420       2424       2428       2432       2436       2440       2444       2448       2452       2456       2460       2464       2468       2472       2476       2480       2484       2488       2492       2496       2500       2504       2508       2512       2516       2520       2524       2528       2532       2536       2540       2544       2548       2552       2556       2560       2564       2568       2572       2576       2580       2584       2588       2592       2596       2600       2604       2608       2612       2616       2620       2624       2628       2632       2636       2640       2644       2648       2652       2656       2660       2664       2668       2672       2676       2680       2684       2688       2692       2696       2700       2704       2708       2712       2716       2720       2724       2728       2732       2736       2740       2744       2748       2752       2756       2760       2764       2768       2772       2776       2780       2784       2788       2792       2796       2800       2804       2808       2812       2816       2820       2824       2828       2832       2836       2840       2844       2848       2852       2856       2860       2864       2868       2872       2876       2880       2884       2888       2892       2896       2900       2904       2908       2912       2916       2920       2924       2928       2932       2936       2940       2944       2948       2952       2956       2960       2964       2968       2972       2976       2980       2984       2988       2992       2996       3000       3004       3008       3012       3016       3020       3024       3028       3032       3036       3040       3044       3048       3052       3056       3060       3064       3068       3072       3076       3080       3084       3088       3092       3096       3100       3104       3108       3112       3116       3120       3124       3128       3132       3136       3140       3144       3148       3152       3156       3160       3164       3168       3172       3176       3180       3184       3188       3192       3196       3200       3204       3208       3212       3216       3220       3224       3228       3232       3236       3240       3244       3248       3252       3256       3260       3264       3268       3272       3276       3280       3284       3288       3292       3296       3300       3304       3308       3312       3316       3320       3324       3328       3332       3336       3340       3344       3348       3352       3356       3360       3364       3368       3372       3376       3380       3384       3388       3392       3396       3400       3404       3408       3412       3416       3420       3424       3428       3432       3436       3440       3444       3448       3452       3456       3460       3464       3468       3472       3476       3480       3484       3488       3492       3496       3500       3504       3508       3512       3516       3520       3524       3528       3532       3536       3540       3544       3548       3552       3556       3560       3564       3568       3572       3576       3580       3584       3588       3592       3596       3600       3604       3608       3612       3616       3620       3624       3628       3632       3636       3640       3644       3648       3652       3656       3660       3664       3668       3672       3676       3680       3684       3688       3692       3696       3700       3704       3708       3712       3716       3720       3724       3728       3732       3736       3740       3744       3748       3752       3756       3760       3764       3768       3772       3776       3780       3784       3788       3792       3796       3800       3804       3808       3812       3816       3820       3824       3828       3832       3836       3840       3844       3848       3852       3856       3860       3864       3868       3872       3876       3880       3884       3888       3892       3896       3900       3904       3908       3912       3916       3920       3924       3928       3932       3936       3940       3944       3948       3952       3956       3960       3964       3968       3972       3976       3980       3984       3988       3992       3996       4000       4004       4008       4012       4016       4020       4024       4028       4032       4036       4040       4044       4048       4052       4056       4060       4064       4068       4072       4076       4080       4084       4088       4092       4096 </DataArray>
<DataArray type="UInt8"                                    Name="types"                                                      NumberOfComponents=" 1" format="ascii">
         9          9          9          9          9          9          9          9          9          9          9          9          9          9          9          9          9          9          9          9          9          9          9          9          9          9          9          9          9          9          9          9          9          9          9          9          9          9          9          9          9          9          9          9          9          9          9          9          9          9          9          9          9          9          9          9          9          9          9          9          9          9          9          9          9          9          9          9          9          9          9          9          9          9          9          9          9          9          9          9          9          9          9          9          9          9          9          9          9          9          9          9          9          9          9          9          9          9          9          9          9          9          9          9          9          9          9          9          9          9          9          9          9          9          9          9          9          9          9          9          9          9          9          9          9          9          9          9          9          9          9          9          9          9          9          9          9          9          9          9          9          9          9          9          9          9          9          9          9          9          9          9          9          9          9          9          9          9          9          9          9          9          9          9          9          9          9          9          9          9          9          9          9          9          9          9          9          9          9          9          9          9          9          9          9          9          9          9          9          9          9          9          9          9          9          9          9          9          9          9          9          9          9          9          9          9          9          9          9          9          9          9          9          9          9          9          9          9          9          9          9          9          9          9          9          9          9          9          9          9          9          9          9          9          9          9          9          9          9          9          9          9          9          9          9          9          9          9          9          9          9          9          9          9          9          9          9          9          9          9          9          9          9          9          9          9          9          9          9          9          9          9          9          9          9          9          9          9          9          9          9          9          9          9          9          9          9          9          9          9          9          9          9          9          9          9          9          9          9          9          9          9          9          9          9          9          9          9          9          9          9          9          9          9          9          9          9          9          9          9          9          9          9          9          9          9          9          9          9          9          9          9          9          9          9          9          9          9          9          9          9          9          9          9          9          9          9          9          9          9          9          9          9          9          9          9          9          9          9          9          9          9          9          9          9          9          9          9          9          9          9          9          9          9          9          9          9          9          9          9          9          9          9          9          9          9          9          9          9          9          9          9          9          9          9          9          9          9          9          9          9          9          9          9          9          9          9          9          9          9          9          9          9          9          9          9          9          9          9          9          9          9          9          9          9          9          9          9          9          9          9          9          9          9          9          9          9          9          9          9          9          9          9          9          9          9          9          9          9          9          9          9          9          9          9          9          9          9          9          9          9          9          9          9          9          9          9          9          9          9          9          9          9          9          9          9          9          9          9          9          9          9          9          9          9          9          9          9          9          9          9          9          9          9          9          9          9          9          9          9          9          9          9          9          9          9          9          9          9          9          9          9          9          9          9          9          9          9          9          9          9          9          9          9          9          9          9          9          9          9          9          9          9          9          9          9          9          9          9          9          9          9          9          9          9          9          9          9          9          9          9          9          9          9          9          9          9          9          9          9          9          9          9          9          9          9          9          9          9          9          9          9          9          9          9          9          9          9          9          9          9          9          9          9          9          9          9          9          9          9          9          9          9          9          9          9          9          9          9          9          9          9          9          9          9          9          9          9          9          9          9          9          9          9          9          9          9          9          9          9          9          9          9          9          9          9          9          9          9          9          9          9          9          9          9          9          9          9          9          9          9          9          9          9          9          9          9          9          9          9          9          9          9          9          9          9          9          9          9          9          9          9          9          9          9          9          9          9          9          9          9          9          9          9          9          9          9          9          9          9          9          9          9          9          9          9          9          9          9          9          9          9          9          9          9          9          9          9          9          9          9          9          9          9          9          9          9          9          9          9          9          9          9          9          9          9          9          9          9          9          9          9          9          9          9          9          9          9          9          9          9          9          9          9          9          9          9          9          9          9          9          9          9          9          9          9          9          9          9          9          9          9          9          9          9          9          9          9          9          9          9          9          9          9          9          9          9          9          9          9          9          9          9          9          9          9          9          9          9          9          9          9          9          9          9          9          9          9          9          9          9          9          9          9          9          9          9          9          9          9          9          9          9          9          9          9          9          9          9          9          9          9          9          9          9          9          9          9          9          9          9          9          9          9          9          9          9          9          9          9          9          9          9          9          9          9          9          9          9          9          9          9          9          9          9          9          9          9          9          9          9          9          9          9          9          9          9          9          9          9          9          9          9          9          9          9          9          9          9          9          9          9          9          9          9          9          9          9          9          9          9          9          9          9          9          9          9          9          9          9          9          9          9          9          9          9          9          9          9          9          9          9          9          9          9          9          9          9          9          9          9          9          9          9          9          9          9          9          9          9          9          9          9          9          9          9          9          9          9          9          9          9          9          9          9          9          9          9          9          9          9          9          9          9          9          9          9          9          9          9          9          9          9          9          9          9          9          9          9          9          9          9          9          9          9          9          9          9          9          9          9          9          9          9          9          9          9          9          9          9          9          9          9          9          9          9          9          9          9          9          9          9          9          9          9          9          9          9          9          9          9          9          9          9          9          9          9          9          9          9          9          9          9          9          9          9          9          9          9          9          9          9          9          9 </DataArray>
</Cells>
<CellData>
<DataArray type="Int32"                                    Name="material"                                                      NumberOfComponents=" 1" format="ascii">
         1          1          1          1          1          1          1          1          1          1          1          1          1          1          1          1          1          1          1          1          1          1          1          1          1          1          1          1          1          1          1          1          1          1          1          1          1          1          1          1          1          1          1          1          1          1          1          1          1          1          1          1          1          1          1          1          1          1          1          1          1          1          1          1          1          1          1          1          1          1          1          1          1          1          1          1          1          1          1          1          1          1          1          1          1          1          1          1          1          1          1          1          1          1          1          1          1          1          1          1          1          1          1          1          1          1          1          1          1          1          1          1          1          1          1          1          1          1          1          1          1          1          1          1          1          1          1          1          1          1          1          1          1          1          1          1          1          1          1          1          1          1          1          1          1          1          1          1          1          1          1          1          1          1          1          1          1          1          1          1          1          1          1          1          1          1          1          1          1          1          1          1          1          1          1          1          1          1          1          1          1          1          1          1          1          1          1          1          1          1          1          1          1          1          1          1          1          1          1          1          1          1          1          1          1          1          1          1          1          1          1          1          1          1          1          1          1          1          1          1          1          1          1          1          1          1          1          1          1          1          1          1          1          1          1          1          1          1          1          1          1          1          1          1          1          1          1          1          1          1          1          1          1          1          1          1          1          1          1          1          1          1          1          1          1          1          1          1          1          1          1          1          1          1          1          1          1          1          1          1          1          1          1          1          1          1          1          1          1          1          1          1          1          1          1          1          1          1          1          1          1          1          1          1          1          1          1          1          1          1          1          1          1          1          1          1          1          1          1          1          1          1          1          1          1          1          1          1          1          1          1          1          1          1          1          1          1          1          1          1          1          1          1          1          1          1          1          1          1          1          1          1          1          1          1          1          1          1          1          1          1          1          1          1          1          1          1          1          1          1          1          1          1          1          1          1          1          1          1          1          1          1          1          1          1          1          1          1          1          1          1          1          1          1          1          1          1          1          1          1          1          1          1          1          1          1          1          1          1          1          1          1          1          1          1          1          1          1          1          1          1          1          1          1          1          1          1          1          1          1          1          1          1          1          1          1          1          1          1          1          1          1          1          1          1          1          1          1          1          1          1          1          1          1          1          1          1          1          1          1          1          1          1          1          1          1          1          1          1          1          1          1          1          1          1          1          1          1          1          1          1          1          1          1          1          1          1          1          1          1          1          1          1          1          1          1          1          1          1          1          1          1          1          1          1          1          1          1          1          1          1          1          1          1          1          1          1          1          1          1          1          1          1          1          1          1          1          1          1          1          1          1          1          1          1          1          1          1          1          1          1          1          1          1          1          1          1          1          1          1          1          1          1          1          1          1          1          1          1          1          1          1          1          1          1          1          1          1          1          1          1          1          1          1          1          1          1          1          1          1          1          1          1          1          1          1          1          1          1          1          1          1          1          1          1          1          1          1          1          1          1          1          1          1          1          1          1          1          1          1          1          1          1          1          1          1          1          1          1          1          1          1          1          1          1          1          1          1          1          1          1          1          1          1          1          1          1          1          1          1          1          1          1          1          1          1          1          1          1          1          1          1          1          1          1          1          1          1          1          1          1          1          1          1          1          1          1          1          1          1          1          1          1          1          1          1          1          1          1          1          1          1          1          1          1          1          1          1          1          1          1          1          1          1          1          1          1          1          1          1          1          1          1          1          1          1          1          1          1          1          1          1          1          1          1          1          1          1          1          1          1          1          1          1          1          1          1          1          1          1          1          1          1          1          1          1          1          1          1          1          1          1          1          1          1          1          1          1          1          1          1          1          1          1          1          1          1          1          1          1          1          1          1          1          1          1          1          1          1          1          1          1          1          1          1          1          1          1          1          1          1          1          1          1          1          1          1          1          1          1          1          1          1          1          1          1          1          1          1          1          1          1          1          1          1          1          1          1          1          1          1          1          1          1          1          1          1          1          1          1          1          1          1          1          1          1          1          1          1          1          1          1          1          1          1          1          1          1          1          1          1          1          1          1          1          1          1          1          1          1          1          1          1          1          1          1          1          1          1          1          1          1          1          1          1          1          1          1          1          1          1          1          1          1          1          1          1          1          1          1          1          1          1          1          1          1          1          1          1          1          1          1          1          1          1          1          1          1          1          1          1          1          1          1          1          1          1          1          1          1          1          1          1          1          1          1          1          1          1          1          1          1          1          1          1          1          1          1          1          1          1          1          1          1          1          1          1          1          1          1          1          1          1          1          1          1          1          1          1          1          1          1          1          1          1          1          1          1          1          1          1          1          1          1          1          1          1          1          1          1          1          1          1          1          1          1          1          1          1          1          1          1          1          1          1          1          1          1          1          1          1          1          1          1          1          1          1          1          1          1          1          1          1          1          1          1          1          1          1          1          1          1          1          1          1          1          1          1          1          1          1          1          1          1 </DataArray>
</CellData>
<PointData>
<DataArray type="Float64"                                    Name="u"                                                      NumberOfComponents=" 3" format="ascii">
             -0.000436131              -0.000000000               0.999999985              -0.000477727               0.000000000               0.999999985              -0.000496824               0.000000000               0.999999985              -0.000508171               0.000000000               0.999999985              -0.000517347              -0.000000000               0.999999985              -0.000526523              -0.000000000               0.999999985              -0.000536416              -0.000000000               0.999999985              -0.000547373              -0.000000000               0.999999985              -0.000559303              -0.000000000               0.999999985              -0.000572116               0.000000000               0.999999985              -0.000585763               0.000000000               0.999999985              -0.000600062               0.000000000               0.999999985              -0.000614867               0.000000000               0.999999985              -0.000629996               0.000000000               0.999999985              -0.000645185               0.000000000               0.999999985              -0.000659997               0.000000000               0.999999985              -0.000673882              -0.000000000               0.999999985              -0.000433543               0.000106065               0.999999985              -0.000472389               0.000088388               0.999999985              -0.000489749               0.000081652               0.999999985              -0.000500038               0.000080355               0.999999985              -0.000508608               0.000082001               0.999999985              -0.000517440               0.000085185               0.999999985              -0.000527123               0.000089205               0.999999985              -0.000537777               0.000093609               0.999999985              -0.000549346               0.000097983               0.999999985              -0.000561814               0.000102284               0.999999985              -0.000575032               0.000106384               0.999999985              -0.000588823               0.000110038               0.999999985              -0.000602971               0.000112772               0.999999985              -0.000617257               0.000114425               0.999999985              -0.000631456               0.000114677               0.999999985              -0.000645202               0.000112822               0.999999985              -0.000658040               0.000108210               0.999999985              -0.000425880               0.000210982               0.999999985              -0.000456718               0.000176156               0.999999985              -0.000469309               0.000163458               0.999999985              -0.000476913               0.000161576               0.999999985              -0.000483969               0.000165381               0.999999985              -0.000491802               0.000172139               0.999999985              -0.000500758               0.000180388               0.999999985              -0.000510736               0.000189241               0.999999985              -0.000521542               0.000198149               0.999999985              -0.000533024               0.000206771               0.999999985              -0.000544938               0.000215020               0.999999985              -0.000557104               0.000222362               0.999999985              -0.000569185               0.000228050               0.999999985              -0.000580990               0.000231689               0.999999985              -0.000592314               0.000232920               0.999999985              -0.000602971               0.000230909               0.999999985              -0.000612974               0.000224648               0.999999985              -0.000413419               0.000313594               0.999999985              -0.000431736               0.000262725               0.999999985              -0.000437665               0.000245460               0.999999985              -0.000441760               0.000244198               0.999999985              -0.000446940               0.000250917               0.999999985              -0.000453722               0.000261770               0.999999985              -0.000461898               0.000274536               0.999999985              -0.000471093               0.000288017               0.999999985              -0.000480891               0.000301463               0.999999985              -0.000491008               0.000314491               0.999999985              -0.000501085               0.000326736               0.999999985              -0.000510711               0.000337584               0.999999985              -0.000519715               0.000346325               0.999999985              -0.000528029               0.000352693               0.999999985              -0.000535716               0.000356368               0.999999985              -0.000542802               0.000356731               0.999999985              -0.000549442               0.000353191               0.999999985              -0.000396548               0.000412845               0.999999985              -0.000398914               0.000347665               0.999999985              -0.000397522               0.000327712               0.999999985              -0.000398408               0.000328273               0.999999985              -0.000402191               0.000338625               0.999999985              -0.000408229               0.000353987               0.999999985              -0.000415813               0.000371513               0.999999985              -0.000424200               0.000389747               0.999999985              -0.000432896               0.000407721               0.999999985              -0.000441396               0.000424914               0.999999985              -0.000449205               0.000440891               0.999999985              -0.000456101               0.000455136               0.999999985              -0.000462058               0.000467208               0.999999985              -0.000467125               0.000476903               0.999999985              -0.000471433               0.000484189               0.999999985              -0.000475208               0.000488916               0.999999985              -0.000478793               0.000491241               0.999999985              -0.000375570               0.000507847               0.999999985              -0.000360047               0.000430775               0.999999985              -0.000352036               0.000410029               0.999999985              -0.000350826               0.000413330               0.999999985              -0.000354119               0.000427865               0.999999985              -0.000360111               0.000447840               0.999999985              -0.000367491               0.000470062               0.999999985              -0.000375321               0.000492888               0.999999985              -0.000382881               0.000515153               0.999999985              -0.000389697               0.000536253               0.999999985              -0.000395424               0.000555818               0.999999985              -0.000399856               0.000573368               0.999999985              -0.000402993               0.000588797               0.999999985              -0.000405152               0.000602279               0.999999985              -0.000406671               0.000613977               0.999999985              -0.000407711               0.000624002               0.999999985              -0.000408391               0.000632851               0.999999985              -0.000351011               0.000597629               0.999999985              -0.000317253               0.000511934               0.999999985              -0.000304350               0.000491956               0.999999985              -0.000302545               0.000498613               0.999999985              -0.000306502               0.000517370               0.999999985              -0.000313195               0.000541777               0.999999985              -0.000320760               0.000568375               0.999999985              -0.000328171               0.000595446               0.999999985              -0.000334716               0.000621659               0.999999985              -0.000339946               0.000646346               0.999999985              -0.000343417               0.000669286               0.999999985              -0.000345208               0.000690254               0.999999985              -0.000345661               0.000709351               0.999999985              -0.000345081               0.000727134               0.999999985              -0.000343521               0.000743528               0.999999985              -0.000341118               0.000758564               0.999999985              -0.000337804               0.000772603               0.999999985              -0.000323450               0.000681216               0.999999985              -0.000272654               0.000590921               0.999999985              -0.000257171               0.000572871               0.999999985              -0.000256598               0.000582904               0.999999985              -0.000262127               0.000605608               0.999999985              -0.000269871               0.000634162               0.999999985              -0.000277814               0.000664800               0.999999985              -0.000284846               0.000695701               0.999999985              -0.000290152               0.000725505               0.999999985              -0.000293271               0.000753640               0.999999985              -0.000294105               0.000779977               0.999999985              -0.000292933               0.000804562               0.999999985              -0.000289947               0.000827783               0.999999985              -0.000285396               0.000849658               0.999999985              -0.000279631               0.000870025               0.999999985              -0.000272743               0.000889137               0.999999985              -0.000264633               0.000906937               0.999999985              -0.000293821               0.000757262               0.999999985              -0.000227845               0.000667639               0.999999985              -0.000213070               0.000651639               0.999999985              -0.000214871               0.000664761               0.999999985              -0.000222479               0.000691080               0.999999985              -0.000231407               0.000723419               0.999999985              -0.000239647               0.000757916               0.999999985              -0.000245876               0.000792386               0.999999985              -0.000249273               0.000825642               0.999999985              -0.000249586               0.000857142               0.999999985              -0.000246887               0.000887062               0.999999985              -0.000241637               0.000915403               0.999999985              -0.000234321               0.000941698               0.999999985              -0.000225482               0.000966247               0.999999985              -0.000215440               0.000989420               0.999999985              -0.000204397               0.001011213               0.999999985              -0.000192666               0.001031748               0.999999985              -0.000263780               0.000828599               0.999999985              -0.000191242               0.000750762               0.999999985              -0.000173320               0.000730051               0.999999985              -0.000173629               0.000737349               0.999999985              -0.000180337               0.000758624               0.999999985              -0.000188728               0.000787146               0.999999985              -0.000196847               0.000819248               0.999999985              -0.000203429               0.000852583               0.999999985              -0.000207518               0.000885772               0.999999985              -0.000208509               0.000917926               0.999999985              -0.000206359               0.000948974               0.999999985              -0.000201365               0.000978632               0.999999985              -0.000193785               0.001006604               0.999999985              -0.000184051               0.001032918               0.999999985              -0.000172899               0.001057644               0.999999985              -0.000160667               0.001081207               0.999999985              -0.000148072               0.001103402               0.999999985              -0.000230878               0.000893120               0.999999985              -0.000157443               0.000830446               0.999999985              -0.000136517               0.000809719               0.999999985              -0.000134619               0.000812993               0.999999985              -0.000139828               0.000830141               0.999999985              -0.000147197               0.000855252               0.999999985              -0.000154735               0.000884957               0.999999985              -0.000161197               0.000917096               0.999999985              -0.000165620               0.000949990               0.999999985              -0.000167246               0.000982673               0.999999985              -0.000165715               0.001014685               0.999999985              -0.000161129               0.001045501               0.999999985              -0.000153656               0.001074811               0.999999985              -0.000143253               0.001102641               0.999999985              -0.000130412               0.001128986               0.999999985              -0.000115962               0.001154137               0.999999985              -0.000100601               0.001178197               0.999999985              -0.000195847               0.000949464               0.999999985              -0.000126334               0.000904514               0.999999985              -0.000103755               0.000887160               0.999999985              -0.000099491               0.000888960               0.999999985              -0.000102700               0.000903349               0.999999985              -0.000108579               0.000925885               0.999999985              -0.000115037               0.000953603               0.999999985              -0.000120947               0.000984541               0.999999985              -0.000125166               0.001017286               0.999999985              -0.000127035               0.001050604               0.999999985              -0.000126295               0.001083779               0.999999985              -0.000122428               0.001115929               0.999999985              -0.000115143               0.001146847               0.999999985              -0.000104487               0.001176300               0.999999985              -0.000090516               0.001204230               0.999999985              -0.000073639               0.001230988               0.999999985              -0.000054534               0.001256704               0.999999985              -0.000159042               0.000996636               0.999999985              -0.000097845               0.000970060               0.999999985              -0.000075497               0.000958655               0.999999985              -0.000069457               0.000961331               0.999999985              -0.000070636               0.000974670               0.999999985              -0.000074816               0.000995631               0.999999985              -0.000079849               0.001022049               0.999999985              -0.000084591               0.001052209               0.999999985              -0.000088234               0.001084887               0.999999985              -0.000090176               0.001118959               0.999999985              -0.000090017               0.001153573               0.999999985              -0.000086985               0.001187640               0.999999985              -0.000080346               0.001220619               0.999999985              -0.000069969               0.001252300               0.999999985              -0.000055714               0.001282481               0.999999985              -0.000037272               0.001311279               0.999999985              -0.000014768               0.001338904               0.999999985              -0.000120688               0.001034041               0.999999985              -0.000071532               0.001024326               0.999999985              -0.000051758               0.001020118               0.999999985              -0.000045154               0.001025364               0.999999985              -0.000044810               0.001039120               0.999999985              -0.000047324               0.001059727               0.999999985              -0.000050822               0.001085653               0.999999985              -0.000054193               0.001115560               0.999999985              -0.000056930               0.001148356               0.999999985              -0.000058631               0.001183188               0.999999985              -0.000058758               0.001219323               0.999999985              -0.000056505               0.001255638               0.999999985              -0.000051099               0.001291320               0.999999985              -0.000041893               0.001325936               0.999999985              -0.000028605               0.001359190               0.999999985              -0.000010652               0.001390891               0.999999985               0.000012973               0.001421061               0.999999985              -0.000081105               0.001061176               0.999999985              -0.000046818               0.001064937               0.999999985              -0.000032001               0.001067518               0.999999985              -0.000026414               0.001075913               0.999999985              -0.000025439               0.001090964               0.999999985              -0.000026605               0.001111995               0.999999985              -0.000028603               0.001138118               0.999999985              -0.000030690               0.001168293               0.999999985              -0.000032468               0.001201557               0.999999985              -0.000033649               0.001237300               0.999999985              -0.000033762               0.001274821               0.999999985              -0.000032273               0.001313154               0.999999985              -0.000028354               0.001351566               0.999999985              -0.000021442               0.001389344               0.999999985              -0.000011189               0.001426012               0.999999985               0.000003420               0.001461184               0.999999985               0.000023900               0.001494559               0.999999985              -0.000040748               0.001077603               0.999999985              -0.000023150               0.001090004               0.999999985              -0.000015215               0.001097397               0.999999985              -0.000012038               0.001108267               0.999999985              -0.000011282               0.001124648               0.999999985              -0.000011675               0.001146466               0.999999985              -0.000012513               0.001172989               0.999999985              -0.000013430               0.001203502               0.999999985              -0.000014323               0.001237274               0.999999985              -0.000014936               0.001273777               0.999999985              -0.000015010               0.001312431               0.999999985              -0.000014183               0.001352258               0.999999985              -0.000012079               0.001392552               0.999999985              -0.000008477               0.001432638               0.999999985              -0.000002823               0.001472013               0.999999985               0.000005438               0.001510103               0.999999985               0.000017417               0.001546276               0.999999985              -0.000000000               0.001083170               0.999999985               0.000000000               0.001098518               0.999999985              -0.000000000               0.001107613               0.999999985               0.000000000               0.001119482               0.999999985              -0.000000000               0.001136334               0.999999985              -0.000000000               0.001158407               0.999999985               0.000000000               0.001185207               0.999999985              -0.000000000               0.001215862               0.999999985              -0.000000000               0.001249823               0.999999985               0.000000000               0.001286621               0.999999985               0.000000000               0.001325738               0.999999985              -0.000000000               0.001366156               0.999999985              -0.000000000               0.001407101               0.999999985               0.000000000               0.001448038               0.999999985               0.000000000               0.001488426               0.999999985              -0.000000000               0.001527670               0.999999985              -0.000000000               0.001564978               0.999999985              -0.000436131              -0.000000000               0.999999985              -0.000477727               0.000000000               0.999999985              -0.000496824               0.000000000               0.999999985              -0.000508171               0.000000000               0.999999985              -0.000517347              -0.000000000               0.999999985              -0.000526523              -0.000000000               0.999999985              -0.000536416              -0.000000000               0.999999985              -0.000547373              -0.000000000               0.999999985              -0.000559303              -0.000000000               0.999999985              -0.000572116               0.000000000               0.999999985              -0.000585763               0.000000000               0.999999985              -0.000600062               0.000000000               0.999999985              -0.000614867               0.000000000               0.999999985              -0.000629996               0.000000000               0.999999985              -0.000645185               0.000000000               0.999999985              -0.000659997               0.000000000               0.999999985              -0.000673882              -0.000000000               0.999999985              -0.000433543              -0.000106065               0.999999985              -0.000472389              -0.000088388               0.999999985              -0.000489749              -0.000081652               0.999999985              -0.000500038              -0.000080355               0.999999985              -0.000508608              -0.000082001               0.999999985              -0.000517440              -0.000085185               0.999999985              -0.000527123              -0.000089205               0.999999985              -0.000537777              -0.000093609               0.999999985              -0.000549346              -0.000097983               0.999999985              -0.000561814              -0.000102284               0.999999985              -0.000575032              -0.000106384               0.999999985              -0.000588823              -0.000110038               0.999999985              -0.000602971              -0.000112772               0.999999985              -0.000617257              -0.000114425               0.999999985              -0.000631456              -0.000114677               0.999999985              -0.000645202              -0.000112822               0.999999985              -0.000658040              -0.000108210               0.999999985              -0.000425880              -0.000210982               0.999999985              -0.000456718              -0.000176156               0.999999985              -0.000469309              -0.000163458               0.999999985              -0.000476913              -0.000161576               0.999999985              -0.000483969              -0.000165381               0.999999985              -0.000491802              -0.000172139               0.999999985              -0.000500758              -0.000180388               0.999999985              -0.000510736              -0.000189241               0.999999985              -0.000521542              -0.000198149               0.999999985              -0.000533024              -0.000206771               0.999999985              -0.000544938              -0.000215020               0.999999985              -0.000557104              -0.000222362               0.999999985              -0.000569185              -0.000228050               0.999999985              -0.000580990              -0.000231689               0.999999985              -0.000592314              -0.000232920               0.999999985              -0.000602971              -0.000230909               0.999999985              -0.000612974              -0.000224648               0.999999985              -0.000413419              -0.000313594               0.999999985              -0.000431736              -0.000262725               0.999999985              -0.000437665              -0.000245460               0.999999985              -0.000441760              -0.000244198               0.999999985              -0.000446940              -0.000250917               0.999999985              -0.000453722              -0.000261770               0.999999985              -0.000461898              -0.000274536               0.999999985              -0.000471093              -0.000288017               0.999999985              -0.000480891              -0.000301463               0.999999985              -0.000491008              -0.000314491               0.999999985              -0.000501085              -0.000326736               0.999999985              -0.000510711              -0.000337584               0.999999985              -0.000519715              -0.000346325               0.999999985              -0.000528029              -0.000352693               0.999999985              -0.000535716              -0.000356368               0.999999985              -0.000542802              -0.000356731               0.999999985              -0.000549442              -0.000353191               0.999999985              -0.000396548              -0.000412845               0.999999985              -0.000398914              -0.000347665               0.999999985              -0.000397522              -0.000327712               0.999999985              -0.000398408              -0.000328273               0.999999985              -0.000402191              -0.000338625               0.999999985              -0.000408229              -0.000353987               0.999999985              -0.000415813              -0.000371513               0.999999985              -0.000424200              -0.000389747               0.999999985              -0.000432896              -0.000407721               0.999999985              -0.000441396              -0.000424914               0.999999985              -0.000449205              -0.000440891               0.999999985              -0.000456101              -0.000455136               0.999999985              -0.000462058              -0.000467208               0.999999985              -0.000467125              -0.000476903               0.999999985              -0.000471433              -0.000484189               0.999999985              -0.000475208              -0.000488916               0.999999985              -0.000478793              -0.000491241               0.999999985              -0.000375570              -0.000507847               0.999999985              -0.000360047              -0.000430775               0.999999985              -0.000352036              -0.000410029               0.999999985              -0.000350826              -0.000413330               0.999999985              -0.000354119              -0.000427865               0.999999985              -0.000360111              -0.000447840               0.999999985              -0.000367491              -0.000470062               0.999999985              -0.000375321              -0.000492888               0.999999985              -0.000382881              -0.000515153               0.999999985              -0.000389697              -0.000536253               0.999999985              -0.000395424              -0.000555818               0.999999985              -0.000399856              -0.000573368               0.999999985              -0.000402993              -0.000588797               0.999999985              -0.000405152              -0.000602279               0.999999985              -0.000406671              -0.000613977               0.999999985              -0.000407711              -0.000624002               0.999999985              -0.000408391              -0.000632851               0.999999985              -0.000351011              -0.000597629               0.999999985              -0.000317253              -0.000511934               0.999999985              -0.000304350              -0.000491956               0.999999985              -0.000302545              -0.000498613               0.999999985              -0.000306502              -0.000517370               0.999999985              -0.000313195              -0.000541777               0.999999985              -0.000320760              -0.000568375               0.999999985              -0.000328171              -0.000595446               0.999999985              -0.000334716              -0.000621659               0.999999985              -0.000339946              -0.000646346               0.999999985              -0.000343417              -0.000669286               0.999999985              -0.000345208              -0.000690254               0.999999985              -0.000345661              -0.000709351               0.999999985              -0.000345081              -0.000727134               0.999999985              -0.000343521              -0.000743528               0.999999985              -0.000341118              -0.000758564               0.999999985              -0.000337804              -0.000772603               0.999999985              -0.000323450              -0.000681216               0.999999985              -0.000272654              -0.000590921               0.999999985              -0.000257171              -0.000572871               0.999999985              -0.000256598              -0.000582904               0.999999985              -0.000262127              -0.000605608               0.999999985              -0.000269871              -0.000634162               0.999999985              -0.000277814              -0.000664800               0.999999985              -0.000284846              -0.000695701               0.999999985              -0.000290152              -0.000725505               0.999999985              -0.000293271              -0.000753640               0.999999985              -0.000294105              -0.000779977               0.999999985              -0.000292933              -0.000804562               0.999999985              -0.000289947              -0.000827783               0.999999985              -0.000285396              -0.000849658               0.999999985              -0.000279631              -0.000870025               0.999999985              -0.000272743              -0.000889137               0.999999985              -0.000264633              -0.000906937               0.999999985              -0.000293821              -0.000757262               0.999999985              -0.000227845              -0.000667639               0.999999985              -0.000213070              -0.000651639               0.999999985              -0.000214871              -0.000664761               0.999999985              -0.000222479              -0.000691080               0.999999985              -0.000231407              -0.000723419               0.999999985              -0.000239647              -0.000757916               0.999999985              -0.000245876              -0.000792386               0.999999985              -0.000249273              -0.000825642               0.999999985              -0.000249586              -0.000857142               0.999999985              -0.000246887              -0.000887062               0.999999985              -0.000241637              -0.000915403               0.999999985              -0.000234321              -0.000941698               0.999999985              -0.000225482              -0.000966247               0.999999985              -0.000215440              -0.000989420               0.999999985              -0.000204397              -0.001011213               0.999999985              -0.000192666              -0.001031748               0.999999985              -0.000263780              -0.000828599               0.999999985              -0.000191242              -0.000750762               0.999999985              -0.000173320              -0.000730051               0.999999985              -0.000173629              -0.000737349               0.999999985              -0.000180337              -0.000758624               0.999999985              -0.000188728              -0.000787146               0.999999985              -0.000196847              -0.000819248               0.999999985              -0.000203429              -0.000852583               0.999999985              -0.000207518              -0.000885772               0.999999985              -0.000208509              -0.000917926               0.999999985              -0.000206359              -0.000948974               0.999999985              -0.000201365              -0.000978632               0.999999985              -0.000193785              -0.001006604               0.999999985              -0.000184051              -0.001032918               0.999999985              -0.000172899              -0.001057644               0.999999985              -0.000160667              -0.001081207               0.999999985              -0.000148072              -0.001103402               0.999999985              -0.000230878              -0.000893120               0.999999985              -0.000157443              -0.000830446               0.999999985              -0.000136517              -0.000809719               0.999999985              -0.000134619              -0.000812993               0.999999985              -0.000139828              -0.000830141               0.999999985              -0.000147197              -0.000855252               0.999999985              -0.000154735              -0.000884957               0.999999985              -0.000161197              -0.000917096               0.999999985              -0.000165620              -0.000949990               0.999999985              -0.000167246              -0.000982673               0.999999985              -0.000165715              -0.001014685               0.999999985              -0.000161129              -0.001045501               0.999999985              -0.000153656              -0.001074811               0.999999985              -0.000143253              -0.001102641               0.999999985              -0.000130412              -0.001128986               0.999999985              -0.000115962              -0.001154137               0.999999985              -0.000100601              -0.001178197               0.999999985              -0.000195847              -0.000949464               0.999999985              -0.000126334              -0.000904514               0.999999985              -0.000103755              -0.000887160               0.999999985              -0.000099491              -0.000888960               0.999999985              -0.000102700              -0.000903349               0.999999985              -0.000108579              -0.000925885               0.999999985              -0.000115037              -0.000953603               0.999999985              -0.000120947              -0.000984541               0.999999985              -0.000125166              -0.001017286               0.999999985              -0.000127035              -0.001050604               0.999999985              -0.000126295              -0.001083779               0.999999985              -0.000122428              -0.001115929               0.999999985              -0.000115143              -0.001146847               0.999999985              -0.000104487              -0.001176300               0.999999985              -0.000090516              -0.001204230               0.999999985              -0.000073639              -0.001230988               0.999999985              -0.000054534              -0.001256704               0.999999985              -0.000159042              -0.000996636               0.999999985              -0.000097845              -0.000970060               0.999999985              -0.000075497              -0.000958655               0.999999985              -0.000069457              -0.000961331               0.999999985              -0.000070636              -0.000974670               0.999999985              -0.000074816              -0.000995631               0.999999985              -0.000079849              -0.001022049               0.999999985              -0.000084591              -0.001052209               0.999999985              -0.000088234              -0.001084887               0.999999985              -0.000090176              -0.001118959               0.999999985              -0.000090017              -0.001153573               0.999999985              -0.000086985              -0.001187640               0.999999985              -0.000080346              -0.001220619               0.999999985              -0.000069969              -0.001252300               0.999999985              -0.000055714              -0.001282481               0.999999985              -0.000037272              -0.001311279               0.999999985              -0.000014768              -0.001338904               0.999999985              -0.000120688              -0.001034041               0.999999985              -0.000071532              -0.001024326               0.999999985              -0.000051758              -0.001020118               0.999999985              -0.000045154              -0.001025364               0.999999985              -0.000044810              -0.001039120               0.999999985              -0.000047324              -0.001059727               0.999999985              -0.000050822              -0.001085653               0.999999985              -0.000054193              -0.001115560               0.999999985              -0.000056930              -0.001148356               0.999999985              -0.000058631              -0.001183188               0.999999985              -0.000058758              -0.001219323               0.999999985              -0.000056505              -0.001255638               0.999999985              -0.000051099              -0.001291320               0.999999985              -0.000041893              -0.001325936               0.999999985              -0.000028605              -0.001359190               0.999999985              -0.000010652              -0.001390891               0.999999985               0.000012973              -0.001421061               0.999999985              -0.000081105              -0.001061176               0.999999985              -0.000046818              -0.001064937               0.999999985              -0.000032001              -0.001067518               0.999999985              -0.000026414              -0.001075913               0.999999985              -0.000025439              -0.001090964               0.999999985              -0.000026605              -0.001111995               0.999999985              -0.000028603              -0.001138118               0.999999985              -0.000030690              -0.001168293               0.999999985              -0.000032468              -0.001201557               0.999999985              -0.000033649              -0.001237300               0.999999985              -0.000033762              -0.001274821               0.999999985              -0.000032273              -0.001313154               0.999999985              -0.000028354              -0.001351566               0.999999985              -0.000021442              -0.001389344               0.999999985              -0.000011189              -0.001426012               0.999999985               0.000003420              -0.001461184               0.999999985               0.000023900              -0.001494559               0.999999985              -0.000040748              -0.001077603               0.999999985              -0.000023150              -0.001090004               0.999999985              -0.000015215              -0.001097397               0.999999985              -0.000012038              -0.001108267               0.999999985              -0.000011282              -0.001124648               0.999999985              -0.000011675              -0.001146466               0.999999985              -0.000012513              -0.001172989               0.999999985              -0.000013430              -0.001203502               0.999999985              -0.000014323              -0.001237274               0.999999985              -0.000014936              -0.001273777               0.999999985              -0.000015010              -0.001312431               0.999999985              -0.000014183              -0.001352258               0.999999985              -0.000012079              -0.001392552               0.999999985              -0.000008477              -0.001432638               0.999999985              -0.000002823              -0.001472013               0.999999985               0.000005438              -0.001510103               0.999999985               0.000017417              -0.001546276               0.999999985               0.000000000              -0.001083170               0.999999985               0.000000000              -0.001098518               0.999999985              -0.000000000              -0.001107613               0.999999985               0.000000000              -0.001119482               0.999999985              -0.000000000              -0.001136334               0.999999985               0.000000000              -0.001158407               0.999999985              -0.000000000              -0.001185207               0.999999985              -0.000000000              -0.001215862               0.999999985               0.000000000              -0.001249823               0.999999985               0.000000000              -0.001286621               0.999999985              -0.000000000              -0.001325738               0.999999985              -0.000000000              -0.001366156               0.999999985              -0.000000000              -0.001407101               0.999999985              -0.000000000              -0.001448038               0.999999985              -0.000000000              -0.001488426               0.999999985               0.000000000              -0.001527670               0.999999985               0.000000000              -0.001564978               0.999999985               0.000436131               0.000000000               0.999999985               0.000477727              -0.000000000               0.999999985               0.000496824              -0.000000000               0.999999985               0.000508171              -0.000000000               0.999999985               0.000517347               0.000000000               0.999999985               0.000526523              -0.000000000               0.999999985               0.000536416               0.000000000               0.999999985               0.000547373              -0.000000000               0.999999985               0.000559303               0.000000000               0.999999985               0.000572116               0.000000000               0.999999985               0.000585763              -0.000000000               0.999999985               0.000600062               0.000000000               0.999999985               0.000614867              -0.000000000               0.999999985               0.000629996               0.000000000               0.999999985               0.000645185               0.000000000               0.999999985               0.000659997               0.000000000               0.999999985               0.000673882               0.000000000               0.999999985               0.000433543              -0.000106065               0.999999985               0.000472389              -0.000088388               0.999999985               0.000489749              -0.000081652               0.999999985               0.000500038              -0.000080355               0.999999985               0.000508608              -0.000082001               0.999999985               0.000517440              -0.000085185               0.999999985               0.000527123              -0.000089205               0.999999985               0.000537777              -0.000093609               0.999999985               0.000549346              -0.000097983               0.999999985               0.000561814              -0.000102284               0.999999985               0.000575032              -0.000106384               0.999999985               0.000588823              -0.000110038               0.999999985               0.000602971              -0.000112772               0.999999985               0.000617257              -0.000114425               0.999999985               0.000631456              -0.000114677               0.999999985               0.000645202              -0.000112822               0.999999985               0.000658040              -0.000108210               0.999999985               0.000425880              -0.000210982               0.999999985               0.000456718              -0.000176156               0.999999985               0.000469309              -0.000163458               0.999999985               0.000476913              -0.000161576               0.999999985               0.000483969              -0.000165381               0.999999985               0.000491802              -0.000172139               0.999999985               0.000500758              -0.000180388               0.999999985               0.000510736              -0.000189241               0.999999985               0.000521542              -0.000198149               0.999999985               0.000533024              -0.000206771               0.999999985               0.000544938              -0.000215020               0.999999985               0.000557104              -0.000222362               0.999999985               0.000569185              -0.000228050               0.999999985               0.000580990              -0.000231689               0.999999985               0.000592314              -0.000232920               0.999999985               0.000602971              -0.000230909               0.999999985               0.000612974              -0.000224648               0.999999985               0.000413419              -0.000313594               0.999999985               0.000431736              -0.000262725               0.999999985               0.000437665              -0.000245460               0.999999985               0.000441760              -0.000244198               0.999999985               0.000446940              -0.000250917               0.999999985               0.000453722              -0.000261770               0.999999985               0.000461898              -0.000274536               0.999999985               0.000471093              -0.000288017               0.999999985               0.000480891              -0.000301463               0.999999985               0.000491008              -0.000314491               0.999999985               0.000501085              -0.000326736               0.999999985               0.000510711              -0.000337584               0.999999985               0.000519715              -0.000346325               0.999999985               0.000528029              -0.000352693               0.999999985               0.000535716              -0.000356368               0.999999985               0.000542802              -0.000356731               0.999999985               0.000549442              -0.000353191               0.999999985               0.000396548              -0.000412845               0.999999985               0.000398914              -0.000347665               0.999999985               0.000397522              -0.000327712               0.999999985               0.000398408              -0.000328273               0.999999985               0.000402191              -0.000338625               0.999999985               0.000408229              -0.000353987               0.999999985               0.000415813              -0.000371513               0.999999985               0.000424200              -0.000389747               0.999999985               0.000432896              -0.000407721               0.999999985               0.000441396              -0.000424914               0.999999985               0.000449205              -0.000440891               0.999999985               0.000456101              -0.000455136               0.999999985               0.000462058              -0.000467208               0.999999985               0.000467125              -0.000476903               0.999999985               0.000471433              -0.000484189               0.999999985               0.000475208              -0.000488916               0.999999985               0.000478793              -0.000491241               0.999999985               0.000375570              -0.000507847               0.999999985               0.000360047              -0.000430775               0.999999985               0.000352036              -0.000410029               0.999999985               0.000350826              -0.000413330               0.999999985               0.000354119              -0.000427865               0.999999985               0.000360111              -0.000447840               0.999999985               0.000367491              -0.000470062               0.999999985               0.000375321              -0.000492888               0.999999985               0.000382881              -0.000515153               0.999999985               0.000389697              -0.000536253               0.999999985               0.000395424              -0.000555818               0.999999985               0.000399856              -0.000573368               0.999999985               0.000402993              -0.000588797               0.999999985               0.000405152              -0.000602279               0.999999985               0.000406671              -0.000613977               0.999999985               0.000407711              -0.000624002               0.999999985               0.000408391              -0.000632851               0.999999985               0.000351011              -0.000597629               0.999999985               0.000317253              -0.000511934               0.999999985               0.000304350              -0.000491956               0.999999985               0.000302545              -0.000498613               0.999999985               0.000306502              -0.000517370               0.999999985               0.000313195              -0.000541777               0.999999985               0.000320760              -0.000568375               0.999999985               0.000328171              -0.000595446               0.999999985               0.000334716              -0.000621659               0.999999985               0.000339946              -0.000646346               0.999999985               0.000343417              -0.000669286               0.999999985               0.000345208              -0.000690254               0.999999985               0.000345661              -0.000709351               0.999999985               0.000345081              -0.000727134               0.999999985               0.000343521              -0.000743528               0.999999985               0.000341118              -0.000758564               0.999999985               0.000337804              -0.000772603               0.999999985               0.000323450              -0.000681216               0.999999985               0.000272654              -0.000590921               0.999999985               0.000257171              -0.000572871               0.999999985               0.000256598              -0.000582904               0.999999985               0.000262127              -0.000605608               0.999999985               0.000269871              -0.000634162               0.999999985               0.000277814              -0.000664800               0.999999985               0.000284846              -0.000695701               0.999999985               0.000290152              -0.000725505               0.999999985               0.000293271              -0.000753640               0.999999985               0.000294105              -0.000779977               0.999999985               0.000292933              -0.000804562               0.999999985               0.000289947              -0.000827783               0.999999985               0.000285396              -0.000849658               0.999999985               0.000279631              -0.000870025               0.999999985               0.000272743              -0.000889137               0.999999985               0.000264633              -0.000906937               0.999999985               0.000293821              -0.000757262               0.999999985               0.000227845              -0.000667639               0.999999985               0.000213070              -0.000651639               0.999999985               0.000214871              -0.000664761               0.999999985               0.000222479              -0.000691080               0.999999985               0.000231407              -0.000723419               0.999999985               0.000239647              -0.000757916               0.999999985               0.000245876              -0.000792386               0.999999985               0.000249273              -0.000825642               0.999999985               0.000249586              -0.000857142               0.999999985               0.000246887              -0.000887062               0.999999985               0.000241637              -0.000915403               0.999999985               0.000234321              -0.000941698               0.999999985               0.000225482              -0.000966247               0.999999985               0.000215440              -0.000989420               0.999999985               0.000204397              -0.001011213               0.999999985               0.000192666              -0.001031748               0.999999985               0.000263780              -0.000828599               0.999999985               0.000191242              -0.000750762               0.999999985               0.000173320              -0.000730051               0.999999985               0.000173629              -0.000737349               0.999999985               0.000180337              -0.000758624               0.999999985               0.000188728              -0.000787146               0.999999985               0.000196847              -0.000819248               0.999999985               0.000203429              -0.000852583               0.999999985               0.000207518              -0.000885772               0.999999985               0.000208509              -0.000917926               0.999999985               0.000206359              -0.000948974               0.999999985               0.000201365              -0.000978632               0.999999985               0.000193785              -0.001006604               0.999999985               0.000184051              -0.001032918               0.999999985               0.000172899              -0.001057644               0.999999985               0.000160667              -0.001081207               0.999999985               0.000148072              -0.001103402               0.999999985               0.000230878              -0.000893120               0.999999985               0.000157443              -0.000830446               0.999999985               0.000136517              -0.000809719               0.999999985               0.000134619              -0.000812993               0.999999985               0.000139828              -0.000830141               0.999999985               0.000147197              -0.000855252               0.999999985               0.000154735              -0.000884957               0.999999985               0.000161197              -0.000917096               0.999999985               0.000165620              -0.000949990               0.999999985               0.000167246              -0.000982673               0.999999985               0.000165715              -0.001014685               0.999999985               0.000161129              -0.001045501               0.999999985               0.000153656              -0.001074811               0.999999985               0.000143253              -0.001102641               0.999999985               0.000130412              -0.001128986               0.999999985               0.000115962              -0.001154137               0.999999985               0.000100601              -0.001178197               0.999999985               0.000195847              -0.000949464               0.999999985               0.000126334              -0.000904514               0.999999985               0.000103755              -0.000887160               0.999999985               0.000099491              -0.000888960               0.999999985               0.000102700              -0.000903349               0.999999985               0.000108579              -0.000925885               0.999999985               0.000115037              -0.000953603               0.999999985               0.000120947              -0.000984541               0.999999985               0.000125166              -0.001017286               0.999999985               0.000127035              -0.001050604               0.999999985               0.000126295              -0.001083779               0.999999985               0.000122428              -0.001115929               0.999999985               0.000115143              -0.001146847               0.999999985               0.000104487              -0.001176300               0.999999985               0.000090516              -0.001204230               0.999999985               0.000073639              -0.001230988               0.999999985               0.000054534              -0.001256704               0.999999985               0.000159042              -0.000996636               0.999999985               0.000097845              -0.000970060               0.999999985               0.000075497              -0.000958655               0.999999985               0.000069457              -0.000961331               0.999999985               0.000070636              -0.000974670               0.999999985               0.000074816              -0.000995631               0.999999985               0.000079849              -0.001022049               0.999999985               0.000084591              -0.001052209               0.999999985               0.000088234              -0.001084887               0.999999985               0.000090176              -0.001118959               0.999999985               0.000090017              -0.001153573               0.999999985               0.000086985              -0.001187640               0.999999985               0.000080346              -0.001220619               0.999999985               0.000069969              -0.001252300               0.999999985               0.000055714              -0.001282481               0.999999985               0.000037272              -0.001311279               0.999999985               0.000014768              -0.001338904               0.999999985               0.000120688              -0.001034041               0.999999985               0.000071532              -0.001024326               0.999999985               0.000051758              -0.001020118               0.999999985               0.000045154              -0.001025364               0.999999985               0.000044810              -0.001039120               0.999999985               0.000047324              -0.001059727               0.999999985               0.000050822              -0.001085653               0.999999985               0.000054193              -0.001115560               0.999999985               0.000056930              -0.001148356               0.999999985               0.000058631              -0.001183188               0.999999985               0.000058758              -0.001219323               0.999999985               0.000056505              -0.001255638               0.999999985               0.000051099              -0.001291320               0.999999985               0.000041893              -0.001325936               0.999999985               0.000028605              -0.001359190               0.999999985               0.000010652              -0.001390891               0.999999985              -0.000012973              -0.001421061               0.999999985               0.000081105              -0.001061176               0.999999985               0.000046818              -0.001064937               0.999999985               0.000032001              -0.001067518               0.999999985               0.000026414              -0.001075913               0.999999985               0.000025439              -0.001090964               0.999999985               0.000026605              -0.001111995               0.999999985               0.000028603              -0.001138118               0.999999985               0.000030690              -0.001168293               0.999999985               0.000032468              -0.001201557               0.999999985               0.000033649              -0.001237300               0.999999985               0.000033762              -0.001274821               0.999999985               0.000032273              -0.001313154               0.999999985               0.000028354              -0.001351566               0.999999985               0.000021442              -0.001389344               0.999999985               0.000011189              -0.001426012               0.999999985              -0.000003420              -0.001461184               0.999999985              -0.000023900              -0.001494559               0.999999985               0.000040748              -0.001077603               0.999999985               0.000023150              -0.001090004               0.999999985               0.000015215              -0.001097397               0.999999985               0.000012038              -0.001108267               0.999999985               0.000011282              -0.001124648               0.999999985               0.000011675              -0.001146466               0.999999985               0.000012513              -0.001172989               0.999999985               0.000013430              -0.001203502               0.999999985               0.000014323              -0.001237274               0.999999985               0.000014936              -0.001273777               0.999999985               0.000015010              -0.001312431               0.999999985               0.000014183              -0.001352258               0.999999985               0.000012079              -0.001392552               0.999999985               0.000008477              -0.001432638               0.999999985               0.000002823              -0.001472013               0.999999985              -0.000005438              -0.001510103               0.999999985              -0.000017417              -0.001546276               0.999999985               0.000000000              -0.001083170               0.999999985               0.000000000              -0.001098518               0.999999985              -0.000000000              -0.001107613               0.999999985               0.000000000              -0.001119482               0.999999985              -0.000000000              -0.001136334               0.999999985               0.000000000              -0.001158407               0.999999985              -0.000000000              -0.001185207               0.999999985              -0.000000000              -0.001215862               0.999999985               0.000000000              -0.001249823               0.999999985               0.000000000              -0.001286621               0.999999985              -0.000000000              -0.001325738               0.999999985              -0.000000000              -0.001366156               0.999999985              -0.000000000              -0.001407101               0.999999985              -0.000000000              -0.001448038               0.999999985              -0.000000000              -0.001488426               0.999999985               0.000000000              -0.001527670               0.999999985               0.000000000              -0.001564978               0.999999985               0.000436131               0.000000000               0.999999985               0.000477727              -0.000000000               0.999999985               0.000496824              -0.000000000               0.999999985               0.000508171              -0.000000000               0.999999985               0.000517347               0.000000000               0.999999985               0.000526523              -0.000000000               0.999999985               0.000536416               0.000000000               0.999999985               0.000547373              -0.000000000               0.999999985               0.000559303               0.000000000               0.999999985               0.000572116               0.000000000               0.999999985               0.000585763              -0.000000000               0.999999985               0.000600062               0.000000000               0.999999985               0.000614867              -0.000000000               0.999999985               0.000629996               0.000000000               0.999999985               0.000645185               0.000000000               0.999999985               0.000659997               0.000000000               0.999999985               0.000673882               0.000000000               0.999999985               0.000433543               0.000106065               0.999999985               0.000472389               0.000088388               0.999999985               0.000489749               0.000081652               0.999999985               0.000500038               0.000080355               0.999999985               0.000508608               0.000082001               0.999999985               0.000517440               0.000085185               0.999999985               0.000527123               0.000089205               0.999999985               0.000537777               0.000093609               0.999999985               0.000549346               0.000097983               0.999999985               0.000561814               0.000102284               0.999999985               0.000575032               0.000106384               0.999999985               0.000588823               0.000110038               0.999999985               0.000602971               0.000112772               0.999999985               0.000617257               0.000114425               0.999999985               0.000631456               0.000114677               0.999999985               0.000645202               0.000112822               0.999999985               0.000658040               0.000108210               0.999999985               0.000425880               0.000210982               0.999999985               0.000456718               0.000176156               0.999999985               0.000469309               0.000163458               0.999999985               0.000476913               0.000161576               0.999999985               0.000483969               0.000165381               0.999999985               0.000491802               0.000172139               0.999999985               0.000500758               0.000180388               0.999999985               0.000510736               0.000189241               0.999999985               0.000521542               0.000198149               0.999999985               0.000533024               0.000206771               0.999999985               0.000544938               0.000215020               0.999999985               0.000557104               0.000222362               0.999999985               0.000569185               0.000228050               0.999999985               0.000580990               0.000231689               0.999999985               0.000592314               0.000232920               0.999999985               0.000602971               0.000230909               0.999999985               0.000612974               0.000224648               0.999999985               0.000413419               0.000313594               0.999999985               0.000431736               0.000262725               0.999999985               0.000437665               0.000245460               0.999999985               0.000441760               0.000244198               0.999999985               0.000446940               0.000250917               0.999999985               0.000453722               0.000261770               0.999999985               0.000461898               0.000274536               0.999999985               0.000471093               0.000288017               0.999999985               0.000480891               0.000301463               0.999999985               0.000491008               0.000314491               0.999999985               0.000501085               0.000326736               0.999999985               0.000510711               0.000337584               0.999999985               0.000519715               0.000346325               0.999999985               0.000528029               0.000352693               0.999999985               0.000535716               0.000356368               0.999999985               0.000542802               0.000356731               0.999999985               0.000549442               0.000353191               0.999999985               0.000396548               0.000412845               0.999999985               0.000398914               0.000347665               0.999999985               0.000397522               0.000327712               0.999999985               0.000398408               0.000328273               0.999999985               0.000402191               0.000338625               0.999999985               0.000408229               0.000353987               0.999999985               0.000415813               0.000371513               0.999999985               0.000424200               0.000389747               0.999999985               0.000432896               0.000407721               0.999999985               0.000441396               0.000424914               0.999999985               0.000449205               0.000440891               0.999999985               0.000456101               0.000455136               0.999999985               0.000462058               0.000467208               0.999999985               0.000467125               0.000476903               0.999999985               0.000471433               0.000484189               0.999999985               0.000475208               0.000488916               0.999999985               0.000478793               0.000491241               0.999999985               0.000375570               0.000507847               0.999999985               0.000360047               0.000430775               0.999999985               0.000352036               0.000410029               0.999999985               0.000350826               0.000413330               0.999999985               0.000354119               0.000427865               0.999999985               0.000360111               0.000447840               0.999999985               0.000367491               0.000470062               0.999999985               0.000375321               0.000492888               0.999999985               0.000382881               0.000515153               0.999999985               0.000389697               0.000536253               0.999999985               0.000395424               0.000555818               0.999999985               0.000399856               0.000573368               0.999999985               0.000402993               0.000588797               0.999999985               0.000405152               0.000602279               0.999999985               0.000406671               0.000613977               0.999999985               0.000407711               0.000624002               0.999999985               0.000408391               0.000632851               0.999999985               0.000351011               0.000597629               0.999999985               0.000317253               0.000511934               0.999999985               0.000304350               0.000491956               0.999999985               0.000302545               0.000498613               0.999999985               0.000306502               0.000517370               0.999999985               0.000313195               0.000541777               0.999999985               0.000320760               0.000568375               0.999999985               0.000328171               0.000595446               0.999999985               0.000334716               0.000621659               0.999999985               0.000339946               0.000646346               0.999999985               0.000343417               0.000669286               0.999999985               0.000345208               0.000690254               0.999999985               0.000345661               0.000709351               0.999999985               0.000345081               0.000727134               0.999999985               0.000343521               0.000743528               0.999999985               0.000341118               0.000758564               0.999999985               0.000337804               0.000772603               0.999999985               0.000323450               0.000681216               0.999999985               0.000272654               0.000590921               0.999999985               0.000257171               0.000572871               0.999999985               0.000256598               0.000582904               0.999999985               0.000262127               0.000605608               0.999999985               0.000269871               0.000634162               0.999999985               0.000277814               0.000664800               0.999999985               0.000284846               0.000695701               0.999999985               0.000290152               0.000725505               0.999999985               0.000293271               0.000753640               0.999999985               0.000294105               0.000779977               0.999999985               0.000292933               0.000804562               0.999999985               0.000289947               0.000827783               0.999999985               0.000285396               0.000849658               0.999999985               0.000279631               0.000870025               0.999999985               0.000272743               0.000889137               0.999999985               0.000264633               0.000906937               0.999999985               0.000293821               0.000757262               0.999999985               0.000227845               0.000667639               0.999999985               0.000213070               0.000651639               0.999999985               0.000214871               0.000664761               0.999999985               0.000222479               0.000691080               0.999999985               0.000231407               0.000723419               0.999999985               0.000239647               0.000757916               0.999999985               0.000245876               0.000792386               0.999999985               0.000249273               0.000825642               0.999999985               0.000249586               0.000857142               0.999999985               0.000246887               0.000887062               0.999999985               0.000241637               0.000915403               0.999999985               0.000234321               0.000941698               0.999999985               0.000225482               0.000966247               0.999999985               0.000215440               0.000989420               0.999999985               0.000204397               0.001011213               0.999999985               0.000192666               0.001031748               0.999999985               0.000263780               0.000828599               0.999999985               0.000191242               0.000750762               0.999999985               0.000173320               0.000730051               0.999999985               0.000173629               0.000737349               0.999999985               0.000180337               0.000758624               0.999999985               0.000188728               0.000787146               0.999999985               0.000196847               0.000819248               0.999999985               0.000203429               0.000852583               0.999999985               0.000207518               0.000885772               0.999999985               0.000208509               0.000917926               0.999999985               0.000206359               0.000948974               0.999999985               0.000201365               0.000978632               0.999999985               0.000193785               0.001006604               0.999999985               0.000184051               0.001032918               0.999999985               0.000172899               0.001057644               0.999999985               0.000160667               0.001081207               0.999999985               0.000148072               0.001103402               0.999999985               0.000230878               0.000893120               0.999999985               0.000157443               0.000830446               0.999999985               0.000136517               0.000809719               0.999999985               0.000134619               0.000812993               0.999999985               0.000139828               0.000830141               0.999999985               0.000147197               0.000855252               0.999999985               0.000154735               0.000884957               0.999999985               0.000161197               0.000917096               0.999999985               0.000165620               0.000949990               0.999999985               0.000167246               0.000982673               0.999999985               0.000165715               0.001014685               0.999999985               0.000161129               0.001045501               0.999999985               0.000153656               0.001074811               0.999999985               0.000143253               0.001102641               0.999999985               0.000130412               0.001128986               0.999999985               0.000115962               0.001154137               0.999999985               0.000100601               0.001178197               0.999999985               0.000195847               0.000949464               0.999999985               0.000126334               0.000904514               0.999999985               0.000103755               0.000887160               0.999999985               0.000099491               0.000888960               0.999999985               0.000102700               0.000903349               0.999999985               0.000108579               0.000925885               0.999999985               0.000115037               0.000953603               0.999999985               0.000120947               0.000984541               0.999999985               0.000125166               0.001017286               0.999999985               0.000127035               0.001050604               0.999999985               0.000126295               0.001083779               0.999999985               0.000122428               0.001115929               0.999999985               0.000115143               0.001146847               0.999999985               0.000104487               0.001176300               0.999999985               0.000090516               0.001204230               0.999999985               0.000073639               0.001230988               0.999999985               0.000054534               0.001256704               0.999999985               0.000159042               0.000996636               0.999999985               0.000097845               0.000970060               0.999999985               0.000075497               0.000958655               0.999999985               0.000069457               0.000961331               0.999999985               0.000070636               0.000974670               0.999999985               0.000074816               0.000995631               0.999999985               0.000079849               0.001022049               0.999999985               0.000084591               0.001052209               0.999999985               0.000088234               0.001084887               0.999999985               0.000090176               0.001118959               0.999999985               0.000090017               0.001153573               0.999999985               0.000086985               0.001187640               0.999999985               0.000080346               0.001220619               0.999999985               0.000069969               0.001252300               0.999999985               0.000055714               0.001282481               0.999999985               0.000037272               0.001311279               0.999999985               0.000014768               0.001338904               0.999999985               0.000120688               0.001034041               0.999999985               0.000071532               0.001024326               0.999999985               0.000051758               0.001020118               0.999999985               0.000045154               0.001025364               0.999999985               0.000044810               0.001039120               0.999999985               0.000047324               0.001059727               0.999999985               0.000050822               0.001085653               0.999999985               0.000054193               0.001115560               0.999999985               0.000056930               0.001148356               0.999999985               0.000058631               0.001183188               0.999999985               0.000058758               0.001219323               0.999999985               0.000056505               0.001255638               0.999999985               0.000051099               0.001291320               0.999999985               0.000041893               0.001325936               0.999999985               0.000028605               0.001359190               0.999999985               0.000010652               0.001390891               0.999999985              -0.000012973               0.001421061               0.999999985               0.000081105               0.001061176               0.999999985               0.000046818               0.001064937               0.999999985               0.000032001               0.001067518               0.999999985               0.000026414               0.001075913               0.999999985               0.000025439               0.001090964               0.999999985               0.000026605               0.001111995               0.999999985               0.000028603               0.001138118               0.999999985               0.000030690               0.001168293               0.999999985               0.000032468               0.001201557               0.999999985               0.000033649               0.001237300               0.999999985               0.000033762               0.001274821               0.999999985               0.000032273               0.001313154               0.999999985               0.000028354               0.001351566               0.999999985               0.000021442               0.001389344               0.999999985               0.000011189               0.001426012               0.999999985              -0.000003420               0.001461184               0.999999985              -0.000023900               0.001494559               0.999999985               0.000040748               0.001077603               0.999999985               0.000023150               0.001090004               0.999999985               0.000015215               0.001097397               0.999999985               0.000012038               0.001108267               0.999999985               0.000011282               0.001124648               0.999999985               0.000011675               0.001146466               0.999999985               0.000012513               0.001172989               0.999999985               0.000013430               0.001203502               0.999999985               0.000014323               0.001237274               0.999999985               0.000014936               0.001273777               0.999999985               0.000015010               0.001312431               0.999999985               0.000014183               0.001352258               0.999999985               0.000012079               0.001392552               0.999999985               0.000008477               0.001432638               0.999999985               0.000002823               0.001472013               0.999999985              -0.000005438               0.001510103               0.999999985              -0.000017417               0.001546276               0.999999985              -0.000000000               0.001083170               0.999999985               0.000000000               0.001098518               0.999999985              -0.000000000               0.001107613               0.999999985               0.000000000               0.001119482               0.999999985              -0.000000000               0.001136334               0.999999985              -0.000000000               0.001158407               0.999999985               0.000000000               0.001185207               0.999999985              -0.000000000               0.001215862               0.999999985              -0.000000000               0.001249823               0.999999985               0.000000000               0.001286621               0.999999985               0.000000000               0.001325738               0.999999985              -0.000000000               0.001366156               0.999999985              -0.000000000               0.001407101               0.999999985               0.000000000               0.001448038               0.999999985               0.000000000               0.001488426               0.999999985              -0.000000000               0.001527670               0.999999985              -0.000000000               0.001564978               0.999999985 </DataArray>
<DataArray type="Float64"                                    Name="defo"                                                      NumberOfComponents=" 3" format="ascii">
             -0.000436131              -0.000000000               0.999999985              -0.000477727               0.000000000               0.999999985              -0.000496824               0.000000000               0.999999985              -0.000508171               0.000000000               0.999999985              -0.000517347              -0.000000000               0.999999985              -0.000526523              -0.000000000               0.999999985              -0.000536416              -0.000000000               0.999999985              -0.000547373              -0.000000000               0.999999985              -0.000559303              -0.000000000               0.999999985              -0.000572116               0.000000000               0.999999985              -0.000585763               0.000000000               0.999999985              -0.000600062               0.000000000               0.999999985              -0.000614867               0.000000000               0.999999985              -0.000629996               0.000000000               0.999999985              -0.000645185               0.000000000               0.999999985              -0.000659997               0.000000000               0.999999985              -0.000673882              -0.000000000               0.999999985              -0.000433543               0.000106065               0.999999985              -0.000472389               0.000088388               0.999999985              -0.000489749               0.000081652               0.999999985              -0.000500038               0.000080355               0.999999985              -0.000508608               0.000082001               0.999999985              -0.000517440               0.000085185               0.999999985              -0.000527123               0.000089205               0.999999985              -0.000537777               0.000093609               0.999999985              -0.000549346               0.000097983               0.999999985              -0.000561814               0.000102284               0.999999985              -0.000575032               0.000106384               0.999999985              -0.000588823               0.000110038               0.999999985              -0.000602971               0.000112772               0.999999985              -0.000617257               0.000114425               0.999999985              -0.000631456               0.000114677               0.999999985              -0.000645202               0.000112822               0.999999985              -0.000658040               0.000108210               0.999999985              -0.000425880               0.000210982               0.999999985              -0.000456718               0.000176156               0.999999985              -0.000469309               0.000163458               0.999999985              -0.000476913               0.000161576               0.999999985              -0.000483969               0.000165381               0.999999985              -0.000491802               0.000172139               0.999999985              -0.000500758               0.000180388               0.999999985              -0.000510736               0.000189241               0.999999985              -0.000521542               0.000198149               0.999999985              -0.000533024               0.000206771               0.999999985              -0.000544938               0.000215020               0.999999985              -0.000557104               0.000222362               0.999999985              -0.000569185               0.000228050               0.999999985              -0.000580990               0.000231689               0.999999985              -0.000592314               0.000232920               0.999999985              -0.000602971               0.000230909               0.999999985              -0.000612974               0.000224648               0.999999985              -0.000413419               0.000313594               0.999999985              -0.000431736               0.000262725               0.999999985              -0.000437665               0.000245460               0.999999985              -0.000441760               0.000244198               0.999999985              -0.000446940               0.000250917               0.999999985              -0.000453722               0.000261770               0.999999985              -0.000461898               0.000274536               0.999999985              -0.000471093               0.000288017               0.999999985              -0.000480891               0.000301463               0.999999985              -0.000491008               0.000314491               0.999999985              -0.000501085               0.000326736               0.999999985              -0.000510711               0.000337584               0.999999985              -0.000519715               0.000346325               0.999999985              -0.000528029               0.000352693               0.999999985              -0.000535716               0.000356368               0.999999985              -0.000542802               0.000356731               0.999999985              -0.000549442               0.000353191               0.999999985              -0.000396548               0.000412845               0.999999985              -0.000398914               0.000347665               0.999999985              -0.000397522               0.000327712               0.999999985              -0.000398408               0.000328273               0.999999985              -0.000402191               0.000338625               0.999999985              -0.000408229               0.000353987               0.999999985              -0.000415813               0.000371513               0.999999985              -0.000424200               0.000389747               0.999999985              -0.000432896               0.000407721               0.999999985              -0.000441396               0.000424914               0.999999985              -0.000449205               0.000440891               0.999999985              -0.000456101               0.000455136               0.999999985              -0.000462058               0.000467208               0.999999985              -0.000467125               0.000476903               0.999999985              -0.000471433               0.000484189               0.999999985              -0.000475208               0.000488916               0.999999985              -0.000478793               0.000491241               0.999999985              -0.000375570               0.000507847               0.999999985              -0.000360047               0.000430775               0.999999985              -0.000352036               0.000410029               0.999999985              -0.000350826               0.000413330               0.999999985              -0.000354119               0.000427865               0.999999985              -0.000360111               0.000447840               0.999999985              -0.000367491               0.000470062               0.999999985              -0.000375321               0.000492888               0.999999985              -0.000382881               0.000515153               0.999999985              -0.000389697               0.000536253               0.999999985              -0.000395424               0.000555818               0.999999985              -0.000399856               0.000573368               0.999999985              -0.000402993               0.000588797               0.999999985              -0.000405152               0.000602279               0.999999985              -0.000406671               0.000613977               0.999999985              -0.000407711               0.000624002               0.999999985              -0.000408391               0.000632851               0.999999985              -0.000351011               0.000597629               0.999999985              -0.000317253               0.000511934               0.999999985              -0.000304350               0.000491956               0.999999985              -0.000302545               0.000498613               0.999999985              -0.000306502               0.000517370               0.999999985              -0.000313195               0.000541777               0.999999985              -0.000320760               0.000568375               0.999999985              -0.000328171               0.000595446               0.999999985              -0.000334716               0.000621659               0.999999985              -0.000339946               0.000646346               0.999999985              -0.000343417               0.000669286               0.999999985              -0.000345208               0.000690254               0.999999985              -0.000345661               0.000709351               0.999999985              -0.000345081               0.000727134               0.999999985              -0.000343521               0.000743528               0.999999985              -0.000341118               0.000758564               0.999999985              -0.000337804               0.000772603               0.999999985              -0.000323450               0.000681216               0.999999985              -0.000272654               0.000590921               0.999999985              -0.000257171               0.000572871               0.999999985              -0.000256598               0.000582904               0.999999985              -0.000262127               0.000605608               0.999999985              -0.000269871               0.000634162               0.999999985              -0.000277814               0.000664800               0.999999985              -0.000284846               0.000695701               0.999999985              -0.000290152               0.000725505               0.999999985              -0.000293271               0.000753640               0.999999985              -0.000294105               0.000779977               0.999999985              -0.000292933               0.000804562               0.999999985              -0.000289947               0.000827783               0.999999985              -0.000285396               0.000849658               0.999999985              -0.000279631               0.000870025               0.999999985              -0.000272743               0.000889137               0.999999985              -0.000264633               0.000906937               0.999999985              -0.000293821               0.000757262               0.999999985              -0.000227845               0.000667639               0.999999985              -0.000213070               0.000651639               0.999999985              -0.000214871               0.000664761               0.999999985              -0.000222479               0.000691080               0.999999985              -0.000231407               0.000723419               0.999999985              -0.000239647               0.000757916               0.999999985              -0.000245876               0.000792386               0.999999985              -0.000249273               0.000825642               0.999999985              -0.000249586               0.000857142               0.999999985              -0.000246887               0.000887062               0.999999985              -0.000241637               0.000915403               0.999999985              -0.000234321               0.000941698               0.999999985              -0.000225482               0.000966247               0.999999985              -0.000215440               0.000989420               0.999999985              -0.000204397               0.001011213               0.999999985              -0.000192666               0.001031748               0.999999985              -0.000263780               0.000828599               0.999999985              -0.000191242               0.000750762               0.999999985              -0.000173320               0.000730051               0.999999985              -0.000173629               0.000737349               0.999999985              -0.000180337               0.000758624               0.999999985              -0.000188728               0.000787146               0.999999985              -0.000196847               0.000819248               0.999999985              -0.000203429               0.000852583               0.999999985              -0.000207518               0.000885772               0.999999985              -0.000208509               0.000917926               0.999999985              -0.000206359               0.000948974               0.999999985              -0.000201365               0.000978632               0.999999985              -0.000193785               0.001006604               0.999999985              -0.000184051               0.001032918               0.999999985              -0.000172899               0.001057644               0.999999985              -0.000160667               0.001081207               0.999999985              -0.000148072               0.001103402               0.999999985              -0.000230878               0.000893120               0.999999985              -0.000157443               0.000830446               0.999999985              -0.000136517               0.000809719               0.999999985              -0.000134619               0.000812993               0.999999985              -0.000139828               0.000830141               0.999999985              -0.000147197               0.000855252               0.999999985              -0.000154735               0.000884957               0.999999985              -0.000161197               0.000917096               0.999999985              -0.000165620               0.000949990               0.999999985              -0.000167246               0.000982673               0.999999985              -0.000165715               0.001014685               0.999999985              -0.000161129               0.001045501               0.999999985              -0.000153656               0.001074811               0.999999985              -0.000143253               0.001102641               0.999999985              -0.000130412               0.001128986               0.999999985              -0.000115962               0.001154137               0.999999985              -0.000100601               0.001178197               0.999999985              -0.000195847               0.000949464               0.999999985              -0.000126334               0.000904514               0.999999985              -0.000103755               0.000887160               0.999999985              -0.000099491               0.000888960               0.999999985              -0.000102700               0.000903349               0.999999985              -0.000108579               0.000925885               0.999999985              -0.000115037               0.000953603               0.999999985              -0.000120947               0.000984541               0.999999985              -0.000125166               0.001017286               0.999999985              -0.000127035               0.001050604               0.999999985              -0.000126295               0.001083779               0.999999985              -0.000122428               0.001115929               0.999999985              -0.000115143               0.001146847               0.999999985              -0.000104487               0.001176300               0.999999985              -0.000090516               0.001204230               0.999999985              -0.000073639               0.001230988               0.999999985              -0.000054534               0.001256704               0.999999985              -0.000159042               0.000996636               0.999999985              -0.000097845               0.000970060               0.999999985              -0.000075497               0.000958655               0.999999985              -0.000069457               0.000961331               0.999999985              -0.000070636               0.000974670               0.999999985              -0.000074816               0.000995631               0.999999985              -0.000079849               0.001022049               0.999999985              -0.000084591               0.001052209               0.999999985              -0.000088234               0.001084887               0.999999985              -0.000090176               0.001118959               0.999999985              -0.000090017               0.001153573               0.999999985              -0.000086985               0.001187640               0.999999985              -0.000080346               0.001220619               0.999999985              -0.000069969               0.001252300               0.999999985              -0.000055714               0.001282481               0.999999985              -0.000037272               0.001311279               0.999999985              -0.000014768               0.001338904               0.999999985              -0.000120688               0.001034041               0.999999985              -0.000071532               0.001024326               0.999999985              -0.000051758               0.001020118               0.999999985              -0.000045154               0.001025364               0.999999985              -0.000044810               0.001039120               0.999999985              -0.000047324               0.001059727               0.999999985              -0.000050822               0.001085653               0.999999985              -0.000054193               0.001115560               0.999999985              -0.000056930               0.001148356               0.999999985              -0.000058631               0.001183188               0.999999985              -0.000058758               0.001219323               0.999999985              -0.000056505               0.001255638               0.999999985              -0.000051099               0.001291320               0.999999985              -0.000041893               0.001325936               0.999999985              -0.000028605               0.001359190               0.999999985              -0.000010652               0.001390891               0.999999985               0.000012973               0.001421061               0.999999985              -0.000081105               0.001061176               0.999999985              -0.000046818               0.001064937               0.999999985              -0.000032001               0.001067518               0.999999985              -0.000026414               0.001075913               0.999999985              -0.000025439               0.001090964               0.999999985              -0.000026605               0.001111995               0.999999985              -0.000028603               0.001138118               0.999999985              -0.000030690               0.001168293               0.999999985              -0.000032468               0.001201557               0.999999985              -0.000033649               0.001237300               0.999999985              -0.000033762               0.001274821               0.999999985              -0.000032273               0.001313154               0.999999985              -0.000028354               0.001351566               0.999999985              -0.000021442               0.001389344               0.999999985              -0.000011189               0.001426012               0.999999985               0.000003420               0.001461184               0.999999985               0.000023900               0.001494559               0.999999985              -0.000040748               0.001077603               0.999999985              -0.000023150               0.001090004               0.999999985              -0.000015215               0.001097397               0.999999985              -0.000012038               0.001108267               0.999999985              -0.000011282               0.001124648               0.999999985              -0.000011675               0.001146466               0.999999985              -0.000012513               0.001172989               0.999999985              -0.000013430               0.001203502               0.999999985              -0.000014323               0.001237274               0.999999985              -0.000014936               0.001273777               0.999999985              -0.000015010               0.001312431               0.999999985              -0.000014183               0.001352258               0.999999985              -0.000012079               0.001392552               0.999999985              -0.000008477               0.001432638               0.999999985              -0.000002823               0.001472013               0.999999985               0.000005438               0.001510103               0.999999985               0.000017417               0.001546276               0.999999985              -0.000000000               0.001083170               0.999999985               0.000000000               0.001098518               0.999999985              -0.000000000               0.001107613               0.999999985               0.000000000               0.001119482               0.999999985              -0.000000000               0.001136334               0.999999985              -0.000000000               0.001158407               0.999999985               0.000000000               0.001185207               0.999999985              -0.000000000               0.001215862               0.999999985              -0.000000000               0.001249823               0.999999985               0.000000000               0.001286621               0.999999985               0.000000000               0.001325738               0.999999985              -0.000000000               0.001366156               0.999999985              -0.000000000               0.001407101               0.999999985               0.000000000               0.001448038               0.999999985               0.000000000               0.001488426               0.999999985              -0.000000000               0.001527670               0.999999985              -0.000000000               0.001564978               0.999999985              -0.000436131              -0.000000000               0.999999985              -0.000477727               0.000000000               0.999999985              -0.000496824               0.000000000               0.999999985              -0.000508171               0.000000000               0.999999985              -0.000517347              -0.000000000               0.999999985              -0.000526523              -0.000000000               0.999999985              -0.000536416              -0.000000000               0.999999985              -0.000547373              -0.000000000               0.999999985              -0.000559303              -0.000000000               0.999999985              -0.000572116               0.000000000               0.999999985              -0.000585763               0.000000000               0.999999985              -0.000600062               0.000000000               0.999999985              -0.000614867               0.000000000               0.999999985              -0.000629996               0.000000000               0.999999985              -0.000645185               0.000000000               0.999999985              -0.000659997               0.000000000               0.999999985              -0.000673882              -0.000000000               0.999999985              -0.000433543              -0.000106065               0.999999985              -0.000472389              -0.000088388               0.999999985              -0.000489749              -0.000081652               0.999999985              -0.000500038              -0.000080355               0.999999985              -0.000508608              -0.000082001               0.999999985              -0.000517440              -0.000085185               0.999999985              -0.000527123              -0.000089205               0.999999985              -0.000537777              -0.000093609               0.999999985              -0.000549346              -0.000097983               0.999999985              -0.000561814              -0.000102284               0.999999985              -0.000575032              -0.000106384               0.999999985              -0.000588823              -0.000110038               0.999999985              -0.000602971              -0.000112772               0.999999985              -0.000617257              -0.000114425               0.999999985              -0.000631456              -0.000114677               0.999999985              -0.000645202              -0.000112822               0.999999985              -0.000658040              -0.000108210               0.999999985              -0.000425880              -0.000210982               0.999999985              -0.000456718              -0.000176156               0.999999985              -0.000469309              -0.000163458               0.999999985              -0.000476913              -0.000161576               0.999999985              -0.000483969              -0.000165381               0.999999985              -0.000491802              -0.000172139               0.999999985              -0.000500758              -0.000180388               0.999999985              -0.000510736              -0.000189241               0.999999985              -0.000521542              -0.000198149               0.999999985              -0.000533024              -0.000206771               0.999999985              -0.000544938              -0.000215020               0.999999985              -0.000557104              -0.000222362               0.999999985              -0.000569185              -0.000228050               0.999999985              -0.000580990              -0.000231689               0.999999985              -0.000592314              -0.000232920               0.999999985              -0.000602971              -0.000230909               0.999999985              -0.000612974              -0.000224648               0.999999985              -0.000413419              -0.000313594               0.999999985              -0.000431736              -0.000262725               0.999999985              -0.000437665              -0.000245460               0.999999985              -0.000441760              -0.000244198               0.999999985              -0.000446940              -0.000250917               0.999999985              -0.000453722              -0.000261770               0.999999985              -0.000461898              -0.000274536               0.999999985              -0.000471093              -0.000288017               0.999999985              -0.000480891              -0.000301463               0.999999985              -0.000491008              -0.000314491               0.999999985              -0.000501085              -0.000326736               0.999999985              -0.000510711              -0.000337584               0.999999985              -0.000519715              -0.000346325               0.999999985              -0.000528029              -0.000352693               0.999999985              -0.000535716              -0.000356368               0.999999985              -0.000542802              -0.000356731               0.999999985              -0.000549442              -0.000353191               0.999999985              -0.000396548              -0.000412845               0.999999985              -0.000398914              -0.000347665               0.999999985              -0.000397522              -0.000327712               0.999999985              -0.000398408              -0.000328273               0.999999985              -0.000402191              -0.000338625               0.999999985              -0.000408229              -0.000353987               0.999999985              -0.000415813              -0.000371513               0.999999985              -0.000424200              -0.000389747               0.999999985              -0.000432896              -0.000407721               0.999999985              -0.000441396              -0.000424914               0.999999985              -0.000449205              -0.000440891               0.999999985              -0.000456101              -0.000455136               0.999999985              -0.000462058              -0.000467208               0.999999985              -0.000467125              -0.000476903               0.999999985              -0.000471433              -0.000484189               0.999999985              -0.000475208              -0.000488916               0.999999985              -0.000478793              -0.000491241               0.999999985              -0.000375570              -0.000507847               0.999999985              -0.000360047              -0.000430775               0.999999985              -0.000352036              -0.000410029               0.999999985              -0.000350826              -0.000413330               0.999999985              -0.000354119              -0.000427865               0.999999985              -0.000360111              -0.000447840               0.999999985              -0.000367491              -0.000470062               0.999999985              -0.000375321              -0.000492888               0.999999985              -0.000382881              -0.000515153               0.999999985              -0.000389697              -0.000536253               0.999999985              -0.000395424              -0.000555818               0.999999985              -0.000399856              -0.000573368               0.999999985              -0.000402993              -0.000588797               0.999999985              -0.000405152              -0.000602279               0.999999985              -0.000406671              -0.000613977               0.999999985              -0.000407711              -0.000624002               0.999999985              -0.000408391              -0.000632851               0.999999985              -0.000351011              -0.000597629               0.999999985              -0.000317253              -0.000511934               0.999999985              -0.000304350              -0.000491956               0.999999985              -0.000302545              -0.000498613               0.999999985              -0.000306502              -0.000517370               0.999999985              -0.000313195              -0.000541777               0.999999985              -0.000320760              -0.000568375               0.999999985              -0.000328171              -0.000595446               0.999999985              -0.000334716              -0.000621659               0.999999985              -0.000339946              -0.000646346               0.999999985              -0.000343417              -0.000669286               0.999999985              -0.000345208              -0.000690254               0.999999985              -0.000345661              -0.000709351               0.999999985              -0.000345081              -0.000727134               0.999999985              -0.000343521              -0.000743528               0.999999985              -0.000341118              -0.000758564               0.999999985              -0.000337804              -0.000772603               0.999999985              -0.000323450              -0.000681216               0.999999985              -0.000272654              -0.000590921               0.999999985              -0.000257171              -0.000572871               0.999999985              -0.000256598              -0.000582904               0.999999985              -0.000262127              -0.000605608               0.999999985              -0.000269871              -0.000634162               0.999999985              -0.000277814              -0.000664800               0.999999985              -0.000284846              -0.000695701               0.999999985              -0.000290152              -0.000725505               0.999999985              -0.000293271              -0.000753640               0.999999985              -0.000294105              -0.000779977               0.999999985              -0.000292933              -0.000804562               0.999999985              -0.000289947              -0.000827783               0.999999985              -0.000285396              -0.000849658               0.999999985              -0.000279631              -0.000870025               0.999999985              -0.000272743              -0.000889137               0.999999985              -0.000264633              -0.000906937               0.999999985              -0.000293821              -0.000757262               0.999999985              -0.000227845              -0.000667639               0.999999985              -0.000213070              -0.000651639               0.999999985              -0.000214871              -0.000664761               0.999999985              -0.000222479              -0.000691080               0.999999985              -0.000231407              -0.000723419               0.999999985              -0.000239647              -0.000757916               0.999999985              -0.000245876              -0.000792386               0.999999985              -0.000249273              -0.000825642               0.999999985              -0.000249586              -0.000857142               0.999999985              -0.000246887              -0.000887062               0.999999985              -0.000241637              -0.000915403               0.999999985              -0.000234321              -0.000941698               0.999999985              -0.000225482              -0.000966247               0.999999985              -0.000215440              -0.000989420               0.999999985              -0.000204397              -0.001011213               0.999999985              -0.000192666              -0.001031748               0.999999985              -0.000263780              -0.000828599               0.999999985              -0.000191242              -0.000750762               0.999999985              -0.000173320              -0.000730051               0.999999985              -0.000173629              -0.000737349               0.999999985              -0.000180337              -0.000758624               0.999999985              -0.000188728              -0.000787146               0.999999985              -0.000196847              -0.000819248               0.999999985              -0.000203429              -0.000852583               0.999999985              -0.000207518              -0.000885772               0.999999985              -0.000208509              -0.000917926               0.999999985              -0.000206359              -0.000948974               0.999999985              -0.000201365              -0.000978632               0.999999985              -0.000193785              -0.001006604               0.999999985              -0.000184051              -0.001032918               0.999999985              -0.000172899              -0.001057644               0.999999985              -0.000160667              -0.001081207               0.999999985              -0.000148072              -0.001103402               0.999999985              -0.000230878              -0.000893120               0.999999985              -0.000157443              -0.000830446               0.999999985              -0.000136517              -0.000809719               0.999999985              -0.000134619              -0.000812993               0.999999985              -0.000139828              -0.000830141               0.999999985              -0.000147197              -0.000855252               0.999999985              -0.000154735              -0.000884957               0.999999985              -0.000161197              -0.000917096               0.999999985              -0.000165620              -0.000949990               0.999999985              -0.000167246              -0.000982673               0.999999985              -0.000165715              -0.001014685               0.999999985              -0.000161129              -0.001045501               0.999999985              -0.000153656              -0.001074811               0.999999985              -0.000143253              -0.001102641               0.999999985              -0.000130412              -0.001128986               0.999999985              -0.000115962              -0.001154137               0.999999985              -0.000100601              -0.001178197               0.999999985              -0.000195847              -0.000949464               0.999999985              -0.000126334              -0.000904514               0.999999985              -0.000103755              -0.000887160               0.999999985              -0.000099491              -0.000888960               0.999999985              -0.000102700              -0.000903349               0.999999985              -0.000108579              -0.000925885               0.999999985              -0.000115037              -0.000953603               0.999999985              -0.000120947              -0.000984541               0.999999985              -0.000125166              -0.001017286               0.999999985              -0.000127035              -0.001050604               0.999999985              -0.000126295              -0.001083779               0.999999985              -0.000122428              -0.001115929               0.999999985              -0.000115143              -0.001146847               0.999999985              -0.000104487              -0.001176300               0.999999985              -0.000090516              -0.001204230               0.999999985              -0.000073639              -0.001230988               0.999999985              -0.000054534              -0.001256704               0.999999985              -0.000159042              -0.000996636               0.999999985              -0.000097845              -0.000970060               0.999999985              -0.000075497              -0.000958655               0.999999985              -0.000069457              -0.000961331               0.999999985              -0.000070636              -0.000974670               0.999999985              -0.000074816              -0.000995631               0.999999985              -0.000079849              -0.001022049               0.999999985              -0.000084591              -0.001052209               0.999999985              -0.000088234              -0.001084887               0.999999985              -0.000090176              -0.001118959               0.999999985              -0.000090017              -0.001153573               0.999999985              -0.000086985              -0.001187640               0.999999985              -0.000080346              -0.001220619               0.999999985              -0.000069969              -0.001252300               0.999999985              -0.000055714              -0.001282481               0.999999985              -0.000037272              -0.001311279               0.999999985              -0.000014768              -0.001338904               0.999999985              -0.000120688              -0.001034041               0.999999985              -0.000071532              -0.001024326               0.999999985              -0.000051758              -0.001020118               0.999999985              -0.000045154              -0.001025364               0.999999985              -0.000044810              -0.001039120               0.999999985              -0.000047324              -0.001059727               0.999999985              -0.000050822              -0.001085653               0.999999985              -0.000054193              -0.001115560               0.999999985              -0.000056930              -0.001148356               0.999999985              -0.000058631              -0.001183188               0.999999985              -0.000058758              -0.001219323               0.999999985              -0.000056505              -0.001255638               0.999999985              -0.000051099              -0.001291320               0.999999985              -0.000041893              -0.001325936               0.999999985              -0.000028605              -0.001359190               0.999999985              -0.000010652              -0.001390891               0.999999985               0.000012973              -0.001421061               0.999999985              -0.000081105              -0.001061176               0.999999985              -0.000046818              -0.001064937               0.999999985              -0.000032001              -0.001067518               0.999999985              -0.000026414              -0.001075913               0.999999985              -0.000025439              -0.001090964               0.999999985              -0.000026605              -0.001111995               0.999999985              -0.000028603              -0.001138118               0.999999985              -0.000030690              -0.001168293               0.999999985              -0.000032468              -0.001201557               0.999999985              -0.000033649              -0.001237300               0.999999985              -0.000033762              -0.001274821               0.999999985              -0.000032273              -0.001313154               0.999999985              -0.000028354              -0.001351566               0.999999985              -0.000021442              -0.001389344               0.999999985              -0.000011189              -0.001426012               0.999999985               0.000003420              -0.001461184               0.999999985               0.000023900              -0.001494559               0.999999985              -0.000040748              -0.001077603               0.999999985              -0.000023150              -0.001090004               0.999999985              -0.000015215              -0.001097397               0.999999985              -0.000012038              -0.001108267               0.999999985              -0.000011282              -0.001124648               0.999999985              -0.000011675              -0.001146466               0.999999985              -0.000012513              -0.001172989               0.999999985              -0.000013430              -0.001203502               0.999999985              -0.000014323              -0.001237274               0.999999985              -0.000014936              -0.001273777               0.999999985              -0.000015010              -0.001312431               0.999999985              -0.000014183              -0.001352258               0.999999985              -0.000012079              -0.001392552               0.999999985              -0.000008477              -0.001432638               0.999999985              -0.000002823              -0.001472013               0.999999985               0.000005438              -0.001510103               0.999999985               0.000017417              -0.001546276               0.999999985               0.000000000              -0.001083170               0.999999985               0.000000000              -0.001098518               0.999999985              -0.000000000              -0.001107613               0.999999985               0.000000000              -0.001119482               0.999999985              -0.000000000              -0.001136334               0.999999985               0.000000000              -0.001158407               0.999999985              -0.000000000              -0.001185207               0.999999985              -0.000000000              -0.001215862               0.999999985               0.000000000              -0.001249823               0.999999985               0.000000000              -0.001286621               0.999999985              -0.000000000              -0.001325738               0.999999985              -0.000000000              -0.001366156               0.999999985              -0.000000000              -0.001407101               0.999999985              -0.000000000              -0.001448038               0.999999985              -0.000000000              -0.001488426               0.999999985               0.000000000              -0.001527670               0.999999985               0.000000000              -0.001564978               0.999999985               0.000436131               0.000000000               0.999999985               0.000477727              -0.000000000               0.999999985               0.000496824              -0.000000000               0.999999985               0.000508171              -0.000000000               0.999999985               0.000517347               0.000000000               0.999999985               0.000526523              -0.000000000               0.999999985               0.000536416               0.000000000               0.999999985               0.000547373              -0.000000000               0.999999985               0.000559303               0.000000000               0.999999985               0.000572116               0.000000000               0.999999985               0.000585763              -0.000000000               0.999999985               0.000600062               0.000000000               0.999999985               0.000614867              -0.000000000               0.999999985               0.000629996               0.000000000               0.999999985               0.000645185               0.000000000               0.999999985               0.000659997               0.000000000               0.999999985               0.000673882               0.000000000               0.999999985               0.000433543              -0.000106065               0.999999985               0.000472389              -0.000088388               0.999999985               0.000489749              -0.000081652               0.999999985               0.000500038              -0.000080355               0.999999985               0.000508608              -0.000082001               0.999999985               0.000517440              -0.000085185               0.999999985               0.000527123              -0.000089205               0.999999985               0.000537777              -0.000093609               0.999999985               0.000549346              -0.000097983               0.999999985               0.000561814              -0.000102284               0.999999985               0.000575032              -0.000106384               0.999999985               0.000588823              -0.000110038               0.999999985               0.000602971              -0.000112772               0.999999985               0.000617257              -0.000114425               0.999999985               0.000631456              -0.000114677               0.999999985               0.000645202              -0.000112822               0.999999985               0.000658040              -0.000108210               0.999999985               0.000425880              -0.000210982               0.999999985               0.000456718              -0.000176156               0.999999985               0.000469309              -0.000163458               0.999999985               0.000476913              -0.000161576               0.999999985               0.000483969              -0.000165381               0.999999985               0.000491802              -0.000172139               0.999999985               0.000500758              -0.000180388               0.999999985               0.000510736              -0.000189241               0.999999985               0.000521542              -0.000198149               0.999999985               0.000533024              -0.000206771               0.999999985               0.000544938              -0.000215020               0.999999985               0.000557104              -0.000222362               0.999999985               0.000569185              -0.000228050               0.999999985               0.000580990              -0.000231689               0.999999985               0.000592314              -0.000232920               0.999999985               0.000602971              -0.000230909               0.999999985               0.000612974              -0.000224648               0.999999985               0.000413419              -0.000313594               0.999999985               0.000431736              -0.000262725               0.999999985               0.000437665              -0.000245460               0.999999985               0.000441760              -0.000244198               0.999999985               0.000446940              -0.000250917               0.999999985               0.000453722              -0.000261770               0.999999985               0.000461898              -0.000274536               0.999999985               0.000471093              -0.000288017               0.999999985               0.000480891              -0.000301463               0.999999985               0.000491008              -0.000314491               0.999999985               0.000501085              -0.000326736               0.999999985               0.000510711              -0.000337584               0.999999985               0.000519715              -0.000346325               0.999999985               0.000528029              -0.000352693               0.999999985               0.000535716              -0.000356368               0.999999985               0.000542802              -0.000356731               0.999999985               0.000549442              -0.000353191               0.999999985               0.000396548              -0.000412845               0.999999985               0.000398914              -0.000347665               0.999999985               0.000397522              -0.000327712               0.999999985               0.000398408              -0.000328273               0.999999985               0.000402191              -0.000338625               0.999999985               0.000408229              -0.000353987               0.999999985               0.000415813              -0.000371513               0.999999985               0.000424200              -0.000389747               0.999999985               0.000432896              -0.000407721               0.999999985               0.000441396              -0.000424914               0.999999985               0.000449205              -0.000440891               0.999999985               0.000456101              -0.000455136               0.999999985               0.000462058              -0.000467208               0.999999985               0.000467125              -0.000476903               0.999999985               0.000471433              -0.000484189               0.999999985               0.000475208              -0.000488916               0.999999985               0.000478793              -0.000491241               0.999999985               0.000375570              -0.000507847               0.999999985               0.000360047              -0.000430775               0.999999985               0.000352036              -0.000410029               0.999999985               0.000350826              -0.000413330               0.999999985               0.000354119              -0.000427865               0.999999985               0.000360111              -0.000447840               0.999999985               0.000367491              -0.000470062               0.999999985               0.000375321              -0.000492888               0.999999985               0.000382881              -0.000515153               0.999999985               0.000389697              -0.000536253               0.999999985               0.000395424              -0.000555818               0.999999985               0.000399856              -0.000573368               0.999999985               0.000402993              -0.000588797               0.999999985               0.000405152              -0.000602279               0.999999985               0.000406671              -0.000613977               0.999999985               0.000407711              -0.000624002               0.999999985               0.000408391              -0.000632851               0.999999985               0.000351011              -0.000597629               0.999999985               0.000317253              -0.000511934               0.999999985               0.000304350              -0.000491956               0.999999985               0.000302545              -0.000498613               0.999999985               0.000306502              -0.000517370               0.999999985               0.000313195              -0.000541777               0.999999985               0.000320760              -0.000568375               0.999999985               0.000328171              -0.000595446               0.999999985               0.000334716              -0.000621659               0.999999985               0.000339946              -0.000646346               0.999999985               0.000343417              -0.000669286               0.999999985               0.000345208              -0.000690254               0.999999985               0.000345661              -0.000709351               0.999999985               0.000345081              -0.000727134               0.999999985               0.000343521              -0.000743528               0.999999985               0.000341118              -0.000758564               0.999999985               0.000337804              -0.000772603               0.999999985               0.000323450              -0.000681216               0.999999985               0.000272654              -0.000590921               0.999999985               0.000257171              -0.000572871               0.999999985               0.000256598              -0.000582904               0.999999985               0.000262127              -0.000605608               0.999999985               0.000269871              -0.000634162               0.999999985               0.000277814              -0.000664800               0.999999985               0.000284846              -0.000695701               0.999999985               0.000290152              -0.000725505               0.999999985               0.000293271              -0.000753640               0.999999985               0.000294105              -0.000779977               0.999999985               0.000292933              -0.000804562               0.999999985               0.000289947              -0.000827783               0.999999985               0.000285396              -0.000849658               0.999999985               0.000279631              -0.000870025               0.999999985               0.000272743              -0.000889137               0.999999985               0.000264633              -0.000906937               0.999999985               0.000293821              -0.000757262               0.999999985               0.000227845              -0.000667639               0.999999985               0.000213070              -0.000651639               0.999999985               0.000214871              -0.000664761               0.999999985               0.000222479              -0.000691080               0.999999985               0.000231407              -0.000723419               0.999999985               0.000239647              -0.000757916               0.999999985               0.000245876              -0.000792386               0.999999985               0.000249273              -0.000825642               0.999999985               0.000249586              -0.000857142               0.999999985               0.000246887              -0.000887062               0.999999985               0.000241637              -0.000915403               0.999999985               0.000234321              -0.000941698               0.999999985               0.000225482              -0.000966247               0.999999985               0.000215440              -0.000989420               0.999999985               0.000204397              -0.001011213               0.999999985               0.000192666              -0.001031748               0.999999985               0.000263780              -0.000828599               0.999999985               0.000191242              -0.000750762               0.999999985               0.000173320              -0.000730051               0.999999985               0.000173629              -0.000737349               0.999999985               0.000180337              -0.000758624               0.999999985               0.000188728              -0.000787146               0.999999985               0.000196847              -0.000819248               0.999999985               0.000203429              -0.000852583               0.999999985               0.000207518              -0.000885772               0.999999985               0.000208509              -0.000917926               0.999999985               0.000206359              -0.000948974               0.999999985               0.000201365              -0.000978632               0.999999985               0.000193785              -0.001006604               0.999999985               0.000184051              -0.001032918               0.999999985               0.000172899              -0.001057644               0.999999985               0.000160667              -0.001081207               0.999999985               0.000148072              -0.001103402               0.999999985               0.000230878              -0.000893120               0.999999985               0.000157443              -0.000830446               0.999999985               0.000136517              -0.000809719               0.999999985               0.000134619              -0.000812993               0.999999985               0.000139828              -0.000830141               0.999999985               0.000147197              -0.000855252               0.999999985               0.000154735              -0.000884957               0.999999985               0.000161197              -0.000917096               0.999999985               0.000165620              -0.000949990               0.999999985               0.000167246              -0.000982673               0.999999985               0.000165715              -0.001014685               0.999999985               0.000161129              -0.001045501               0.999999985               0.000153656              -0.001074811               0.999999985               0.000143253              -0.001102641               0.999999985               0.000130412              -0.001128986               0.999999985               0.000115962              -0.001154137               0.999999985               0.000100601              -0.001178197               0.999999985               0.000195847              -0.000949464               0.999999985               0.000126334              -0.000904514               0.999999985               0.000103755              -0.000887160               0.999999985               0.000099491              -0.000888960               0.999999985               0.000102700              -0.000903349               0.999999985               0.000108579              -0.000925885               0.999999985               0.000115037              -0.000953603               0.999999985               0.000120947              -0.000984541               0.999999985               0.000125166              -0.001017286               0.999999985               0.000127035              -0.001050604               0.999999985               0.000126295              -0.001083779               0.999999985               0.000122428              -0.001115929               0.999999985               0.000115143              -0.001146847               0.999999985               0.000104487              -0.001176300               0.999999985               0.000090516              -0.001204230               0.999999985               0.000073639              -0.001230988               0.999999985               0.000054534              -0.001256704               0.999999985               0.000159042              -0.000996636               0.999999985               0.000097845              -0.000970060               0.999999985               0.000075497              -0.000958655               0.999999985               0.000069457              -0.000961331               0.999999985               0.000070636              -0.000974670               0.999999985               0.000074816              -0.000995631               0.999999985               0.000079849              -0.001022049               0.999999985               0.000084591              -0.001052209               0.999999985               0.000088234              -0.001084887               0.999999985               0.000090176              -0.001118959               0.999999985               0.000090017              -0.001153573               0.999999985               0.000086985              -0.001187640               0.999999985               0.000080346              -0.001220619               0.999999985               0.000069969              -0.001252300               0.999999985               0.000055714              -0.001282481               0.999999985               0.000037272              -0.001311279               0.999999985               0.000014768              -0.001338904               0.999999985               0.000120688              -0.001034041               0.999999985               0.000071532              -0.001024326               0.999999985               0.000051758              -0.001020118               0.999999985               0.000045154              -0.001025364               0.999999985               0.000044810              -0.001039120               0.999999985               0.000047324              -0.001059727               0.999999985               0.000050822              -0.001085653               0.999999985               0.000054193              -0.001115560               0.999999985               0.000056930              -0.001148356               0.999999985               0.000058631              -0.001183188               0.999999985               0.000058758              -0.001219323               0.999999985               0.000056505              -0.001255638               0.999999985               0.000051099              -0.001291320               0.999999985               0.000041893              -0.001325936               0.999999985               0.000028605              -0.001359190               0.999999985               0.000010652              -0.001390891               0.999999985              -0.000012973              -0.001421061               0.999999985               0.000081105              -0.001061176               0.999999985               0.000046818              -0.001064937               0.999999985               0.000032001              -0.001067518               0.999999985               0.000026414              -0.001075913               0.999999985               0.000025439              -0.001090964               0.999999985               0.000026605              -0.001111995               0.999999985               0.000028603              -0.001138118               0.999999985               0.000030690              -0.001168293               0.999999985               0.000032468              -0.001201557               0.999999985               0.000033649              -0.001237300               0.999999985               0.000033762              -0.001274821               0.999999985               0.000032273              -0.001313154               0.999999985               0.000028354              -0.001351566               0.999999985               0.000021442              -0.001389344               0.999999985               0.000011189              -0.001426012               0.999999985              -0.000003420              -0.001461184               0.999999985              -0.000023900              -0.001494559               0.999999985               0.000040748              -0.001077603               0.999999985               0.000023150              -0.001090004               0.999999985               0.000015215              -0.001097397               0.999999985               0.000012038              -0.001108267               0.999999985               0.000011282              -0.001124648               0.999999985               0.000011675              -0.001146466               0.999999985               0.000012513              -0.001172989               0.999999985               0.000013430              -0.001203502               0.999999985               0.000014323              -0.001237274               0.999999985               0.000014936              -0.001273777               0.999999985               0.000015010              -0.001312431               0.999999985               0.000014183              -0.001352258               0.999999985               0.000012079              -0.001392552               0.999999985               0.000008477              -0.001432638               0.999999985               0.000002823              -0.001472013               0.999999985              -0.000005438              -0.001510103               0.999999985              -0.000017417              -0.001546276               0.999999985               0.000000000              -0.001083170               0.999999985               0.000000000              -0.001098518               0.999999985              -0.000000000              -0.001107613               0.999999985               0.000000000              -0.001119482               0.999999985              -0.000000000              -0.001136334               0.999999985               0.000000000              -0.001158407               0.999999985              -0.000000000              -0.001185207               0.999999985              -0.000000000              -0.001215862               0.999999985               0.000000000              -0.001249823               0.999999985               0.000000000              -0.001286621               0.999999985              -0.000000000              -0.001325738               0.999999985              -0.000000000              -0.001366156               0.999999985              -0.000000000              -0.001407101               0.999999985              -0.000000000              -0.001448038               0.999999985              -0.000000000              -0.001488426               0.999999985               0.000000000              -0.001527670               0.999999985               0.000000000              -0.001564978               0.999999985               0.000436131               0.000000000               0.999999985               0.000477727              -0.000000000               0.999999985               0.000496824              -0.000000000               0.999999985               0.000508171              -0.000000000               0.999999985               0.000517347               0.000000000               0.999999985               0.000526523              -0.000000000               0.999999985               0.000536416               0.000000000               0.999999985               0.000547373              -0.000000000               0.999999985               0.000559303               0.000000000               0.999999985               0.000572116               0.000000000               0.999999985               0.000585763              -0.000000000               0.999999985               0.000600062               0.000000000               0.999999985               0.000614867              -0.000000000               0.999999985               0.000629996               0.000000000               0.999999985               0.000645185               0.000000000               0.999999985               0.000659997               0.000000000               0.999999985               0.000673882               0.000000000               0.999999985               0.000433543               0.000106065               0.999999985               0.000472389               0.000088388               0.999999985               0.000489749               0.000081652               0.999999985               0.000500038               0.000080355               0.999999985               0.000508608               0.000082001               0.999999985               0.000517440               0.000085185               0.999999985               0.000527123               0.000089205               0.999999985               0.000537777               0.000093609               0.999999985               0.000549346               0.000097983               0.999999985               0.000561814               0.000102284               0.999999985               0.000575032               0.000106384               0.999999985               0.000588823               0.000110038               0.999999985               0.000602971               0.000112772               0.999999985               0.000617257               0.000114425               0.999999985               0.000631456               0.000114677               0.999999985               0.000645202               0.000112822               0.999999985               0.000658040               0.000108210               0.999999985               0.000425880               0.000210982               0.999999985               0.000456718               0.000176156               0.999999985               0.000469309               0.000163458               0.999999985               0.000476913               0.000161576               0.999999985               0.000483969               0.000165381               0.999999985               0.000491802               0.000172139               0.999999985               0.000500758               0.000180388               0.999999985               0.000510736               0.000189241               0.999999985               0.000521542               0.000198149               0.999999985               0.000533024               0.000206771               0.999999985               0.000544938               0.000215020               0.999999985               0.000557104               0.000222362               0.999999985               0.000569185               0.000228050               0.999999985               0.000580990               0.000231689               0.999999985               0.000592314               0.000232920               0.999999985               0.000602971               0.000230909               0.999999985               0.000612974               0.000224648               0.999999985               0.000413419               0.000313594               0.999999985               0.000431736               0.000262725               0.999999985               0.000437665               0.000245460               0.999999985               0.000441760               0.000244198               0.999999985               0.000446940               0.000250917               0.999999985               0.000453722               0.000261770               0.999999985               0.000461898               0.000274536               0.999999985               0.000471093               0.000288017               0.999999985               0.000480891               0.000301463               0.999999985               0.000491008               0.000314491               0.999999985               0.000501085               0.000326736               0.999999985               0.000510711               0.000337584               0.999999985               0.000519715               0.000346325               0.999999985               0.000528029               0.000352693               0.999999985               0.000535716               0.000356368               0.999999985               0.000542802               0.000356731               0.999999985               0.000549442               0.000353191               0.999999985               0.000396548               0.000412845               0.999999985               0.000398914               0.000347665               0.999999985               0.000397522               0.000327712               0.999999985               0.000398408               0.000328273               0.999999985               0.000402191               0.000338625               0.999999985               0.000408229               0.000353987               0.999999985               0.000415813               0.000371513               0.999999985               0.000424200               0.000389747               0.999999985               0.000432896               0.000407721               0.999999985               0.000441396               0.000424914               0.999999985               0.000449205               0.000440891               0.999999985               0.000456101               0.000455136               0.999999985               0.000462058               0.000467208               0.999999985               0.000467125               0.000476903               0.999999985               0.000471433               0.000484189               0.999999985               0.000475208               0.000488916               0.999999985               0.000478793               0.000491241               0.999999985               0.000375570               0.000507847               0.999999985               0.000360047               0.000430775               0.999999985               0.000352036               0.000410029               0.999999985               0.000350826               0.000413330               0.999999985               0.000354119               0.000427865               0.999999985               0.000360111               0.000447840               0.999999985               0.000367491               0.000470062               0.999999985               0.000375321               0.000492888               0.999999985               0.000382881               0.000515153               0.999999985               0.000389697               0.000536253               0.999999985               0.000395424               0.000555818               0.999999985               0.000399856               0.000573368               0.999999985               0.000402993               0.000588797               0.999999985               0.000405152               0.000602279               0.999999985               0.000406671               0.000613977               0.999999985               0.000407711               0.000624002               0.999999985               0.000408391               0.000632851               0.999999985               0.000351011               0.000597629               0.999999985               0.000317253               0.000511934               0.999999985               0.000304350               0.000491956               0.999999985               0.000302545               0.000498613               0.999999985               0.000306502               0.000517370               0.999999985               0.000313195               0.000541777               0.999999985               0.000320760               0.000568375               0.999999985               0.000328171               0.000595446               0.999999985               0.000334716               0.000621659               0.999999985               0.000339946               0.000646346               0.999999985               0.000343417               0.000669286               0.999999985               0.000345208               0.000690254               0.999999985               0.000345661               0.000709351               0.999999985               0.000345081               0.000727134               0.999999985               0.000343521               0.000743528               0.999999985               0.000341118               0.000758564               0.999999985               0.000337804               0.000772603               0.999999985               0.000323450               0.000681216               0.999999985               0.000272654               0.000590921               0.999999985               0.000257171               0.000572871               0.999999985               0.000256598               0.000582904               0.999999985               0.000262127               0.000605608               0.999999985               0.000269871               0.000634162               0.999999985               0.000277814               0.000664800               0.999999985               0.000284846               0.000695701               0.999999985               0.000290152               0.000725505               0.999999985               0.000293271               0.000753640               0.999999985               0.000294105               0.000779977               0.999999985               0.000292933               0.000804562               0.999999985               0.000289947               0.000827783               0.999999985               0.000285396               0.000849658               0.999999985               0.000279631               0.000870025               0.999999985               0.000272743               0.000889137               0.999999985               0.000264633               0.000906937               0.999999985               0.000293821               0.000757262               0.999999985               0.000227845               0.000667639               0.999999985               0.000213070               0.000651639               0.999999985               0.000214871               0.000664761               0.999999985               0.000222479               0.000691080               0.999999985               0.000231407               0.000723419               0.999999985               0.000239647               0.000757916               0.999999985               0.000245876               0.000792386               0.999999985               0.000249273               0.000825642               0.999999985               0.000249586               0.000857142               0.999999985               0.000246887               0.000887062               0.999999985               0.000241637               0.000915403               0.999999985               0.000234321               0.000941698               0.999999985               0.000225482               0.000966247               0.999999985               0.000215440               0.000989420               0.999999985               0.000204397               0.001011213               0.999999985               0.000192666               0.001031748               0.999999985               0.000263780               0.000828599               0.999999985               0.000191242               0.000750762               0.999999985               0.000173320               0.000730051               0.999999985               0.000173629               0.000737349               0.999999985               0.000180337               0.000758624               0.999999985               0.000188728               0.000787146               0.999999985               0.000196847               0.000819248               0.999999985               0.000203429               0.000852583               0.999999985               0.000207518               0.000885772               0.999999985               0.000208509               0.000917926               0.999999985               0.000206359               0.000948974               0.999999985               0.000201365               0.000978632               0.999999985               0.000193785               0.001006604               0.999999985               0.000184051               0.001032918               0.999999985               0.000172899               0.001057644               0.999999985               0.000160667               0.001081207               0.999999985               0.000148072               0.001103402               0.999999985               0.000230878               0.000893120               0.999999985               0.000157443               0.000830446               0.999999985               0.000136517               0.000809719               0.999999985               0.000134619               0.000812993               0.999999985               0.000139828               0.000830141               0.999999985               0.000147197               0.000855252               0.999999985               0.000154735               0.000884957               0.999999985               0.000161197               0.000917096               0.999999985               0.000165620               0.000949990               0.999999985               0.000167246               0.000982673               0.999999985               0.000165715               0.001014685               0.999999985               0.000161129               0.001045501               0.999999985               0.000153656               0.001074811               0.999999985               0.000143253               0.001102641               0.999999985               0.000130412               0.001128986               0.999999985               0.000115962               0.001154137               0.999999985               0.000100601               0.001178197               0.999999985               0.000195847               0.000949464               0.999999985               0.000126334               0.000904514               0.999999985               0.000103755               0.000887160               0.999999985               0.000099491               0.000888960               0.999999985               0.000102700               0.000903349               0.999999985               0.000108579               0.000925885               0.999999985               0.000115037               0.000953603               0.999999985               0.000120947               0.000984541               0.999999985               0.000125166               0.001017286               0.999999985               0.000127035               0.001050604               0.999999985               0.000126295               0.001083779               0.999999985               0.000122428               0.001115929               0.999999985               0.000115143               0.001146847               0.999999985               0.000104487               0.001176300               0.999999985               0.000090516               0.001204230               0.999999985               0.000073639               0.001230988               0.999999985               0.000054534               0.001256704               0.999999985               0.000159042               0.000996636               0.999999985               0.000097845               0.000970060               0.999999985               0.000075497               0.000958655               0.999999985               0.000069457               0.000961331               0.999999985               0.000070636               0.000974670               0.999999985               0.000074816               0.000995631               0.999999985               0.000079849               0.001022049               0.999999985               0.000084591               0.001052209               0.999999985               0.000088234               0.001084887               0.999999985               0.000090176               0.001118959               0.999999985               0.000090017               0.001153573               0.999999985               0.000086985               0.001187640               0.999999985               0.000080346               0.001220619               0.999999985               0.000069969               0.001252300               0.999999985               0.000055714               0.001282481               0.999999985               0.000037272               0.001311279               0.999999985               0.000014768               0.001338904               0.999999985               0.000120688               0.001034041               0.999999985               0.000071532               0.001024326               0.999999985               0.000051758               0.001020118               0.999999985               0.000045154               0.001025364               0.999999985               0.000044810               0.001039120               0.999999985               0.000047324               0.001059727               0.999999985               0.000050822               0.001085653               0.999999985               0.000054193               0.001115560               0.999999985               0.000056930               0.001148356               0.999999985               0.000058631               0.001183188               0.999999985               0.000058758               0.001219323               0.999999985               0.000056505               0.001255638               0.999999985               0.000051099               0.001291320               0.999999985               0.000041893               0.001325936               0.999999985               0.000028605               0.001359190               0.999999985               0.000010652               0.001390891               0.999999985              -0.000012973               0.001421061               0.999999985               0.000081105               0.001061176               0.999999985               0.000046818               0.001064937               0.999999985               0.000032001               0.001067518               0.999999985               0.000026414               0.001075913               0.999999985               0.000025439               0.001090964               0.999999985               0.000026605               0.001111995               0.999999985               0.000028603               0.001138118               0.999999985               0.000030690               0.001168293               0.999999985               0.000032468               0.001201557               0.999999985               0.000033649               0.001237300               0.999999985               0.000033762               0.001274821               0.999999985               0.000032273               0.001313154               0.999999985               0.000028354               0.001351566               0.999999985               0.000021442               0.001389344               0.999999985               0.000011189               0.001426012               0.999999985              -0.000003420               0.001461184               0.999999985              -0.000023900               0.001494559               0.999999985               0.000040748               0.001077603               0.999999985               0.000023150               0.001090004               0.999999985               0.000015215               0.001097397               0.999999985               0.000012038               0.001108267               0.999999985               0.000011282               0.001124648               0.999999985               0.000011675               0.001146466               0.999999985               0.000012513               0.001172989               0.999999985               0.000013430               0.001203502               0.999999985               0.000014323               0.001237274               0.999999985               0.000014936               0.001273777               0.999999985               0.000015010               0.001312431               0.999999985               0.000014183               0.001352258               0.999999985               0.000012079               0.001392552               0.999999985               0.000008477               0.001432638               0.999999985               0.000002823               0.001472013               0.999999985              -0.000005438               0.001510103               0.999999985              -0.000017417               0.001546276               0.999999985              -0.000000000               0.001083170               0.999999985               0.000000000               0.001098518               0.999999985              -0.000000000               0.001107613               0.999999985               0.000000000               0.001119482               0.999999985              -0.000000000               0.001136334               0.999999985              -0.000000000               0.001158407               0.999999985               0.000000000               0.001185207               0.999999985              -0.000000000               0.001215862               0.999999985              -0.000000000               0.001249823               0.999999985               0.000000000               0.001286621               0.999999985               0.000000000               0.001325738               0.999999985              -0.000000000               0.001366156               0.999999985              -0.000000000               0.001407101               0.999999985               0.000000000               0.001448038               0.999999985               0.000000000               0.001488426               0.999999985              -0.000000000               0.001527670               0.999999985              -0.000000000               0.001564978               0.999999985 </DataArray>
<DataArray type="Float64"                                    Name="stress"                                                      NumberOfComponents="10" format="ascii">
              0.001755418               0.019506814              -0.000000000              -0.001780066               0.007095562               0.005315496               0.000000000               0.000000000               0.000000000               0.000000000               0.001764350               0.015461742               0.000000000              -0.001271084               0.005577557               0.004306474               0.000000000               0.000000000               0.000000000               0.000000000               0.002339597               0.012215366              -0.000000000              -0.000649570               0.004288271               0.003638701               0.000000000               0.000000000               0.000000000               0.000000000               0.002273698               0.010410949              -0.000000000              -0.000448731               0.003619859               0.003171128               0.000000000               0.000000000               0.000000000               0.000000000               0.002012088               0.009300392              -0.000000000              -0.000408015               0.003236105               0.002828090               0.000000000               0.000000000               0.000000000               0.000000000               0.001715258               0.008553766              -0.000000000              -0.000425998               0.002993226               0.002567228               0.000000000               0.000000000               0.000000000               0.000000000               0.001432813               0.008012210               0.000000000              -0.000464220               0.002825450               0.002361230               0.000000000               0.000000000               0.000000000               0.000000000               0.001178935               0.007589660               0.000000000              -0.000506606               0.002698730               0.002192124               0.000000000               0.000000000               0.000000000               0.000000000               0.000955360               0.007234656               0.000000000              -0.000546071               0.002593551               0.002047481               0.000000000               0.000000000               0.000000000               0.000000000               0.000754886               0.006924057               0.000000000              -0.000582423               0.002502137               0.001919714               0.000000000               0.000000000               0.000000000               0.000000000               0.000579093               0.006642525               0.000000000              -0.000613154               0.002418538               0.001805384               0.000000000               0.000000000               0.000000000               0.000000000               0.000426338               0.006370465              -0.000000000              -0.000636430               0.002335610               0.001699181               0.000000000               0.000000000               0.000000000               0.000000000               0.000289782               0.006084919               0.000000000              -0.000651945               0.002245601               0.001593656               0.000000000               0.000000000               0.000000000               0.000000000               0.000171563               0.005777887               0.000000000              -0.000657898               0.002145243               0.001487345               0.000000000               0.000000000               0.000000000               0.000000000               0.000081671               0.005440327              -0.000000000              -0.000649413               0.002029895               0.001380482               0.000000000               0.000000000               0.000000000               0.000000000               0.000029324               0.005053204              -0.000000000              -0.000620652               0.001891268               0.001270616               0.000000000               0.000000000               0.000000000               0.000000000              -0.000017948               0.004755021              -0.000000000              -0.000601107               0.001785360               0.001184253               0.000000000               0.000000000               0.000000000               0.000000000               0.001824907               0.019117471              -0.001350761              -0.001705340               0.006940873               0.005235533               0.000000000               0.000000000               0.000000000               0.000000000               0.001743723               0.015210058              -0.000709217              -0.001247358               0.005485755               0.004238397               0.000000000               0.000000000               0.000000000               0.000000000               0.002219246               0.012102740              -0.000069315              -0.000680624               0.004261081               0.003580457               0.000000000               0.000000000               0.000000000               0.000000000               0.002111847               0.010370094               0.000199732              -0.000504318               0.003624770               0.003120452               0.000000000               0.000000000               0.000000000               0.000000000               0.001838975               0.009297068               0.000308711              -0.000472517               0.003256497               0.002783980               0.000000000               0.000000000               0.000000000               0.000000000               0.001545631               0.008570575               0.000345977              -0.000491709               0.003020733               0.002529024               0.000000000               0.000000000               0.000000000               0.000000000               0.001277305               0.008038813               0.000351269              -0.000525861               0.002854865               0.002329004               0.000000000               0.000000000               0.000000000               0.000000000               0.001042150               0.007620424               0.000341265              -0.000561745               0.002727365               0.002165619               0.000000000               0.000000000               0.000000000               0.000000000               0.000833883               0.007268946               0.000326339              -0.000595911               0.002621595               0.002025684               0.000000000               0.000000000               0.000000000               0.000000000               0.000648196               0.006959414               0.000312718              -0.000626852               0.002528732               0.001901880               0.000000000               0.000000000               0.000000000               0.000000000               0.000488194               0.006679393               0.000297464              -0.000651850               0.002443725               0.001791876               0.000000000               0.000000000               0.000000000               0.000000000               0.000352468               0.006410231               0.000273338              -0.000669102               0.002359756               0.001690654               0.000000000               0.000000000               0.000000000               0.000000000               0.000236336               0.006132735               0.000243145              -0.000677964               0.002270213               0.001592248               0.000000000               0.000000000               0.000000000               0.000000000               0.000137414               0.005837736               0.000209869              -0.000678185               0.002171954               0.001493769               0.000000000               0.000000000               0.000000000               0.000000000               0.000063187               0.005521092               0.000162534              -0.000666440               0.002062492               0.001396053               0.000000000               0.000000000               0.000000000               0.000000000               0.000020836               0.005172465               0.000091671              -0.000638743               0.001937052               0.001298309               0.000000000               0.000000000               0.000000000               0.000000000              -0.000019113               0.004911496               0.000055071              -0.000621103               0.001844183               0.001223080               0.000000000               0.000000000               0.000000000               0.000000000               0.002001416               0.017999807              -0.002523483              -0.001499442               0.006499689               0.005000247               0.000000000               0.000000000               0.000000000               0.000000000               0.001669106               0.014488374              -0.001333610              -0.001185130               0.005224453               0.004039323               0.000000000               0.000000000               0.000000000               0.000000000               0.001870366               0.011777689              -0.000156012              -0.000770822               0.004182798               0.003411976               0.000000000               0.000000000               0.000000000               0.000000000               0.001660814               0.010246025               0.000325907              -0.000657946               0.003634623               0.002976677               0.000000000               0.000000000               0.000000000               0.000000000               0.001370902               0.009275326               0.000517931              -0.000645326               0.003306853               0.002661527               0.000000000               0.000000000               0.000000000               0.000000000               0.001098921               0.008602824               0.000581802              -0.000663256               0.003088665               0.002425409               0.000000000               0.000000000               0.000000000               0.000000000               0.000866490               0.008096132               0.000588621              -0.000687081               0.002927711               0.002240630               0.000000000               0.000000000               0.000000000               0.000000000               0.000675329               0.007689063               0.000570093              -0.000707883               0.002798956               0.002091073               0.000000000               0.000000000               0.000000000               0.000000000               0.000514467               0.007345195               0.000543093              -0.000725223               0.002690115               0.001964892               0.000000000               0.000000000               0.000000000               0.000000000               0.000379088               0.007041864               0.000518476              -0.000738073               0.002593289               0.001855216               0.000000000               0.000000000               0.000000000               0.000000000               0.000268260               0.006763803               0.000492549              -0.000744876               0.002502871               0.001757995               0.000000000               0.000000000               0.000000000               0.000000000               0.000180778               0.006497953               0.000453683              -0.000744451               0.002414113               0.001669662               0.000000000               0.000000000               0.000000000               0.000000000               0.000113702               0.006237022               0.000403439              -0.000736988               0.002324649               0.001587661               0.000000000               0.000000000               0.000000000               0.000000000               0.000061541               0.005977542               0.000345828              -0.000724113               0.002233865               0.001509752               0.000000000               0.000000000               0.000000000               0.000000000               0.000028088               0.005721488               0.000267273              -0.000704651               0.002142027               0.001437376               0.000000000               0.000000000               0.000000000               0.000000000               0.000009389               0.005469953               0.000152008              -0.000680221               0.002050040               0.001369819               0.000000000               0.000000000               0.000000000               0.000000000              -0.000013871               0.005300710               0.000090006              -0.000667789               0.001989482               0.001321693               0.000000000               0.000000000               0.000000000               0.000000000               0.002201984               0.016300450              -0.003381597              -0.001211812               0.005837366               0.004625554               0.000000000               0.000000000               0.000000000               0.000000000               0.001512793               0.013397105              -0.001808853              -0.001107339               0.004834770               0.003727431               0.000000000               0.000000000               0.000000000               0.000000000               0.001337211               0.011288278              -0.000267794              -0.000909578               0.004065914               0.003156336               0.000000000               0.000000000               0.000000000               0.000000000               0.001017978               0.010043315               0.000337645              -0.000873670               0.003638962               0.002765291               0.000000000               0.000000000               0.000000000               0.000000000               0.000726070               0.009210590               0.000571711              -0.000879045               0.003363181               0.002484136               0.000000000               0.000000000               0.000000000               0.000000000               0.000497255               0.008608030               0.000647261              -0.000889531               0.003165825               0.002276294               0.000000000               0.000000000               0.000000000               0.000000000               0.000325908               0.008137513               0.000653074              -0.000894972               0.003010801               0.002115829               0.000000000               0.000000000               0.000000000               0.000000000               0.000201619               0.007749820               0.000630750              -0.000893118               0.002880954               0.001987835               0.000000000               0.000000000               0.000000000               0.000000000               0.000110344               0.007414586               0.000599812              -0.000885442               0.002766651               0.001881209               0.000000000               0.000000000               0.000000000               0.000000000               0.000046335               0.007114896               0.000570167              -0.000871984               0.002662270               0.001790285               0.000000000               0.000000000               0.000000000               0.000000000               0.000009644               0.006837992               0.000537658              -0.000851130               0.002563018               0.001711888               0.000000000               0.000000000               0.000000000               0.000000000              -0.000007733               0.006579010               0.000491526              -0.000825274               0.002468073               0.001642799               0.000000000               0.000000000               0.000000000               0.000000000              -0.000014695               0.006340549               0.000432298              -0.000798077               0.002379521               0.001581444               0.000000000               0.000000000               0.000000000               0.000000000              -0.000017785               0.006124407               0.000363310              -0.000772218               0.002298855               0.001526636               0.000000000               0.000000000               0.000000000               0.000000000              -0.000016297               0.005936321               0.000273311              -0.000748149               0.002228137               0.001479987               0.000000000               0.000000000               0.000000000               0.000000000              -0.000010255               0.005788513               0.000151554              -0.000727408               0.002171954               0.001444547               0.000000000               0.000000000               0.000000000               0.000000000              -0.000010572               0.005715429               0.000084583              -0.000718391               0.002144588               0.001426196               0.000000000               0.000000000               0.000000000               0.000000000               0.002320700               0.014231652              -0.003855500              -0.000908695               0.005046734               0.004138039               0.000000000               0.000000000               0.000000000               0.000000000               0.001256800               0.012084301              -0.002106991              -0.001039236               0.004374472               0.003335236               0.000000000               0.000000000               0.000000000               0.000000000               0.000685746               0.010695487              -0.000412661              -0.001079779               0.003925053               0.002845274               0.000000000               0.000000000               0.000000000               0.000000000               0.000291818               0.009765446               0.000222707              -0.001111246               0.003625531               0.002514285               0.000000000               0.000000000               0.000000000               0.000000000               0.000041121               0.009083769               0.000463011              -0.001120048               0.003401242               0.002281194               0.000000000               0.000000000               0.000000000               0.000000000              -0.000112808               0.008552881               0.000542658              -0.001111411               0.003221402               0.002109991               0.000000000               0.000000000               0.000000000               0.000000000              -0.000201064               0.008117894               0.000552230              -0.001090133               0.003069315               0.001979182               0.000000000               0.000000000               0.000000000               0.000000000              -0.000244095               0.007748346               0.000533386              -0.001060076               0.002936115               0.001876039               0.000000000               0.000000000               0.000000000               0.000000000              -0.000257613               0.007420690               0.000505154              -0.001024189               0.002814935               0.001790746               0.000000000               0.000000000               0.000000000               0.000000000              -0.000242357               0.007124392               0.000476488              -0.000981431               0.002701917               0.001720486               0.000000000               0.000000000               0.000000000               0.000000000              -0.000204574               0.006853576               0.000442251              -0.000933410               0.002595639               0.001662229               0.000000000               0.000000000               0.000000000               0.000000000              -0.000159713               0.006606032               0.000395866              -0.000885644               0.002497203               0.001611559               0.000000000               0.000000000               0.000000000               0.000000000              -0.000117115               0.006389589               0.000338604              -0.000842615               0.002410713               0.001568098               0.000000000               0.000000000               0.000000000               0.000000000              -0.000079453               0.006210809               0.000272510              -0.000806144               0.002338964               0.001532820               0.000000000               0.000000000               0.000000000               0.000000000              -0.000046569               0.006075886               0.000192720              -0.000776947               0.002284257               0.001507310               0.000000000               0.000000000               0.000000000               0.000000000              -0.000021076               0.005994016               0.000099356              -0.000757154               0.002250370               0.001493216               0.000000000               0.000000000               0.000000000               0.000000000              -0.000008754               0.005971108               0.000049765              -0.000749669               0.002240239               0.001490570               0.000000000               0.000000000               0.000000000               0.000000000               0.002261292               0.012002220              -0.003951883              -0.000652295               0.004218130               0.003565836               0.000000000               0.000000000               0.000000000               0.000000000               0.000898076               0.010692131              -0.002245570              -0.000999737               0.003897253               0.002897516               0.000000000               0.000000000               0.000000000               0.000000000              -0.000001465               0.010049311              -0.000602665              -0.001256710               0.003768640               0.002511930               0.000000000               0.000000000               0.000000000               0.000000000              -0.000404376               0.009422715              -0.000005682              -0.001329477               0.003584033               0.002254556               0.000000000               0.000000000               0.000000000               0.000000000              -0.000571383               0.008879102               0.000223340              -0.001324153               0.003401055               0.002076902               0.000000000               0.000000000               0.000000000               0.000000000              -0.000623893               0.008410607               0.000306742              -0.001285283               0.003231935               0.001946652               0.000000000               0.000000000               0.000000000               0.000000000              -0.000617476               0.008003710               0.000328986              -0.001232014               0.003078548               0.001846534               0.000000000               0.000000000               0.000000000               0.000000000              -0.000574193               0.007648024               0.000323265              -0.001171322               0.002939756               0.001768434               0.000000000               0.000000000               0.000000000               0.000000000              -0.000509054               0.007328215               0.000305124              -0.001106919               0.002811687               0.001704768               0.000000000               0.000000000               0.000000000               0.000000000              -0.000426737               0.007038505               0.000284419              -0.001039837               0.002692757               0.001652920               0.000000000               0.000000000               0.000000000               0.000000000              -0.000333799               0.006778747               0.000257342              -0.000972515               0.002583731               0.001611216               0.000000000               0.000000000               0.000000000               0.000000000              -0.000242486               0.006550479               0.000220842              -0.000909740               0.002486718               0.001576978               0.000000000               0.000000000               0.000000000               0.000000000              -0.000165020               0.006359946               0.000179849              -0.000856874               0.002405585               0.001548712               0.000000000               0.000000000               0.000000000               0.000000000              -0.000105673               0.006213628               0.000134104              -0.000816329               0.002343298               0.001526969               0.000000000               0.000000000               0.000000000               0.000000000              -0.000060609               0.006107549               0.000082666              -0.000786170               0.002297886               0.001511716               0.000000000               0.000000000               0.000000000               0.000000000              -0.000025106               0.006039802               0.000034537              -0.000764388               0.002268043               0.001503655               0.000000000               0.000000000               0.000000000               0.000000000              -0.000013558               0.006010648               0.000015849              -0.000756413               0.002255667               0.001499254               0.000000000               0.000000000               0.000000000               0.000000000               0.001975563               0.009790934              -0.003728087              -0.000483033               0.003424622               0.002941589               0.000000000               0.000000000               0.000000000               0.000000000               0.000457946               0.009330915              -0.002262580              -0.000994634               0.003441818               0.002447184               0.000000000               0.000000000               0.000000000               0.000000000              -0.000642069               0.009386446              -0.000839485              -0.001414078               0.003600143               0.002186065               0.000000000               0.000000000               0.000000000               0.000000000              -0.000977826               0.009021183              -0.000319162              -0.001494329               0.003505140               0.002010812               0.000000000               0.000000000               0.000000000               0.000000000              -0.001033928               0.008589789              -0.000099245              -0.001461443               0.003350382               0.001888939               0.000000000               0.000000000               0.000000000               0.000000000              -0.000978712               0.008176774              -0.000000253              -0.001389110               0.003188601               0.001799491               0.000000000               0.000000000               0.000000000               0.000000000              -0.000878374               0.007798461               0.000045627              -0.001304194               0.003034192               0.001729998               0.000000000               0.000000000               0.000000000               0.000000000              -0.000758793               0.007456603               0.000063727              -0.001216620               0.002891049               0.001674430               0.000000000               0.000000000               0.000000000               0.000000000              -0.000630765               0.007146919               0.000065891              -0.001129899               0.002758915               0.001629016               0.000000000               0.000000000               0.000000000               0.000000000              -0.000495645               0.006871870               0.000064811              -0.001044848               0.002638883               0.001594035               0.000000000               0.000000000               0.000000000               0.000000000              -0.000364297               0.006632041               0.000059206              -0.000965614               0.002532530               0.001566915               0.000000000               0.000000000               0.000000000               0.000000000              -0.000254303               0.006429651               0.000046303              -0.000899068               0.002442885               0.001543817               0.000000000               0.000000000               0.000000000               0.000000000              -0.000171340               0.006266830               0.000034573              -0.000847604               0.002371457               0.001523853               0.000000000               0.000000000               0.000000000               0.000000000              -0.000111693               0.006134214               0.000023342              -0.000808660               0.002314271               0.001505611               0.000000000               0.000000000               0.000000000               0.000000000              -0.000068676               0.006022289               0.000009341              -0.000778538               0.002266922               0.001488385               0.000000000               0.000000000               0.000000000               0.000000000              -0.000032659               0.005929457               0.000001631              -0.000753427               0.002227609               0.001474181               0.000000000               0.000000000               0.000000000               0.000000000              -0.000028759               0.005867201               0.000009078              -0.000744183               0.002203775               0.001459592               0.000000000               0.000000000               0.000000000               0.000000000               0.001476585               0.007739796              -0.003258718              -0.000413758               0.002717824               0.002304067               0.000000000               0.000000000               0.000000000               0.000000000              -0.000035333               0.008078799              -0.002195144              -0.001023099               0.003033938               0.002010839               0.000000000               0.000000000               0.000000000               0.000000000              -0.001174640               0.008711580              -0.001115811              -0.001529434               0.003413642               0.001884208               0.000000000               0.000000000               0.000000000               0.000000000              -0.001380537               0.008555221              -0.000672643              -0.001587100               0.003380745               0.001793645               0.000000000               0.000000000               0.000000000               0.000000000              -0.001311440               0.008224917              -0.000444342              -0.001519901               0.003248245               0.001728344               0.000000000               0.000000000               0.000000000               0.000000000              -0.001160887               0.007867035              -0.000315555              -0.001418708               0.003095222               0.001676513               0.000000000               0.000000000               0.000000000               0.000000000              -0.000984843               0.007524280              -0.000239089              -0.001309848               0.002944684               0.001634836               0.000000000               0.000000000               0.000000000               0.000000000              -0.000804724               0.007204288              -0.000188800              -0.001202304               0.002802174               0.001599869               0.000000000               0.000000000               0.000000000               0.000000000              -0.000628751               0.006914886              -0.000153727              -0.001100140               0.002671652               0.001571512               0.000000000               0.000000000               0.000000000               0.000000000              -0.000464532               0.006662041              -0.000123129              -0.001006952               0.002556309               0.001549357               0.000000000               0.000000000               0.000000000               0.000000000              -0.000325008               0.006446815              -0.000097760              -0.000927728               0.002458159               0.001530432               0.000000000               0.000000000               0.000000000               0.000000000              -0.000218080               0.006262848              -0.000076509              -0.000864634               0.002375807               0.001511173               0.000000000               0.000000000               0.000000000               0.000000000              -0.000144679               0.006092824              -0.000052976              -0.000815856               0.002302873               0.001487017               0.000000000               0.000000000               0.000000000               0.000000000              -0.000103843               0.005927604              -0.000031746              -0.000779890               0.002235811               0.001455922               0.000000000               0.000000000               0.000000000               0.000000000              -0.000078106               0.005776374              -0.000015308              -0.000751335               0.002175884               0.001424549               0.000000000               0.000000000               0.000000000               0.000000000              -0.000046632               0.005643576              -0.000001775              -0.000722932               0.002122151               0.001399218               0.000000000               0.000000000               0.000000000               0.000000000              -0.000040015               0.005556468               0.000012660              -0.000709562               0.002088658               0.001379096               0.000000000               0.000000000               0.000000000               0.000000000               0.000850694               0.005992968              -0.002644995              -0.000430112               0.002141006               0.001710894               0.000000000               0.000000000               0.000000000               0.000000000              -0.000502999               0.006958265              -0.002094835              -0.001058407               0.002672200               0.001613793               0.000000000               0.000000000               0.000000000               0.000000000              -0.001556910               0.008049598              -0.001433723              -0.001590037               0.003213185               0.001623147               0.000000000               0.000000000               0.000000000               0.000000000              -0.001625722               0.008103992              -0.001041591              -0.001622641               0.003242184               0.001619543               0.000000000               0.000000000               0.000000000               0.000000000              -0.001457922               0.007890744              -0.000791239              -0.001533060               0.003141242               0.001608181               0.000000000               0.000000000               0.000000000               0.000000000              -0.001238064               0.007603178              -0.000623869              -0.001414668               0.003005923               0.001591255               0.000000000               0.000000000               0.000000000               0.000000000              -0.001008337               0.007307773              -0.000510507              -0.001291595               0.002866432               0.001574837               0.000000000               0.000000000               0.000000000               0.000000000              -0.000781577               0.007023015              -0.000424589              -0.001170965               0.002731303               0.001560338               0.000000000               0.000000000               0.000000000               0.000000000              -0.000571211               0.006759716              -0.000353181              -0.001059166               0.002606271               0.001547105               0.000000000               0.000000000               0.000000000               0.000000000              -0.000389278               0.006528585              -0.000286658              -0.000962050               0.002496857               0.001534807               0.000000000               0.000000000               0.000000000               0.000000000              -0.000246656               0.006328376              -0.000225892              -0.000883541               0.002403951               0.001520410               0.000000000               0.000000000               0.000000000               0.000000000              -0.000157026               0.006125194              -0.000173948              -0.000824532               0.002316555               0.001492023               0.000000000               0.000000000               0.000000000               0.000000000              -0.000117696               0.005910263              -0.000125885              -0.000782917               0.002231040               0.001448123               0.000000000               0.000000000               0.000000000               0.000000000              -0.000112130               0.005703347              -0.000080237              -0.000754965               0.002152752               0.001397787               0.000000000               0.000000000               0.000000000               0.000000000              -0.000119989               0.005512799              -0.000040485              -0.000734094               0.002082279               0.001348185               0.000000000               0.000000000               0.000000000               0.000000000              -0.000128615               0.005337502              -0.000011804              -0.000715417               0.002017622               0.001302205               0.000000000               0.000000000               0.000000000               0.000000000              -0.000132228               0.005238499               0.000002630              -0.000704396               0.001980948               0.001276552               0.000000000               0.000000000               0.000000000               0.000000000               0.000090037               0.004355927              -0.001981980              -0.000510728               0.001622203               0.001111475               0.000000000               0.000000000               0.000000000               0.000000000              -0.000870466               0.005664805              -0.001976255              -0.001034524               0.002233090               0.001198566               0.000000000               0.000000000               0.000000000               0.000000000              -0.001734308               0.007086056              -0.001777735              -0.001536119               0.002874034               0.001337915               0.000000000               0.000000000               0.000000000               0.000000000              -0.001737697               0.007431846              -0.001447773              -0.001580614               0.003004128               0.001423515               0.000000000               0.000000000               0.000000000               0.000000000              -0.001532802               0.007417170              -0.001174460              -0.001501943               0.002973013               0.001471070               0.000000000               0.000000000               0.000000000               0.000000000              -0.001289473               0.007274489              -0.000966288              -0.001392860               0.002889092               0.001496232               0.000000000               0.000000000               0.000000000               0.000000000              -0.001046817               0.007085826              -0.000811883              -0.001278282               0.002788012               0.001509731               0.000000000               0.000000000               0.000000000               0.000000000              -0.000811146               0.006881970              -0.000689865              -0.001164423               0.002682108               0.001517685               0.000000000               0.000000000               0.000000000               0.000000000              -0.000593152               0.006671693              -0.000582525              -0.001056391               0.002576006               0.001519614               0.000000000               0.000000000               0.000000000               0.000000000              -0.000403223               0.006475616              -0.000482140              -0.000960658               0.002478736               0.001518078               0.000000000               0.000000000               0.000000000               0.000000000              -0.000254683               0.006286394              -0.000388825              -0.000881303               0.002389212               0.001507908               0.000000000               0.000000000               0.000000000               0.000000000              -0.000162228               0.006069335              -0.000301209              -0.000819500               0.002296258               0.001476758               0.000000000               0.000000000               0.000000000               0.000000000              -0.000122100               0.005839037              -0.000218037              -0.000775665               0.002204881               0.001429216               0.000000000               0.000000000               0.000000000               0.000000000              -0.000131406               0.005610599              -0.000142097              -0.000750600               0.002120381               0.001369781               0.000000000               0.000000000               0.000000000               0.000000000              -0.000174132               0.005396926              -0.000075107              -0.000739913               0.002045595               0.001305682               0.000000000               0.000000000               0.000000000               0.000000000              -0.000232867               0.005195279              -0.000024892              -0.000736733               0.001977320               0.001240587               0.000000000               0.000000000               0.000000000               0.000000000              -0.000268274               0.005085948              -0.000003380              -0.000736344               0.001940747               0.001204403               0.000000000               0.000000000               0.000000000               0.000000000              -0.000926832               0.002866554              -0.001308097              -0.000705880               0.001190801               0.000484921               0.000000000               0.000000000               0.000000000               0.000000000              -0.001290870               0.004371941              -0.001792626              -0.001030567               0.001800821               0.000770254               0.000000000               0.000000000               0.000000000               0.000000000              -0.001823071               0.005982059              -0.002045206              -0.001431406               0.002471135               0.001039728               0.000000000               0.000000000               0.000000000               0.000000000              -0.001769935               0.006603891              -0.001832696              -0.001489209               0.002697677               0.001208468               0.000000000               0.000000000               0.000000000               0.000000000              -0.001554249               0.006816134              -0.001564469              -0.001434857               0.002750307               0.001315450               0.000000000               0.000000000               0.000000000               0.000000000              -0.001306754               0.006848697              -0.001330629              -0.001346117               0.002731582               0.001385465               0.000000000               0.000000000               0.000000000               0.000000000              -0.001064668               0.006797973              -0.001142351              -0.001248994               0.002682300               0.001433305               0.000000000               0.000000000               0.000000000               0.000000000              -0.000832958               0.006699142              -0.000987047              -0.001149749               0.002616275               0.001466525               0.000000000               0.000000000               0.000000000               0.000000000              -0.000618211               0.006567608              -0.000850010              -0.001052778               0.002540107               0.001487329               0.000000000               0.000000000               0.000000000               0.000000000              -0.000420369               0.006427293              -0.000724550              -0.000961048               0.002462759               0.001501711               0.000000000               0.000000000               0.000000000               0.000000000              -0.000253287               0.006266675              -0.000608040              -0.000878315               0.002381642               0.001503327               0.000000000               0.000000000               0.000000000               0.000000000              -0.000138806               0.006067297              -0.000494501              -0.000810462               0.002292566               0.001482104               0.000000000               0.000000000               0.000000000               0.000000000              -0.000077829               0.005850147              -0.000378482              -0.000760452               0.002203513               0.001443061               0.000000000               0.000000000               0.000000000               0.000000000              -0.000071527               0.005623706              -0.000262831              -0.000729784               0.002117811               0.001388027               0.000000000               0.000000000               0.000000000               0.000000000              -0.000118789               0.005403045              -0.000157205              -0.000719925               0.002040972               0.001321047               0.000000000               0.000000000               0.000000000               0.000000000              -0.000210231               0.005192902              -0.000068501              -0.000727947               0.001973599               0.001245652               0.000000000               0.000000000               0.000000000               0.000000000              -0.000283505               0.005076465              -0.000022474              -0.000740871               0.001939095               0.001198224               0.000000000               0.000000000               0.000000000               0.000000000              -0.002129745               0.001623586              -0.000668378              -0.001001601               0.000875056              -0.000126545               0.000000000               0.000000000               0.000000000               0.000000000              -0.001814922               0.003149726              -0.001519508              -0.001074309               0.001408000               0.000333691               0.000000000               0.000000000               0.000000000               0.000000000              -0.001873194               0.004749202              -0.002137602              -0.001296096               0.002015082               0.000718987               0.000000000               0.000000000               0.000000000               0.000000000              -0.001702006               0.005569656              -0.002076675              -0.001334457               0.002301352               0.000966895               0.000000000               0.000000000               0.000000000               0.000000000              -0.001464604               0.005994212              -0.001856852              -0.001298501               0.002430884               0.001132383               0.000000000               0.000000000               0.000000000               0.000000000              -0.001216367               0.006211187              -0.001626783              -0.001232534               0.002481219               0.001248685               0.000000000               0.000000000               0.000000000               0.000000000              -0.000983490               0.006312228              -0.001425173              -0.001157835               0.002490000               0.001332165               0.000000000               0.000000000               0.000000000               0.000000000              -0.000765418               0.006342739              -0.001249041              -0.001079872               0.002474182               0.001394310               0.000000000               0.000000000               0.000000000               0.000000000              -0.000558674               0.006321337              -0.001093212              -0.000999668               0.002440314               0.001440646               0.000000000               0.000000000               0.000000000               0.000000000              -0.000361064               0.006262718              -0.000957702              -0.000918237               0.002393631               0.001475394               0.000000000               0.000000000               0.000000000               0.000000000              -0.000183209               0.006156310              -0.000831533              -0.000838240               0.002331496               0.001493256               0.000000000               0.000000000               0.000000000               0.000000000              -0.000046758               0.005999921              -0.000698958              -0.000767523               0.002255795               0.001488272               0.000000000               0.000000000               0.000000000               0.000000000               0.000038396               0.005816044              -0.000558910              -0.000712605               0.002176197               0.001463592               0.000000000               0.000000000               0.000000000               0.000000000               0.000072103               0.005609205              -0.000415111              -0.000674110               0.002094420               0.001420309               0.000000000               0.000000000               0.000000000               0.000000000               0.000053809               0.005401970              -0.000270298              -0.000655066               0.002018994               0.001363928               0.000000000               0.000000000               0.000000000               0.000000000              -0.000028223               0.005199482              -0.000130220              -0.000660517               0.001953316               0.001292799               0.000000000               0.000000000               0.000000000               0.000000000              -0.000110812               0.005082440              -0.000054308              -0.000676858               0.001919749               0.001242891               0.000000000               0.000000000               0.000000000               0.000000000              -0.003430299               0.000693720              -0.000142832              -0.001373075               0.000688927              -0.000684148               0.000000000               0.000000000               0.000000000               0.000000000              -0.002409807               0.002065224              -0.001186853              -0.001161829               0.001075676              -0.000086152               0.000000000               0.000000000               0.000000000               0.000000000              -0.001908958               0.003492070              -0.002031908              -0.001152366               0.001548133               0.000395767               0.000000000               0.000000000               0.000000000               0.000000000              -0.001557482               0.004415516              -0.002114335              -0.001135994               0.001850487               0.000714494               0.000000000               0.000000000               0.000000000               0.000000000              -0.001270849               0.005006088              -0.001971695              -0.001102328               0.002036121               0.000933794               0.000000000               0.000000000               0.000000000               0.000000000              -0.001016756               0.005393656              -0.001775759              -0.001055489               0.002149696               0.001094208               0.000000000               0.000000000               0.000000000               0.000000000              -0.000792049               0.005650861              -0.001583205              -0.001003374               0.002218059               0.001214685               0.000000000               0.000000000               0.000000000               0.000000000              -0.000592073               0.005816996              -0.001407796              -0.000949150               0.002255363               0.001306212               0.000000000               0.000000000               0.000000000               0.000000000              -0.000398709               0.005915821              -0.001252578              -0.000888992               0.002268251               0.001379259               0.000000000               0.000000000               0.000000000               0.000000000              -0.000206289               0.005961657              -0.001118450              -0.000822564               0.002261387               0.001438823               0.000000000               0.000000000               0.000000000               0.000000000              -0.000030185               0.005938297              -0.000991307              -0.000753605               0.002230614               0.001477009               0.000000000               0.000000000               0.000000000               0.000000000               0.000118543               0.005845413              -0.000854053              -0.000686221               0.002177192               0.001490970               0.000000000               0.000000000               0.000000000               0.000000000               0.000235852               0.005713693              -0.000706169              -0.000625766               0.002113134               0.001487368               0.000000000               0.000000000               0.000000000               0.000000000               0.000311452               0.005551813              -0.000551442              -0.000577181               0.002042979               0.001465798               0.000000000               0.000000000               0.000000000               0.000000000               0.000342897               0.005374108              -0.000383639              -0.000543176               0.001972410               0.001429234               0.000000000               0.000000000               0.000000000               0.000000000               0.000316711               0.005190652              -0.000198923              -0.000530064               0.001906888               0.001376824               0.000000000               0.000000000               0.000000000               0.000000000               0.000267816               0.005086474              -0.000097432              -0.000535377               0.001873933               0.001338557               0.000000000               0.000000000               0.000000000               0.000000000              -0.004702094               0.000073060               0.000190058              -0.001772416               0.000615155              -0.001157262               0.000000000               0.000000000               0.000000000               0.000000000              -0.003021729               0.001181408              -0.000841185              -0.001280823               0.000820737              -0.000460085               0.000000000               0.000000000               0.000000000               0.000000000              -0.001943238               0.002332125              -0.001728666              -0.001020228               0.001117442               0.000097214               0.000000000               0.000000000               0.000000000               0.000000000              -0.001370325               0.003267531              -0.001904687              -0.000922312               0.001396602               0.000474290               0.000000000               0.000000000               0.000000000               0.000000000              -0.001007001               0.003967052              -0.001839333              -0.000873506               0.001613505               0.000739999               0.000000000               0.000000000               0.000000000               0.000000000              -0.000739889               0.004491002              -0.001696171              -0.000838832               0.001776596               0.000937764               0.000000000               0.000000000               0.000000000               0.000000000              -0.000522080               0.004884481              -0.001536839              -0.000806339               0.001896923               0.001090584               0.000000000               0.000000000               0.000000000               0.000000000              -0.000332630               0.005175335              -0.001386521              -0.000771652               0.001982312               0.001210659               0.000000000               0.000000000               0.000000000               0.000000000              -0.000154005               0.005390114              -0.001253331              -0.000731515               0.002040525               0.001309010               0.000000000               0.000000000               0.000000000               0.000000000               0.000024321               0.005547455              -0.001134714              -0.000684310               0.002077237               0.001392926               0.000000000               0.000000000               0.000000000               0.000000000               0.000192085               0.005625018              -0.001018305              -0.000631094               0.002085352               0.001454258               0.000000000               0.000000000               0.000000000               0.000000000               0.000347313               0.005617057              -0.000893288              -0.000571889               0.002062963               0.001491074               0.000000000               0.000000000               0.000000000               0.000000000               0.000493341               0.005554178              -0.000756512              -0.000509268               0.002021130               0.001511862               0.000000000               0.000000000               0.000000000               0.000000000               0.000623977               0.005452066              -0.000610016              -0.000447516               0.001966509               0.001518993               0.000000000               0.000000000               0.000000000               0.000000000               0.000734165               0.005319517              -0.000446319              -0.000389627               0.001903030               0.001513403               0.000000000               0.000000000               0.000000000               0.000000000               0.000810324               0.005164732              -0.000244866              -0.000341719               0.001835466               0.001493747               0.000000000               0.000000000               0.000000000               0.000000000               0.000843778               0.005083892              -0.000132742              -0.000319069               0.001800970               0.001481901               0.000000000               0.000000000               0.000000000               0.000000000              -0.005775396              -0.000292398               0.000298567              -0.002129222               0.000612270              -0.001516952               0.000000000               0.000000000               0.000000000               0.000000000              -0.003561115               0.000534985              -0.000520660              -0.001402290               0.000645754              -0.000756536               0.000000000               0.000000000               0.000000000               0.000000000              -0.001980264               0.001389691              -0.001253634              -0.000916309               0.000768661              -0.000147648               0.000000000               0.000000000               0.000000000               0.000000000              -0.001191198               0.002279161              -0.001442711              -0.000731593               0.001003577               0.000271983               0.000000000               0.000000000               0.000000000               0.000000000              -0.000742028               0.003035064              -0.001430189              -0.000657643               0.001230892               0.000573249               0.000000000               0.000000000               0.000000000               0.000000000              -0.000449493               0.003652108              -0.001343007              -0.000625072               0.001425714               0.000800642               0.000000000               0.000000000               0.000000000               0.000000000              -0.000231636               0.004148050              -0.001233729              -0.000605369               0.001584459               0.000979090               0.000000000               0.000000000               0.000000000               0.000000000              -0.000049307               0.004538344              -0.001127199              -0.000585782               0.001708027               0.001122245               0.000000000               0.000000000               0.000000000               0.000000000               0.000120125               0.004851888              -0.001031923              -0.000561438               0.001804426               0.001242988               0.000000000               0.000000000               0.000000000               0.000000000               0.000285480               0.005104178              -0.000944052              -0.000530966               0.001878364               0.001347398               0.000000000               0.000000000               0.000000000               0.000000000               0.000443784               0.005271223              -0.000856022              -0.000492483               0.001921218               0.001428735               0.000000000               0.000000000               0.000000000               0.000000000               0.000601411               0.005350874              -0.000759458              -0.000443329               0.001931383               0.001488054               0.000000000               0.000000000               0.000000000               0.000000000               0.000770162               0.005363768              -0.000652601              -0.000381660               0.001915125               0.001533465               0.000000000               0.000000000               0.000000000               0.000000000               0.000956166               0.005325465              -0.000539072              -0.000307120               0.001877511               0.001570390               0.000000000               0.000000000               0.000000000               0.000000000               0.001154690               0.005247053              -0.000406383              -0.000222872               0.001823291               0.001600419               0.000000000               0.000000000               0.000000000               0.000000000               0.001361608               0.005132494              -0.000227996              -0.000130958               0.001754467               0.001623509               0.000000000               0.000000000               0.000000000               0.000000000               0.001515562               0.005084728              -0.000130067              -0.000067255               0.001717311               0.001650055               0.000000000               0.000000000               0.000000000               0.000000000              -0.006491837              -0.000472729               0.000206496              -0.002375346               0.000634201              -0.001741145               0.000000000               0.000000000               0.000000000               0.000000000              -0.003931760               0.000144298              -0.000244584              -0.001492446               0.000545578              -0.000946868               0.000000000               0.000000000               0.000000000               0.000000000              -0.002012067               0.000773964              -0.000657566              -0.000851270               0.000541741              -0.000309529               0.000000000               0.000000000               0.000000000               0.000000000              -0.001068998               0.001607706              -0.000777791              -0.000601837               0.000736508               0.000134672               0.000000000               0.000000000               0.000000000               0.000000000              -0.000552381               0.002387398              -0.000782639              -0.000505567               0.000964313               0.000458747               0.000000000               0.000000000               0.000000000               0.000000000              -0.000232282               0.003054131              -0.000743116              -0.000468871               0.001174324               0.000705452               0.000000000               0.000000000               0.000000000               0.000000000              -0.000006002               0.003606454              -0.000688994              -0.000453057               0.001353158               0.000900101               0.000000000               0.000000000               0.000000000               0.000000000               0.000175180               0.004060178              -0.000634809              -0.000441829               0.001500656               0.001058827               0.000000000               0.000000000               0.000000000               0.000000000               0.000337422               0.004439781              -0.000585793              -0.000428439               0.001622725               0.001194286               0.000000000               0.000000000               0.000000000               0.000000000               0.000494439               0.004757562              -0.000539139              -0.000409280               0.001722265               0.001312985               0.000000000               0.000000000               0.000000000               0.000000000               0.000647752               0.004986974              -0.000491942              -0.000380464               0.001789129               0.001408665               0.000000000               0.000000000               0.000000000               0.000000000               0.000806907               0.005123616              -0.000439308              -0.000337861               0.001820475               0.001482614               0.000000000               0.000000000               0.000000000               0.000000000               0.000992612               0.005192105              -0.000382082              -0.000276783               0.001822945               0.001546162               0.000000000               0.000000000               0.000000000               0.000000000               0.001215744               0.005208460              -0.000319204              -0.000195153               0.001801187               0.001606034               0.000000000               0.000000000               0.000000000               0.000000000               0.001481323               0.005179943              -0.000242608              -0.000091997               0.001757296               0.001665299               0.000000000               0.000000000               0.000000000               0.000000000               0.001801328               0.005103572              -0.000137659               0.000037551               0.001688657               0.001726208               0.000000000               0.000000000               0.000000000               0.000000000               0.002065771               0.005085115              -0.000081060               0.000139023               0.001648680               0.001787703               0.000000000               0.000000000               0.000000000               0.000000000              -0.006744682              -0.000526825               0.000000000              -0.002463401               0.000645521              -0.001817880               0.000000000               0.000000000               0.000000000               0.000000000              -0.004064349               0.000012907               0.000000000              -0.001525743               0.000512880              -0.001012863               0.000000000               0.000000000               0.000000000               0.000000000              -0.002024758               0.000561368              -0.000000000              -0.000829454               0.000463604              -0.000365850               0.000000000               0.000000000               0.000000000               0.000000000              -0.001027228               0.001369441               0.000000000              -0.000556390               0.000641939               0.000085549               0.000000000               0.000000000               0.000000000               0.000000000              -0.000486437               0.002150601               0.000000000              -0.000451238               0.000867273               0.000416034               0.000000000               0.000000000               0.000000000               0.000000000              -0.000153915               0.002835811               0.000000000              -0.000412194               0.001082659               0.000670465               0.000000000               0.000000000               0.000000000               0.000000000               0.000078456               0.003407595              -0.000000000              -0.000396527               0.001268029               0.000871502               0.000000000               0.000000000               0.000000000               0.000000000               0.000261407               0.003881280              -0.000000000              -0.000387132               0.001422791               0.001035659               0.000000000               0.000000000               0.000000000               0.000000000               0.000420206               0.004284218               0.000000000              -0.000377949               0.001554041               0.001176092               0.000000000               0.000000000               0.000000000               0.000000000               0.000573455               0.004626494               0.000000000              -0.000363265               0.001663238               0.001299972               0.000000000               0.000000000               0.000000000               0.000000000               0.000724964               0.004878753              -0.000000000              -0.000337982               0.001738895               0.001400913               0.000000000               0.000000000               0.000000000               0.000000000               0.000886237               0.005033311              -0.000000000              -0.000296824               0.001776695               0.001479871               0.000000000               0.000000000               0.000000000               0.000000000               0.001078344               0.005121407              -0.000000000              -0.000235796               0.001785717               0.001549921               0.000000000               0.000000000               0.000000000               0.000000000               0.001312742               0.005159671               0.000000000              -0.000152680               0.001770767               0.001618086               0.000000000               0.000000000               0.000000000               0.000000000               0.001604833               0.005152667              -0.000000000              -0.000042271               0.001731629               0.001689358               0.000000000               0.000000000               0.000000000               0.000000000               0.001969804               0.005092967              -0.000000000               0.000102054               0.001663620               0.001765675               0.000000000               0.000000000               0.000000000               0.000000000               0.002277747               0.005085851               0.000000000               0.000218422               0.001622459               0.001840881               0.000000000               0.000000000               0.000000000               0.000000000               0.000000000               0.000000000               0.000000000               0.000000000               0.000000000               0.000000000               0.000000000               0.000000000               0.000000000               0.000000000               0.000000000               0.000000000               0.000000000               0.000000000               0.000000000               0.000000000               0.000000000               0.000000000               0.000000000               0.000000000               0.000000000               0.000000000               0.000000000               0.000000000               0.000000000               0.000000000               0.000000000               0.000000000               0.000000000               0.000000000               0.000000000               0.000000000               0.000000000               0.000000000               0.000000000               0.000000000               0.000000000               0.000000000               0.000000000               0.000000000               0.000000000               0.000000000               0.000000000               0.000000000               0.000000000               0.000000000               0.000000000               0.000000000               0.000000000               0.000000000               0.000000000               0.000000000               0.000000000               0.000000000               0.000000000               0.000000000               0.000000000               0.000000000               0.000000000               0.000000000               0.000000000               0.000000000               0.000000000               0.000000000               0.000000000               0.000000000               0.000000000               0.000000000               0.000000000               0.000000000               0.000000000               0.000000000               0.000000000               0.000000000               0.000000000               0.000000000               0.000000000               0.000000000               0.000000000               0.000000000               0.000000000               0.000000000               0.000000000               0.000000000               0.000000000               0.000000000               0.000000000               0.000000000               0.000000000               0.000000000               0.000000000               0.000000000               0.000000000               0.000000000               0.000000000               0.000000000               0.000000000               0.000000000               0.000000000               0.000000000               0.000000000               0.000000000               0.000000000               0.000000000               0.000000000               0.000000000               0.000000000               0.000000000               0.000000000               0.000000000               0.000000000               0.000000000               0.000000000               0.000000000               0.000000000               0.000000000               0.000000000               0.000000000               0.000000000               0.000000000               0.000000000               0.000000000               0.000000000               0.000000000               0.000000000               0.000000000               0.000000000               0.000000000               0.000000000               0.000000000               0.000000000               0.000000000               0.000000000               0.000000000               0.000000000               0.000000000               0.000000000               0.000000000               0.000000000               0.000000000               0.000000000               0.000000000               0.000000000               0.000000000               0.000000000               0.000000000               0.000000000               0.000000000               0.000000000               0.000000000               0.000000000               0.000000000               0.000000000               0.000000000               0.000000000               0.000000000               0.000000000               0.000000000               0.000000000               0.000000000               0.000000000               0.000000000               0.000000000               0.000000000               0.000000000               0.000000000               0.000000000               0.000000000               0.000000000               0.000000000               0.001824907               0.019117471               0.001350761              -0.001705340               0.006940873               0.005235533               0.000000000               0.000000000               0.000000000               0.000000000               0.001743723               0.015210058               0.000709217              -0.001247358               0.005485755               0.004238397               0.000000000               0.000000000               0.000000000               0.000000000               0.002219246               0.012102740               0.000069315              -0.000680624               0.004261081               0.003580457               0.000000000               0.000000000               0.000000000               0.000000000               0.002111847               0.010370094              -0.000199732              -0.000504318               0.003624770               0.003120452               0.000000000               0.000000000               0.000000000               0.000000000               0.001838975               0.009297068              -0.000308711              -0.000472517               0.003256497               0.002783980               0.000000000               0.000000000               0.000000000               0.000000000               0.001545631               0.008570575              -0.000345977              -0.000491709               0.003020733               0.002529024               0.000000000               0.000000000               0.000000000               0.000000000               0.001277305               0.008038813              -0.000351269              -0.000525861               0.002854865               0.002329004               0.000000000               0.000000000               0.000000000               0.000000000               0.001042150               0.007620424              -0.000341265              -0.000561745               0.002727365               0.002165619               0.000000000               0.000000000               0.000000000               0.000000000               0.000833883               0.007268946              -0.000326339              -0.000595911               0.002621595               0.002025684               0.000000000               0.000000000               0.000000000               0.000000000               0.000648196               0.006959414              -0.000312718              -0.000626852               0.002528732               0.001901880               0.000000000               0.000000000               0.000000000               0.000000000               0.000488194               0.006679393              -0.000297464              -0.000651850               0.002443725               0.001791876               0.000000000               0.000000000               0.000000000               0.000000000               0.000352468               0.006410231              -0.000273338              -0.000669102               0.002359756               0.001690654               0.000000000               0.000000000               0.000000000               0.000000000               0.000236336               0.006132735              -0.000243145              -0.000677964               0.002270213               0.001592248               0.000000000               0.000000000               0.000000000               0.000000000               0.000137414               0.005837736              -0.000209869              -0.000678185               0.002171954               0.001493769               0.000000000               0.000000000               0.000000000               0.000000000               0.000063187               0.005521092              -0.000162534              -0.000666440               0.002062492               0.001396053               0.000000000               0.000000000               0.000000000               0.000000000               0.000020836               0.005172465              -0.000091671              -0.000638743               0.001937052               0.001298309               0.000000000               0.000000000               0.000000000               0.000000000              -0.000019113               0.004911496              -0.000055071              -0.000621103               0.001844183               0.001223080               0.000000000               0.000000000               0.000000000               0.000000000               0.002001416               0.017999807               0.002523483              -0.001499442               0.006499689               0.005000247               0.000000000               0.000000000               0.000000000               0.000000000               0.001669106               0.014488374               0.001333610              -0.001185130               0.005224453               0.004039323               0.000000000               0.000000000               0.000000000               0.000000000               0.001870366               0.011777689               0.000156012              -0.000770822               0.004182798               0.003411976               0.000000000               0.000000000               0.000000000               0.000000000               0.001660814               0.010246025              -0.000325907              -0.000657946               0.003634623               0.002976677               0.000000000               0.000000000               0.000000000               0.000000000               0.001370902               0.009275326              -0.000517931              -0.000645326               0.003306853               0.002661527               0.000000000               0.000000000               0.000000000               0.000000000               0.001098921               0.008602824              -0.000581802              -0.000663256               0.003088665               0.002425409               0.000000000               0.000000000               0.000000000               0.000000000               0.000866490               0.008096132              -0.000588621              -0.000687081               0.002927711               0.002240630               0.000000000               0.000000000               0.000000000               0.000000000               0.000675329               0.007689063              -0.000570093              -0.000707883               0.002798956               0.002091073               0.000000000               0.000000000               0.000000000               0.000000000               0.000514467               0.007345195              -0.000543093              -0.000725223               0.002690115               0.001964892               0.000000000               0.000000000               0.000000000               0.000000000               0.000379088               0.007041864              -0.000518476              -0.000738073               0.002593289               0.001855216               0.000000000               0.000000000               0.000000000               0.000000000               0.000268260               0.006763803              -0.000492549              -0.000744876               0.002502871               0.001757995               0.000000000               0.000000000               0.000000000               0.000000000               0.000180778               0.006497953              -0.000453683              -0.000744451               0.002414113               0.001669662               0.000000000               0.000000000               0.000000000               0.000000000               0.000113702               0.006237022              -0.000403439              -0.000736988               0.002324649               0.001587661               0.000000000               0.000000000               0.000000000               0.000000000               0.000061541               0.005977542              -0.000345828              -0.000724113               0.002233865               0.001509752               0.000000000               0.000000000               0.000000000               0.000000000               0.000028088               0.005721488              -0.000267273              -0.000704651               0.002142027               0.001437376               0.000000000               0.000000000               0.000000000               0.000000000               0.000009389               0.005469953              -0.000152008              -0.000680221               0.002050040               0.001369819               0.000000000               0.000000000               0.000000000               0.000000000              -0.000013871               0.005300710              -0.000090006              -0.000667789               0.001989482               0.001321693               0.000000000               0.000000000               0.000000000               0.000000000               0.002201984               0.016300450               0.003381597              -0.001211812               0.005837366               0.004625554               0.000000000               0.000000000               0.000000000               0.000000000               0.001512793               0.013397105               0.001808853              -0.001107339               0.004834770               0.003727431               0.000000000               0.000000000               0.000000000               0.000000000               0.001337211               0.011288278               0.000267794              -0.000909578               0.004065914               0.003156336               0.000000000               0.000000000               0.000000000               0.000000000               0.001017978               0.010043315              -0.000337645              -0.000873670               0.003638962               0.002765291               0.000000000               0.000000000               0.000000000               0.000000000               0.000726070               0.009210590              -0.000571711              -0.000879045               0.003363181               0.002484136               0.000000000               0.000000000               0.000000000               0.000000000               0.000497255               0.008608030              -0.000647261              -0.000889531               0.003165825               0.002276294               0.000000000               0.000000000               0.000000000               0.000000000               0.000325908               0.008137513              -0.000653074              -0.000894972               0.003010801               0.002115829               0.000000000               0.000000000               0.000000000               0.000000000               0.000201619               0.007749820              -0.000630750              -0.000893118               0.002880954               0.001987835               0.000000000               0.000000000               0.000000000               0.000000000               0.000110344               0.007414586              -0.000599812              -0.000885442               0.002766651               0.001881209               0.000000000               0.000000000               0.000000000               0.000000000               0.000046335               0.007114896              -0.000570167              -0.000871984               0.002662270               0.001790285               0.000000000               0.000000000               0.000000000               0.000000000               0.000009644               0.006837992              -0.000537658              -0.000851130               0.002563018               0.001711888               0.000000000               0.000000000               0.000000000               0.000000000              -0.000007733               0.006579010              -0.000491526              -0.000825274               0.002468073               0.001642799               0.000000000               0.000000000               0.000000000               0.000000000              -0.000014695               0.006340549              -0.000432298              -0.000798077               0.002379521               0.001581444               0.000000000               0.000000000               0.000000000               0.000000000              -0.000017785               0.006124407              -0.000363310              -0.000772218               0.002298855               0.001526636               0.000000000               0.000000000               0.000000000               0.000000000              -0.000016297               0.005936321              -0.000273311              -0.000748149               0.002228137               0.001479987               0.000000000               0.000000000               0.000000000               0.000000000              -0.000010255               0.005788513              -0.000151554              -0.000727408               0.002171954               0.001444547               0.000000000               0.000000000               0.000000000               0.000000000              -0.000010572               0.005715429              -0.000084583              -0.000718391               0.002144588               0.001426196               0.000000000               0.000000000               0.000000000               0.000000000               0.002320700               0.014231652               0.003855500              -0.000908695               0.005046734               0.004138039               0.000000000               0.000000000               0.000000000               0.000000000               0.001256800               0.012084301               0.002106991              -0.001039236               0.004374472               0.003335236               0.000000000               0.000000000               0.000000000               0.000000000               0.000685746               0.010695487               0.000412661              -0.001079779               0.003925053               0.002845274               0.000000000               0.000000000               0.000000000               0.000000000               0.000291818               0.009765446              -0.000222707              -0.001111246               0.003625531               0.002514285               0.000000000               0.000000000               0.000000000               0.000000000               0.000041121               0.009083769              -0.000463011              -0.001120048               0.003401242               0.002281194               0.000000000               0.000000000               0.000000000               0.000000000              -0.000112808               0.008552881              -0.000542658              -0.001111411               0.003221402               0.002109991               0.000000000               0.000000000               0.000000000               0.000000000              -0.000201064               0.008117894              -0.000552230              -0.001090133               0.003069315               0.001979182               0.000000000               0.000000000               0.000000000               0.000000000              -0.000244095               0.007748346              -0.000533386              -0.001060076               0.002936115               0.001876039               0.000000000               0.000000000               0.000000000               0.000000000              -0.000257613               0.007420690              -0.000505154              -0.001024189               0.002814935               0.001790746               0.000000000               0.000000000               0.000000000               0.000000000              -0.000242357               0.007124392              -0.000476488              -0.000981431               0.002701917               0.001720486               0.000000000               0.000000000               0.000000000               0.000000000              -0.000204574               0.006853576              -0.000442251              -0.000933410               0.002595639               0.001662229               0.000000000               0.000000000               0.000000000               0.000000000              -0.000159713               0.006606032              -0.000395866              -0.000885644               0.002497203               0.001611559               0.000000000               0.000000000               0.000000000               0.000000000              -0.000117115               0.006389589              -0.000338604              -0.000842615               0.002410713               0.001568098               0.000000000               0.000000000               0.000000000               0.000000000              -0.000079453               0.006210809              -0.000272510              -0.000806144               0.002338964               0.001532820               0.000000000               0.000000000               0.000000000               0.000000000              -0.000046569               0.006075886              -0.000192720              -0.000776947               0.002284257               0.001507310               0.000000000               0.000000000               0.000000000               0.000000000              -0.000021076               0.005994016              -0.000099356              -0.000757154               0.002250370               0.001493216               0.000000000               0.000000000               0.000000000               0.000000000              -0.000008754               0.005971108              -0.000049765              -0.000749669               0.002240239               0.001490570               0.000000000               0.000000000               0.000000000               0.000000000               0.002261292               0.012002220               0.003951883              -0.000652295               0.004218130               0.003565836               0.000000000               0.000000000               0.000000000               0.000000000               0.000898076               0.010692131               0.002245570              -0.000999737               0.003897253               0.002897516               0.000000000               0.000000000               0.000000000               0.000000000              -0.000001465               0.010049311               0.000602665              -0.001256710               0.003768640               0.002511930               0.000000000               0.000000000               0.000000000               0.000000000              -0.000404376               0.009422715               0.000005682              -0.001329477               0.003584033               0.002254556               0.000000000               0.000000000               0.000000000               0.000000000              -0.000571383               0.008879102              -0.000223340              -0.001324153               0.003401055               0.002076902               0.000000000               0.000000000               0.000000000               0.000000000              -0.000623893               0.008410607              -0.000306742              -0.001285283               0.003231935               0.001946652               0.000000000               0.000000000               0.000000000               0.000000000              -0.000617476               0.008003710              -0.000328986              -0.001232014               0.003078548               0.001846534               0.000000000               0.000000000               0.000000000               0.000000000              -0.000574193               0.007648024              -0.000323265              -0.001171322               0.002939756               0.001768434               0.000000000               0.000000000               0.000000000               0.000000000              -0.000509054               0.007328215              -0.000305124              -0.001106919               0.002811687               0.001704768               0.000000000               0.000000000               0.000000000               0.000000000              -0.000426737               0.007038505              -0.000284419              -0.001039837               0.002692757               0.001652920               0.000000000               0.000000000               0.000000000               0.000000000              -0.000333799               0.006778747              -0.000257342              -0.000972515               0.002583731               0.001611216               0.000000000               0.000000000               0.000000000               0.000000000              -0.000242486               0.006550479              -0.000220842              -0.000909740               0.002486718               0.001576978               0.000000000               0.000000000               0.000000000               0.000000000              -0.000165020               0.006359946              -0.000179849              -0.000856874               0.002405585               0.001548712               0.000000000               0.000000000               0.000000000               0.000000000              -0.000105673               0.006213628              -0.000134104              -0.000816329               0.002343298               0.001526969               0.000000000               0.000000000               0.000000000               0.000000000              -0.000060609               0.006107549              -0.000082666              -0.000786170               0.002297886               0.001511716               0.000000000               0.000000000               0.000000000               0.000000000              -0.000025106               0.006039802              -0.000034537              -0.000764388               0.002268043               0.001503655               0.000000000               0.000000000               0.000000000               0.000000000              -0.000013558               0.006010648              -0.000015849              -0.000756413               0.002255667               0.001499254               0.000000000               0.000000000               0.000000000               0.000000000               0.001975563               0.009790934               0.003728087              -0.000483033               0.003424622               0.002941589               0.000000000               0.000000000               0.000000000               0.000000000               0.000457946               0.009330915               0.002262580              -0.000994634               0.003441818               0.002447184               0.000000000               0.000000000               0.000000000               0.000000000              -0.000642069               0.009386446               0.000839485              -0.001414078               0.003600143               0.002186065               0.000000000               0.000000000               0.000000000               0.000000000              -0.000977826               0.009021183               0.000319162              -0.001494329               0.003505140               0.002010812               0.000000000               0.000000000               0.000000000               0.000000000              -0.001033928               0.008589789               0.000099245              -0.001461443               0.003350382               0.001888939               0.000000000               0.000000000               0.000000000               0.000000000              -0.000978712               0.008176774               0.000000253              -0.001389110               0.003188601               0.001799491               0.000000000               0.000000000               0.000000000               0.000000000              -0.000878374               0.007798461              -0.000045627              -0.001304194               0.003034192               0.001729998               0.000000000               0.000000000               0.000000000               0.000000000              -0.000758793               0.007456603              -0.000063727              -0.001216620               0.002891049               0.001674430               0.000000000               0.000000000               0.000000000               0.000000000              -0.000630765               0.007146919              -0.000065891              -0.001129899               0.002758915               0.001629016               0.000000000               0.000000000               0.000000000               0.000000000              -0.000495645               0.006871870              -0.000064811              -0.001044848               0.002638883               0.001594035               0.000000000               0.000000000               0.000000000               0.000000000              -0.000364297               0.006632041              -0.000059206              -0.000965614               0.002532530               0.001566915               0.000000000               0.000000000               0.000000000               0.000000000              -0.000254303               0.006429651              -0.000046303              -0.000899068               0.002442885               0.001543817               0.000000000               0.000000000               0.000000000               0.000000000              -0.000171340               0.006266830              -0.000034573              -0.000847604               0.002371457               0.001523853               0.000000000               0.000000000               0.000000000               0.000000000              -0.000111693               0.006134214              -0.000023342              -0.000808660               0.002314271               0.001505611               0.000000000               0.000000000               0.000000000               0.000000000              -0.000068676               0.006022289              -0.000009341              -0.000778538               0.002266922               0.001488385               0.000000000               0.000000000               0.000000000               0.000000000              -0.000032659               0.005929457              -0.000001631              -0.000753427               0.002227609               0.001474181               0.000000000               0.000000000               0.000000000               0.000000000              -0.000028759               0.005867201              -0.000009078              -0.000744183               0.002203775               0.001459592               0.000000000               0.000000000               0.000000000               0.000000000               0.001476585               0.007739796               0.003258718              -0.000413758               0.002717824               0.002304067               0.000000000               0.000000000               0.000000000               0.000000000              -0.000035333               0.008078799               0.002195144              -0.001023099               0.003033938               0.002010839               0.000000000               0.000000000               0.000000000               0.000000000              -0.001174640               0.008711580               0.001115811              -0.001529434               0.003413642               0.001884208               0.000000000               0.000000000               0.000000000               0.000000000              -0.001380537               0.008555221               0.000672643              -0.001587100               0.003380745               0.001793645               0.000000000               0.000000000               0.000000000               0.000000000              -0.001311440               0.008224917               0.000444342              -0.001519901               0.003248245               0.001728344               0.000000000               0.000000000               0.000000000               0.000000000              -0.001160887               0.007867035               0.000315555              -0.001418708               0.003095222               0.001676513               0.000000000               0.000000000               0.000000000               0.000000000              -0.000984843               0.007524280               0.000239089              -0.001309848               0.002944684               0.001634836               0.000000000               0.000000000               0.000000000               0.000000000              -0.000804724               0.007204288               0.000188800              -0.001202304               0.002802174               0.001599869               0.000000000               0.000000000               0.000000000               0.000000000              -0.000628751               0.006914886               0.000153727              -0.001100140               0.002671652               0.001571512               0.000000000               0.000000000               0.000000000               0.000000000              -0.000464532               0.006662041               0.000123129              -0.001006952               0.002556309               0.001549357               0.000000000               0.000000000               0.000000000               0.000000000              -0.000325008               0.006446815               0.000097760              -0.000927728               0.002458159               0.001530432               0.000000000               0.000000000               0.000000000               0.000000000              -0.000218080               0.006262848               0.000076509              -0.000864634               0.002375807               0.001511173               0.000000000               0.000000000               0.000000000               0.000000000              -0.000144679               0.006092824               0.000052976              -0.000815856               0.002302873               0.001487017               0.000000000               0.000000000               0.000000000               0.000000000              -0.000103843               0.005927604               0.000031746              -0.000779890               0.002235811               0.001455922               0.000000000               0.000000000               0.000000000               0.000000000              -0.000078106               0.005776374               0.000015308              -0.000751335               0.002175884               0.001424549               0.000000000               0.000000000               0.000000000               0.000000000              -0.000046632               0.005643576               0.000001775              -0.000722932               0.002122151               0.001399218               0.000000000               0.000000000               0.000000000               0.000000000              -0.000040015               0.005556468              -0.000012660              -0.000709562               0.002088658               0.001379096               0.000000000               0.000000000               0.000000000               0.000000000               0.000850694               0.005992968               0.002644995              -0.000430112               0.002141006               0.001710894               0.000000000               0.000000000               0.000000000               0.000000000              -0.000502999               0.006958265               0.002094835              -0.001058407               0.002672200               0.001613793               0.000000000               0.000000000               0.000000000               0.000000000              -0.001556910               0.008049598               0.001433723              -0.001590037               0.003213185               0.001623147               0.000000000               0.000000000               0.000000000               0.000000000              -0.001625722               0.008103992               0.001041591              -0.001622641               0.003242184               0.001619543               0.000000000               0.000000000               0.000000000               0.000000000              -0.001457922               0.007890744               0.000791239              -0.001533060               0.003141242               0.001608181               0.000000000               0.000000000               0.000000000               0.000000000              -0.001238064               0.007603178               0.000623869              -0.001414668               0.003005923               0.001591255               0.000000000               0.000000000               0.000000000               0.000000000              -0.001008337               0.007307773               0.000510507              -0.001291595               0.002866432               0.001574837               0.000000000               0.000000000               0.000000000               0.000000000              -0.000781577               0.007023015               0.000424589              -0.001170965               0.002731303               0.001560338               0.000000000               0.000000000               0.000000000               0.000000000              -0.000571211               0.006759716               0.000353181              -0.001059166               0.002606271               0.001547105               0.000000000               0.000000000               0.000000000               0.000000000              -0.000389278               0.006528585               0.000286658              -0.000962050               0.002496857               0.001534807               0.000000000               0.000000000               0.000000000               0.000000000              -0.000246656               0.006328376               0.000225892              -0.000883541               0.002403951               0.001520410               0.000000000               0.000000000               0.000000000               0.000000000              -0.000157026               0.006125194               0.000173948              -0.000824532               0.002316555               0.001492023               0.000000000               0.000000000               0.000000000               0.000000000              -0.000117696               0.005910263               0.000125885              -0.000782917               0.002231040               0.001448123               0.000000000               0.000000000               0.000000000               0.000000000              -0.000112130               0.005703347               0.000080237              -0.000754965               0.002152752               0.001397787               0.000000000               0.000000000               0.000000000               0.000000000              -0.000119989               0.005512799               0.000040485              -0.000734094               0.002082279               0.001348185               0.000000000               0.000000000               0.000000000               0.000000000              -0.000128615               0.005337502               0.000011804              -0.000715417               0.002017622               0.001302205               0.000000000               0.000000000               0.000000000               0.000000000              -0.000132228               0.005238499              -0.000002630              -0.000704396               0.001980948               0.001276552               0.000000000               0.000000000               0.000000000               0.000000000               0.000090037               0.004355927               0.001981980              -0.000510728               0.001622203               0.001111475               0.000000000               0.000000000               0.000000000               0.000000000              -0.000870466               0.005664805               0.001976255              -0.001034524               0.002233090               0.001198566               0.000000000               0.000000000               0.000000000               0.000000000              -0.001734308               0.007086056               0.001777735              -0.001536119               0.002874034               0.001337915               0.000000000               0.000000000               0.000000000               0.000000000              -0.001737697               0.007431846               0.001447773              -0.001580614               0.003004128               0.001423515               0.000000000               0.000000000               0.000000000               0.000000000              -0.001532802               0.007417170               0.001174460              -0.001501943               0.002973013               0.001471070               0.000000000               0.000000000               0.000000000               0.000000000              -0.001289473               0.007274489               0.000966288              -0.001392860               0.002889092               0.001496232               0.000000000               0.000000000               0.000000000               0.000000000              -0.001046817               0.007085826               0.000811883              -0.001278282               0.002788012               0.001509731               0.000000000               0.000000000               0.000000000               0.000000000              -0.000811146               0.006881970               0.000689865              -0.001164423               0.002682108               0.001517685               0.000000000               0.000000000               0.000000000               0.000000000              -0.000593152               0.006671693               0.000582525              -0.001056391               0.002576006               0.001519614               0.000000000               0.000000000               0.000000000               0.000000000              -0.000403223               0.006475616               0.000482140              -0.000960658               0.002478736               0.001518078               0.000000000               0.000000000               0.000000000               0.000000000              -0.000254683               0.006286394               0.000388825              -0.000881303               0.002389212               0.001507908               0.000000000               0.000000000               0.000000000               0.000000000              -0.000162228               0.006069335               0.000301209              -0.000819500               0.002296258               0.001476758               0.000000000               0.000000000               0.000000000               0.000000000              -0.000122100               0.005839037               0.000218037              -0.000775665               0.002204881               0.001429216               0.000000000               0.000000000               0.000000000               0.000000000              -0.000131406               0.005610599               0.000142097              -0.000750600               0.002120381               0.001369781               0.000000000               0.000000000               0.000000000               0.000000000              -0.000174132               0.005396926               0.000075107              -0.000739913               0.002045595               0.001305682               0.000000000               0.000000000               0.000000000               0.000000000              -0.000232867               0.005195279               0.000024892              -0.000736733               0.001977320               0.001240587               0.000000000               0.000000000               0.000000000               0.000000000              -0.000268274               0.005085948               0.000003380              -0.000736344               0.001940747               0.001204403               0.000000000               0.000000000               0.000000000               0.000000000              -0.000926832               0.002866554               0.001308097              -0.000705880               0.001190801               0.000484921               0.000000000               0.000000000               0.000000000               0.000000000              -0.001290870               0.004371941               0.001792626              -0.001030567               0.001800821               0.000770254               0.000000000               0.000000000               0.000000000               0.000000000              -0.001823071               0.005982059               0.002045206              -0.001431406               0.002471135               0.001039728               0.000000000               0.000000000               0.000000000               0.000000000              -0.001769935               0.006603891               0.001832696              -0.001489209               0.002697677               0.001208468               0.000000000               0.000000000               0.000000000               0.000000000              -0.001554249               0.006816134               0.001564469              -0.001434857               0.002750307               0.001315450               0.000000000               0.000000000               0.000000000               0.000000000              -0.001306754               0.006848697               0.001330629              -0.001346117               0.002731582               0.001385465               0.000000000               0.000000000               0.000000000               0.000000000              -0.001064668               0.006797973               0.001142351              -0.001248994               0.002682300               0.001433305               0.000000000               0.000000000               0.000000000               0.000000000              -0.000832958               0.006699142               0.000987047              -0.001149749               0.002616275               0.001466525               0.000000000               0.000000000               0.000000000               0.000000000              -0.000618211               0.006567608               0.000850010              -0.001052778               0.002540107               0.001487329               0.000000000               0.000000000               0.000000000               0.000000000              -0.000420369               0.006427293               0.000724550              -0.000961048               0.002462759               0.001501711               0.000000000               0.000000000               0.000000000               0.000000000              -0.000253287               0.006266675               0.000608040              -0.000878315               0.002381642               0.001503327               0.000000000               0.000000000               0.000000000               0.000000000              -0.000138806               0.006067297               0.000494501              -0.000810462               0.002292566               0.001482104               0.000000000               0.000000000               0.000000000               0.000000000              -0.000077829               0.005850147               0.000378482              -0.000760452               0.002203513               0.001443061               0.000000000               0.000000000               0.000000000               0.000000000              -0.000071527               0.005623706               0.000262831              -0.000729784               0.002117811               0.001388027               0.000000000               0.000000000               0.000000000               0.000000000              -0.000118789               0.005403045               0.000157205              -0.000719925               0.002040972               0.001321047               0.000000000               0.000000000               0.000000000               0.000000000              -0.000210231               0.005192902               0.000068501              -0.000727947               0.001973599               0.001245652               0.000000000               0.000000000               0.000000000               0.000000000              -0.000283505               0.005076465               0.000022474              -0.000740871               0.001939095               0.001198224               0.000000000               0.000000000               0.000000000               0.000000000              -0.002129745               0.001623586               0.000668378              -0.001001601               0.000875056              -0.000126545               0.000000000               0.000000000               0.000000000               0.000000000              -0.001814922               0.003149726               0.001519508              -0.001074309               0.001408000               0.000333691               0.000000000               0.000000000               0.000000000               0.000000000              -0.001873194               0.004749202               0.002137602              -0.001296096               0.002015082               0.000718987               0.000000000               0.000000000               0.000000000               0.000000000              -0.001702006               0.005569656               0.002076675              -0.001334457               0.002301352               0.000966895               0.000000000               0.000000000               0.000000000               0.000000000              -0.001464604               0.005994212               0.001856852              -0.001298501               0.002430884               0.001132383               0.000000000               0.000000000               0.000000000               0.000000000              -0.001216367               0.006211187               0.001626783              -0.001232534               0.002481219               0.001248685               0.000000000               0.000000000               0.000000000               0.000000000              -0.000983490               0.006312228               0.001425173              -0.001157835               0.002490000               0.001332165               0.000000000               0.000000000               0.000000000               0.000000000              -0.000765418               0.006342739               0.001249041              -0.001079872               0.002474182               0.001394310               0.000000000               0.000000000               0.000000000               0.000000000              -0.000558674               0.006321337               0.001093212              -0.000999668               0.002440314               0.001440646               0.000000000               0.000000000               0.000000000               0.000000000              -0.000361064               0.006262718               0.000957702              -0.000918237               0.002393631               0.001475394               0.000000000               0.000000000               0.000000000               0.000000000              -0.000183209               0.006156310               0.000831533              -0.000838240               0.002331496               0.001493256               0.000000000               0.000000000               0.000000000               0.000000000              -0.000046758               0.005999921               0.000698958              -0.000767523               0.002255795               0.001488272               0.000000000               0.000000000               0.000000000               0.000000000               0.000038396               0.005816044               0.000558910              -0.000712605               0.002176197               0.001463592               0.000000000               0.000000000               0.000000000               0.000000000               0.000072103               0.005609205               0.000415111              -0.000674110               0.002094420               0.001420309               0.000000000               0.000000000               0.000000000               0.000000000               0.000053809               0.005401970               0.000270298              -0.000655066               0.002018994               0.001363928               0.000000000               0.000000000               0.000000000               0.000000000              -0.000028223               0.005199482               0.000130220              -0.000660517               0.001953316               0.001292799               0.000000000               0.000000000               0.000000000               0.000000000              -0.000110812               0.005082440               0.000054308              -0.000676858               0.001919749               0.001242891               0.000000000               0.000000000               0.000000000               0.000000000              -0.003430299               0.000693720               0.000142832              -0.001373075               0.000688927              -0.000684148               0.000000000               0.000000000               0.000000000               0.000000000              -0.002409807               0.002065224               0.001186853              -0.001161829               0.001075676              -0.000086152               0.000000000               0.000000000               0.000000000               0.000000000              -0.001908958               0.003492070               0.002031908              -0.001152366               0.001548133               0.000395767               0.000000000               0.000000000               0.000000000               0.000000000              -0.001557482               0.004415516               0.002114335              -0.001135994               0.001850487               0.000714494               0.000000000               0.000000000               0.000000000               0.000000000              -0.001270849               0.005006088               0.001971695              -0.001102328               0.002036121               0.000933794               0.000000000               0.000000000               0.000000000               0.000000000              -0.001016756               0.005393656               0.001775759              -0.001055489               0.002149696               0.001094208               0.000000000               0.000000000               0.000000000               0.000000000              -0.000792049               0.005650861               0.001583205              -0.001003374               0.002218059               0.001214685               0.000000000               0.000000000               0.000000000               0.000000000              -0.000592073               0.005816996               0.001407796              -0.000949150               0.002255363               0.001306212               0.000000000               0.000000000               0.000000000               0.000000000              -0.000398709               0.005915821               0.001252578              -0.000888992               0.002268251               0.001379259               0.000000000               0.000000000               0.000000000               0.000000000              -0.000206289               0.005961657               0.001118450              -0.000822564               0.002261387               0.001438823               0.000000000               0.000000000               0.000000000               0.000000000              -0.000030185               0.005938297               0.000991307              -0.000753605               0.002230614               0.001477009               0.000000000               0.000000000               0.000000000               0.000000000               0.000118543               0.005845413               0.000854053              -0.000686221               0.002177192               0.001490970               0.000000000               0.000000000               0.000000000               0.000000000               0.000235852               0.005713693               0.000706169              -0.000625766               0.002113134               0.001487368               0.000000000               0.000000000               0.000000000               0.000000000               0.000311452               0.005551813               0.000551442              -0.000577181               0.002042979               0.001465798               0.000000000               0.000000000               0.000000000               0.000000000               0.000342897               0.005374108               0.000383639              -0.000543176               0.001972410               0.001429234               0.000000000               0.000000000               0.000000000               0.000000000               0.000316711               0.005190652               0.000198923              -0.000530064               0.001906888               0.001376824               0.000000000               0.000000000               0.000000000               0.000000000               0.000267816               0.005086474               0.000097432              -0.000535377               0.001873933               0.001338557               0.000000000               0.000000000               0.000000000               0.000000000              -0.004702094               0.000073060              -0.000190058              -0.001772416               0.000615155              -0.001157262               0.000000000               0.000000000               0.000000000               0.000000000              -0.003021729               0.001181408               0.000841185              -0.001280823               0.000820737              -0.000460085               0.000000000               0.000000000               0.000000000               0.000000000              -0.001943238               0.002332125               0.001728666              -0.001020228               0.001117442               0.000097214               0.000000000               0.000000000               0.000000000               0.000000000              -0.001370325               0.003267531               0.001904687              -0.000922312               0.001396602               0.000474290               0.000000000               0.000000000               0.000000000               0.000000000              -0.001007001               0.003967052               0.001839333              -0.000873506               0.001613505               0.000739999               0.000000000               0.000000000               0.000000000               0.000000000              -0.000739889               0.004491002               0.001696171              -0.000838832               0.001776596               0.000937764               0.000000000               0.000000000               0.000000000               0.000000000              -0.000522080               0.004884481               0.001536839              -0.000806339               0.001896923               0.001090584               0.000000000               0.000000000               0.000000000               0.000000000              -0.000332630               0.005175335               0.001386521              -0.000771652               0.001982312               0.001210659               0.000000000               0.000000000               0.000000000               0.000000000              -0.000154005               0.005390114               0.001253331              -0.000731515               0.002040525               0.001309010               0.000000000               0.000000000               0.000000000               0.000000000               0.000024321               0.005547455               0.001134714              -0.000684310               0.002077237               0.001392926               0.000000000               0.000000000               0.000000000               0.000000000               0.000192085               0.005625018               0.001018305              -0.000631094               0.002085352               0.001454258               0.000000000               0.000000000               0.000000000               0.000000000               0.000347313               0.005617057               0.000893288              -0.000571889               0.002062963               0.001491074               0.000000000               0.000000000               0.000000000               0.000000000               0.000493341               0.005554178               0.000756512              -0.000509268               0.002021130               0.001511862               0.000000000               0.000000000               0.000000000               0.000000000               0.000623977               0.005452066               0.000610016              -0.000447516               0.001966509               0.001518993               0.000000000               0.000000000               0.000000000               0.000000000               0.000734165               0.005319517               0.000446319              -0.000389627               0.001903030               0.001513403               0.000000000               0.000000000               0.000000000               0.000000000               0.000810324               0.005164732               0.000244866              -0.000341719               0.001835466               0.001493747               0.000000000               0.000000000               0.000000000               0.000000000               0.000843778               0.005083892               0.000132742              -0.000319069               0.001800970               0.001481901               0.000000000               0.000000000               0.000000000               0.000000000              -0.005775396              -0.000292398              -0.000298567              -0.002129222               0.000612270              -0.001516952               0.000000000               0.000000000               0.000000000               0.000000000              -0.003561115               0.000534985               0.000520660              -0.001402290               0.000645754              -0.000756536               0.000000000               0.000000000               0.000000000               0.000000000              -0.001980264               0.001389691               0.001253634              -0.000916309               0.000768661              -0.000147648               0.000000000               0.000000000               0.000000000               0.000000000              -0.001191198               0.002279161               0.001442711              -0.000731593               0.001003577               0.000271983               0.000000000               0.000000000               0.000000000               0.000000000              -0.000742028               0.003035064               0.001430189              -0.000657643               0.001230892               0.000573249               0.000000000               0.000000000               0.000000000               0.000000000              -0.000449493               0.003652108               0.001343007              -0.000625072               0.001425714               0.000800642               0.000000000               0.000000000               0.000000000               0.000000000              -0.000231636               0.004148050               0.001233729              -0.000605369               0.001584459               0.000979090               0.000000000               0.000000000               0.000000000               0.000000000              -0.000049307               0.004538344               0.001127199              -0.000585782               0.001708027               0.001122245               0.000000000               0.000000000               0.000000000               0.000000000               0.000120125               0.004851888               0.001031923              -0.000561438               0.001804426               0.001242988               0.000000000               0.000000000               0.000000000               0.000000000               0.000285480               0.005104178               0.000944052              -0.000530966               0.001878364               0.001347398               0.000000000               0.000000000               0.000000000               0.000000000               0.000443784               0.005271223               0.000856022              -0.000492483               0.001921218               0.001428735               0.000000000               0.000000000               0.000000000               0.000000000               0.000601411               0.005350874               0.000759458              -0.000443329               0.001931383               0.001488054               0.000000000               0.000000000               0.000000000               0.000000000               0.000770162               0.005363768               0.000652601              -0.000381660               0.001915125               0.001533465               0.000000000               0.000000000               0.000000000               0.000000000               0.000956166               0.005325465               0.000539072              -0.000307120               0.001877511               0.001570390               0.000000000               0.000000000               0.000000000               0.000000000               0.001154690               0.005247053               0.000406383              -0.000222872               0.001823291               0.001600419               0.000000000               0.000000000               0.000000000               0.000000000               0.001361608               0.005132494               0.000227996              -0.000130958               0.001754467               0.001623509               0.000000000               0.000000000               0.000000000               0.000000000               0.001515562               0.005084728               0.000130067              -0.000067255               0.001717311               0.001650055               0.000000000               0.000000000               0.000000000               0.000000000              -0.006491837              -0.000472729              -0.000206496              -0.002375346               0.000634201              -0.001741145               0.000000000               0.000000000               0.000000000               0.000000000              -0.003931760               0.000144298               0.000244584              -0.001492446               0.000545578              -0.000946868               0.000000000               0.000000000               0.000000000               0.000000000              -0.002012067               0.000773964               0.000657566              -0.000851270               0.000541741              -0.000309529               0.000000000               0.000000000               0.000000000               0.000000000              -0.001068998               0.001607706               0.000777791              -0.000601837               0.000736508               0.000134672               0.000000000               0.000000000               0.000000000               0.000000000              -0.000552381               0.002387398               0.000782639              -0.000505567               0.000964313               0.000458747               0.000000000               0.000000000               0.000000000               0.000000000              -0.000232282               0.003054131               0.000743116              -0.000468871               0.001174324               0.000705452               0.000000000               0.000000000               0.000000000               0.000000000              -0.000006002               0.003606454               0.000688994              -0.000453057               0.001353158               0.000900101               0.000000000               0.000000000               0.000000000               0.000000000               0.000175180               0.004060178               0.000634809              -0.000441829               0.001500656               0.001058827               0.000000000               0.000000000               0.000000000               0.000000000               0.000337422               0.004439781               0.000585793              -0.000428439               0.001622725               0.001194286               0.000000000               0.000000000               0.000000000               0.000000000               0.000494439               0.004757562               0.000539139              -0.000409280               0.001722265               0.001312985               0.000000000               0.000000000               0.000000000               0.000000000               0.000647752               0.004986974               0.000491942              -0.000380464               0.001789129               0.001408665               0.000000000               0.000000000               0.000000000               0.000000000               0.000806907               0.005123616               0.000439308              -0.000337861               0.001820475               0.001482614               0.000000000               0.000000000               0.000000000               0.000000000               0.000992612               0.005192105               0.000382082              -0.000276783               0.001822945               0.001546162               0.000000000               0.000000000               0.000000000               0.000000000               0.001215744               0.005208460               0.000319204              -0.000195153               0.001801187               0.001606034               0.000000000               0.000000000               0.000000000               0.000000000               0.001481323               0.005179943               0.000242608              -0.000091997               0.001757296               0.001665299               0.000000000               0.000000000               0.000000000               0.000000000               0.001801328               0.005103572               0.000137659               0.000037551               0.001688657               0.001726208               0.000000000               0.000000000               0.000000000               0.000000000               0.002065771               0.005085115               0.000081060               0.000139023               0.001648680               0.001787703               0.000000000               0.000000000               0.000000000               0.000000000              -0.006744682              -0.000526825              -0.000000000              -0.002463401               0.000645521              -0.001817880               0.000000000               0.000000000               0.000000000               0.000000000              -0.004064349               0.000012907               0.000000000              -0.001525743               0.000512880              -0.001012863               0.000000000               0.000000000               0.000000000               0.000000000              -0.002024758               0.000561368               0.000000000              -0.000829454               0.000463604              -0.000365850               0.000000000               0.000000000               0.000000000               0.000000000              -0.001027228               0.001369441               0.000000000              -0.000556390               0.000641939               0.000085549               0.000000000               0.000000000               0.000000000               0.000000000              -0.000486437               0.002150601              -0.000000000              -0.000451238               0.000867273               0.000416034               0.000000000               0.000000000               0.000000000               0.000000000              -0.000153915               0.002835811              -0.000000000              -0.000412194               0.001082659               0.000670465               0.000000000               0.000000000               0.000000000               0.000000000               0.000078456               0.003407595               0.000000000              -0.000396527               0.001268029               0.000871502               0.000000000               0.000000000               0.000000000               0.000000000               0.000261407               0.003881280              -0.000000000              -0.000387132               0.001422791               0.001035659               0.000000000               0.000000000               0.000000000               0.000000000               0.000420206               0.004284218              -0.000000000              -0.000377949               0.001554041               0.001176092               0.000000000               0.000000000               0.000000000               0.000000000               0.000573455               0.004626494               0.000000000              -0.000363265               0.001663238               0.001299972               0.000000000               0.000000000               0.000000000               0.000000000               0.000724964               0.004878753               0.000000000              -0.000337982               0.001738895               0.001400913               0.000000000               0.000000000               0.000000000               0.000000000               0.000886237               0.005033311              -0.000000000              -0.000296824               0.001776695               0.001479871               0.000000000               0.000000000               0.000000000               0.000000000               0.001078344               0.005121407              -0.000000000              -0.000235796               0.001785717               0.001549921               0.000000000               0.000000000               0.000000000               0.000000000               0.001312742               0.005159671               0.000000000              -0.000152680               0.001770767               0.001618086               0.000000000               0.000000000               0.000000000               0.000000000               0.001604833               0.005152667              -0.000000000              -0.000042271               0.001731629               0.001689358               0.000000000               0.000000000               0.000000000               0.000000000               0.001969804               0.005092967              -0.000000000               0.000102054               0.001663620               0.001765675               0.000000000               0.000000000               0.000000000               0.000000000               0.002277747               0.005085851               0.000000000               0.000218422               0.001622459               0.001840881               0.000000000               0.000000000               0.000000000               0.000000000               0.001755418               0.019506814               0.000000000              -0.001780066               0.007095562               0.005315496               0.000000000               0.000000000               0.000000000               0.000000000               0.001764350               0.015461742              -0.000000000              -0.001271084               0.005577557               0.004306474               0.000000000               0.000000000               0.000000000               0.000000000               0.002339597               0.012215366              -0.000000000              -0.000649570               0.004288271               0.003638701               0.000000000               0.000000000               0.000000000               0.000000000               0.002273698               0.010410949              -0.000000000              -0.000448731               0.003619859               0.003171128               0.000000000               0.000000000               0.000000000               0.000000000               0.002012088               0.009300392              -0.000000000              -0.000408015               0.003236105               0.002828090               0.000000000               0.000000000               0.000000000               0.000000000               0.001715258               0.008553766              -0.000000000              -0.000425998               0.002993226               0.002567228               0.000000000               0.000000000               0.000000000               0.000000000               0.001432813               0.008012210              -0.000000000              -0.000464220               0.002825450               0.002361230               0.000000000               0.000000000               0.000000000               0.000000000               0.001178935               0.007589660               0.000000000              -0.000506606               0.002698730               0.002192124               0.000000000               0.000000000               0.000000000               0.000000000               0.000955360               0.007234656              -0.000000000              -0.000546071               0.002593551               0.002047481               0.000000000               0.000000000               0.000000000               0.000000000               0.000754886               0.006924057              -0.000000000              -0.000582423               0.002502137               0.001919714               0.000000000               0.000000000               0.000000000               0.000000000               0.000579093               0.006642525              -0.000000000              -0.000613154               0.002418538               0.001805384               0.000000000               0.000000000               0.000000000               0.000000000               0.000426338               0.006370465              -0.000000000              -0.000636430               0.002335610               0.001699181               0.000000000               0.000000000               0.000000000               0.000000000               0.000289782               0.006084919              -0.000000000              -0.000651945               0.002245601               0.001593656               0.000000000               0.000000000               0.000000000               0.000000000               0.000171563               0.005777887              -0.000000000              -0.000657898               0.002145243               0.001487345               0.000000000               0.000000000               0.000000000               0.000000000               0.000081671               0.005440327              -0.000000000              -0.000649413               0.002029895               0.001380482               0.000000000               0.000000000               0.000000000               0.000000000               0.000029324               0.005053204               0.000000000              -0.000620652               0.001891268               0.001270616               0.000000000               0.000000000               0.000000000               0.000000000              -0.000017948               0.004755021               0.000000000              -0.000601107               0.001785360               0.001184253               0.000000000               0.000000000               0.000000000               0.000000000               0.001824907               0.019117471              -0.001350761              -0.001705340               0.006940873               0.005235533               0.000000000               0.000000000               0.000000000               0.000000000               0.001743723               0.015210058              -0.000709217              -0.001247358               0.005485755               0.004238397               0.000000000               0.000000000               0.000000000               0.000000000               0.002219246               0.012102740              -0.000069315              -0.000680624               0.004261081               0.003580457               0.000000000               0.000000000               0.000000000               0.000000000               0.002111847               0.010370094               0.000199732              -0.000504318               0.003624770               0.003120452               0.000000000               0.000000000               0.000000000               0.000000000               0.001838975               0.009297068               0.000308711              -0.000472517               0.003256497               0.002783980               0.000000000               0.000000000               0.000000000               0.000000000               0.001545631               0.008570575               0.000345977              -0.000491709               0.003020733               0.002529024               0.000000000               0.000000000               0.000000000               0.000000000               0.001277305               0.008038813               0.000351269              -0.000525861               0.002854865               0.002329004               0.000000000               0.000000000               0.000000000               0.000000000               0.001042150               0.007620424               0.000341265              -0.000561745               0.002727365               0.002165619               0.000000000               0.000000000               0.000000000               0.000000000               0.000833883               0.007268946               0.000326339              -0.000595911               0.002621595               0.002025684               0.000000000               0.000000000               0.000000000               0.000000000               0.000648196               0.006959414               0.000312718              -0.000626852               0.002528732               0.001901880               0.000000000               0.000000000               0.000000000               0.000000000               0.000488194               0.006679393               0.000297464              -0.000651850               0.002443725               0.001791876               0.000000000               0.000000000               0.000000000               0.000000000               0.000352468               0.006410231               0.000273338              -0.000669102               0.002359756               0.001690654               0.000000000               0.000000000               0.000000000               0.000000000               0.000236336               0.006132735               0.000243145              -0.000677964               0.002270213               0.001592248               0.000000000               0.000000000               0.000000000               0.000000000               0.000137414               0.005837736               0.000209869              -0.000678185               0.002171954               0.001493769               0.000000000               0.000000000               0.000000000               0.000000000               0.000063187               0.005521092               0.000162534              -0.000666440               0.002062492               0.001396053               0.000000000               0.000000000               0.000000000               0.000000000               0.000020836               0.005172465               0.000091671              -0.000638743               0.001937052               0.001298309               0.000000000               0.000000000               0.000000000               0.000000000              -0.000019113               0.004911496               0.000055071              -0.000621103               0.001844183               0.001223080               0.000000000               0.000000000               0.000000000               0.000000000               0.002001416               0.017999807              -0.002523483              -0.001499442               0.006499689               0.005000247               0.000000000               0.000000000               0.000000000               0.000000000               0.001669106               0.014488374              -0.001333610              -0.001185130               0.005224453               0.004039323               0.000000000               0.000000000               0.000000000               0.000000000               0.001870366               0.011777689              -0.000156012              -0.000770822               0.004182798               0.003411976               0.000000000               0.000000000               0.000000000               0.000000000               0.001660814               0.010246025               0.000325907              -0.000657946               0.003634623               0.002976677               0.000000000               0.000000000               0.000000000               0.000000000               0.001370902               0.009275326               0.000517931              -0.000645326               0.003306853               0.002661527               0.000000000               0.000000000               0.000000000               0.000000000               0.001098921               0.008602824               0.000581802              -0.000663256               0.003088665               0.002425409               0.000000000               0.000000000               0.000000000               0.000000000               0.000866490               0.008096132               0.000588621              -0.000687081               0.002927711               0.002240630               0.000000000               0.000000000               0.000000000               0.000000000               0.000675329               0.007689063               0.000570093              -0.000707883               0.002798956               0.002091073               0.000000000               0.000000000               0.000000000               0.000000000               0.000514467               0.007345195               0.000543093              -0.000725223               0.002690115               0.001964892               0.000000000               0.000000000               0.000000000               0.000000000               0.000379088               0.007041864               0.000518476              -0.000738073               0.002593289               0.001855216               0.000000000               0.000000000               0.000000000               0.000000000               0.000268260               0.006763803               0.000492549              -0.000744876               0.002502871               0.001757995               0.000000000               0.000000000               0.000000000               0.000000000               0.000180778               0.006497953               0.000453683              -0.000744451               0.002414113               0.001669662               0.000000000               0.000000000               0.000000000               0.000000000               0.000113702               0.006237022               0.000403439              -0.000736988               0.002324649               0.001587661               0.000000000               0.000000000               0.000000000               0.000000000               0.000061541               0.005977542               0.000345828              -0.000724113               0.002233865               0.001509752               0.000000000               0.000000000               0.000000000               0.000000000               0.000028088               0.005721488               0.000267273              -0.000704651               0.002142027               0.001437376               0.000000000               0.000000000               0.000000000               0.000000000               0.000009389               0.005469953               0.000152008              -0.000680221               0.002050040               0.001369819               0.000000000               0.000000000               0.000000000               0.000000000              -0.000013871               0.005300710               0.000090006              -0.000667789               0.001989482               0.001321693               0.000000000               0.000000000               0.000000000               0.000000000               0.002201984               0.016300450              -0.003381597              -0.001211812               0.005837366               0.004625554               0.000000000               0.000000000               0.000000000               0.000000000               0.001512793               0.013397105              -0.001808853              -0.001107339               0.004834770               0.003727431               0.000000000               0.000000000               0.000000000               0.000000000               0.001337211               0.011288278              -0.000267794              -0.000909578               0.004065914               0.003156336               0.000000000               0.000000000               0.000000000               0.000000000               0.001017978               0.010043315               0.000337645              -0.000873670               0.003638962               0.002765291               0.000000000               0.000000000               0.000000000               0.000000000               0.000726070               0.009210590               0.000571711              -0.000879045               0.003363181               0.002484136               0.000000000               0.000000000               0.000000000               0.000000000               0.000497255               0.008608030               0.000647261              -0.000889531               0.003165825               0.002276294               0.000000000               0.000000000               0.000000000               0.000000000               0.000325908               0.008137513               0.000653074              -0.000894972               0.003010801               0.002115829               0.000000000               0.000000000               0.000000000               0.000000000               0.000201619               0.007749820               0.000630750              -0.000893118               0.002880954               0.001987835               0.000000000               0.000000000               0.000000000               0.000000000               0.000110344               0.007414586               0.000599812              -0.000885442               0.002766651               0.001881209               0.000000000               0.000000000               0.000000000               0.000000000               0.000046335               0.007114896               0.000570167              -0.000871984               0.002662270               0.001790285               0.000000000               0.000000000               0.000000000               0.000000000               0.000009644               0.006837992               0.000537658              -0.000851130               0.002563018               0.001711888               0.000000000               0.000000000               0.000000000               0.000000000              -0.000007733               0.006579010               0.000491526              -0.000825274               0.002468073               0.001642799               0.000000000               0.000000000               0.000000000               0.000000000              -0.000014695               0.006340549               0.000432298              -0.000798077               0.002379521               0.001581444               0.000000000               0.000000000               0.000000000               0.000000000              -0.000017785               0.006124407               0.000363310              -0.000772218               0.002298855               0.001526636               0.000000000               0.000000000               0.000000000               0.000000000              -0.000016297               0.005936321               0.000273311              -0.000748149               0.002228137               0.001479987               0.000000000               0.000000000               0.000000000               0.000000000              -0.000010255               0.005788513               0.000151554              -0.000727408               0.002171954               0.001444547               0.000000000               0.000000000               0.000000000               0.000000000              -0.000010572               0.005715429               0.000084583              -0.000718391               0.002144588               0.001426196               0.000000000               0.000000000               0.000000000               0.000000000               0.002320700               0.014231652              -0.003855500              -0.000908695               0.005046734               0.004138039               0.000000000               0.000000000               0.000000000               0.000000000               0.001256800               0.012084301              -0.002106991              -0.001039236               0.004374472               0.003335236               0.000000000               0.000000000               0.000000000               0.000000000               0.000685746               0.010695487              -0.000412661              -0.001079779               0.003925053               0.002845274               0.000000000               0.000000000               0.000000000               0.000000000               0.000291818               0.009765446               0.000222707              -0.001111246               0.003625531               0.002514285               0.000000000               0.000000000               0.000000000               0.000000000               0.000041121               0.009083769               0.000463011              -0.001120048               0.003401242               0.002281194               0.000000000               0.000000000               0.000000000               0.000000000              -0.000112808               0.008552881               0.000542658              -0.001111411               0.003221402               0.002109991               0.000000000               0.000000000               0.000000000               0.000000000              -0.000201064               0.008117894               0.000552230              -0.001090133               0.003069315               0.001979182               0.000000000               0.000000000               0.000000000               0.000000000              -0.000244095               0.007748346               0.000533386              -0.001060076               0.002936115               0.001876039               0.000000000               0.000000000               0.000000000               0.000000000              -0.000257613               0.007420690               0.000505154              -0.001024189               0.002814935               0.001790746               0.000000000               0.000000000               0.000000000               0.000000000              -0.000242357               0.007124392               0.000476488              -0.000981431               0.002701917               0.001720486               0.000000000               0.000000000               0.000000000               0.000000000              -0.000204574               0.006853576               0.000442251              -0.000933410               0.002595639               0.001662229               0.000000000               0.000000000               0.000000000               0.000000000              -0.000159713               0.006606032               0.000395866              -0.000885644               0.002497203               0.001611559               0.000000000               0.000000000               0.000000000               0.000000000              -0.000117115               0.006389589               0.000338604              -0.000842615               0.002410713               0.001568098               0.000000000               0.000000000               0.000000000               0.000000000              -0.000079453               0.006210809               0.000272510              -0.000806144               0.002338964               0.001532820               0.000000000               0.000000000               0.000000000               0.000000000              -0.000046569               0.006075886               0.000192720              -0.000776947               0.002284257               0.001507310               0.000000000               0.000000000               0.000000000               0.000000000              -0.000021076               0.005994016               0.000099356              -0.000757154               0.002250370               0.001493216               0.000000000               0.000000000               0.000000000               0.000000000              -0.000008754               0.005971108               0.000049765              -0.000749669               0.002240239               0.001490570               0.000000000               0.000000000               0.000000000               0.000000000               0.002261292               0.012002220              -0.003951883              -0.000652295               0.004218130               0.003565836               0.000000000               0.000000000               0.000000000               0.000000000               0.000898076               0.010692131              -0.002245570              -0.000999737               0.003897253               0.002897516               0.000000000               0.000000000               0.000000000               0.000000000              -0.000001465               0.010049311              -0.000602665              -0.001256710               0.003768640               0.002511930               0.000000000               0.000000000               0.000000000               0.000000000              -0.000404376               0.009422715              -0.000005682              -0.001329477               0.003584033               0.002254556               0.000000000               0.000000000               0.000000000               0.000000000              -0.000571383               0.008879102               0.000223340              -0.001324153               0.003401055               0.002076902               0.000000000               0.000000000               0.000000000               0.000000000              -0.000623893               0.008410607               0.000306742              -0.001285283               0.003231935               0.001946652               0.000000000               0.000000000               0.000000000               0.000000000              -0.000617476               0.008003710               0.000328986              -0.001232014               0.003078548               0.001846534               0.000000000               0.000000000               0.000000000               0.000000000              -0.000574193               0.007648024               0.000323265              -0.001171322               0.002939756               0.001768434               0.000000000               0.000000000               0.000000000               0.000000000              -0.000509054               0.007328215               0.000305124              -0.001106919               0.002811687               0.001704768               0.000000000               0.000000000               0.000000000               0.000000000              -0.000426737               0.007038505               0.000284419              -0.001039837               0.002692757               0.001652920               0.000000000               0.000000000               0.000000000               0.000000000              -0.000333799               0.006778747               0.000257342              -0.000972515               0.002583731               0.001611216               0.000000000               0.000000000               0.000000000               0.000000000              -0.000242486               0.006550479               0.000220842              -0.000909740               0.002486718               0.001576978               0.000000000               0.000000000               0.000000000               0.000000000              -0.000165020               0.006359946               0.000179849              -0.000856874               0.002405585               0.001548712               0.000000000               0.000000000               0.000000000               0.000000000              -0.000105673               0.006213628               0.000134104              -0.000816329               0.002343298               0.001526969               0.000000000               0.000000000               0.000000000               0.000000000              -0.000060609               0.006107549               0.000082666              -0.000786170               0.002297886               0.001511716               0.000000000               0.000000000               0.000000000               0.000000000              -0.000025106               0.006039802               0.000034537              -0.000764388               0.002268043               0.001503655               0.000000000               0.000000000               0.000000000               0.000000000              -0.000013558               0.006010648               0.000015849              -0.000756413               0.002255667               0.001499254               0.000000000               0.000000000               0.000000000               0.000000000               0.001975563               0.009790934              -0.003728087              -0.000483033               0.003424622               0.002941589               0.000000000               0.000000000               0.000000000               0.000000000               0.000457946               0.009330915              -0.002262580              -0.000994634               0.003441818               0.002447184               0.000000000               0.000000000               0.000000000               0.000000000              -0.000642069               0.009386446              -0.000839485              -0.001414078               0.003600143               0.002186065               0.000000000               0.000000000               0.000000000               0.000000000              -0.000977826               0.009021183              -0.000319162              -0.001494329               0.003505140               0.002010812               0.000000000               0.000000000               0.000000000               0.000000000              -0.001033928               0.008589789              -0.000099245              -0.001461443               0.003350382               0.001888939               0.000000000               0.000000000               0.000000000               0.000000000              -0.000978712               0.008176774              -0.000000253              -0.001389110               0.003188601               0.001799491               0.000000000               0.000000000               0.000000000               0.000000000              -0.000878374               0.007798461               0.000045627              -0.001304194               0.003034192               0.001729998               0.000000000               0.000000000               0.000000000               0.000000000              -0.000758793               0.007456603               0.000063727              -0.001216620               0.002891049               0.001674430               0.000000000               0.000000000               0.000000000               0.000000000              -0.000630765               0.007146919               0.000065891              -0.001129899               0.002758915               0.001629016               0.000000000               0.000000000               0.000000000               0.000000000              -0.000495645               0.006871870               0.000064811              -0.001044848               0.002638883               0.001594035               0.000000000               0.000000000               0.000000000               0.000000000              -0.000364297               0.006632041               0.000059206              -0.000965614               0.002532530               0.001566915               0.000000000               0.000000000               0.000000000               0.000000000              -0.000254303               0.006429651               0.000046303              -0.000899068               0.002442885               0.001543817               0.000000000               0.000000000               0.000000000               0.000000000              -0.000171340               0.006266830               0.000034573              -0.000847604               0.002371457               0.001523853               0.000000000               0.000000000               0.000000000               0.000000000              -0.000111693               0.006134214               0.000023342              -0.000808660               0.002314271               0.001505611               0.000000000               0.000000000               0.000000000               0.000000000              -0.000068676               0.006022289               0.000009341              -0.000778538               0.002266922               0.001488385               0.000000000               0.000000000               0.000000000               0.000000000              -0.000032659               0.005929457               0.000001631              -0.000753427               0.002227609               0.001474181               0.000000000               0.000000000               0.000000000               0.000000000              -0.000028759               0.005867201               0.000009078              -0.000744183               0.002203775               0.001459592               0.000000000               0.000000000               0.000000000               0.000000000               0.001476585               0.007739796              -0.003258718              -0.000413758               0.002717824               0.002304067               0.000000000               0.000000000               0.000000000               0.000000000              -0.000035333               0.008078799              -0.002195144              -0.001023099               0.003033938               0.002010839               0.000000000               0.000000000               0.000000000               0.000000000              -0.001174640               0.008711580              -0.001115811              -0.001529434               0.003413642               0.001884208               0.000000000               0.000000000               0.000000000               0.000000000              -0.001380537               0.008555221              -0.000672643              -0.001587100               0.003380745               0.001793645               0.000000000               0.000000000               0.000000000               0.000000000              -0.001311440               0.008224917              -0.000444342              -0.001519901               0.003248245               0.001728344               0.000000000               0.000000000               0.000000000               0.000000000              -0.001160887               0.007867035              -0.000315555              -0.001418708               0.003095222               0.001676513               0.000000000               0.000000000               0.000000000               0.000000000              -0.000984843               0.007524280              -0.000239089              -0.001309848               0.002944684               0.001634836               0.000000000               0.000000000               0.000000000               0.000000000              -0.000804724               0.007204288              -0.000188800              -0.001202304               0.002802174               0.001599869               0.000000000               0.000000000               0.000000000               0.000000000              -0.000628751               0.006914886              -0.000153727              -0.001100140               0.002671652               0.001571512               0.000000000               0.000000000               0.000000000               0.000000000              -0.000464532               0.006662041              -0.000123129              -0.001006952               0.002556309               0.001549357               0.000000000               0.000000000               0.000000000               0.000000000              -0.000325008               0.006446815              -0.000097760              -0.000927728               0.002458159               0.001530432               0.000000000               0.000000000               0.000000000               0.000000000              -0.000218080               0.006262848              -0.000076509              -0.000864634               0.002375807               0.001511173               0.000000000               0.000000000               0.000000000               0.000000000              -0.000144679               0.006092824              -0.000052976              -0.000815856               0.002302873               0.001487017               0.000000000               0.000000000               0.000000000               0.000000000              -0.000103843               0.005927604              -0.000031746              -0.000779890               0.002235811               0.001455922               0.000000000               0.000000000               0.000000000               0.000000000              -0.000078106               0.005776374              -0.000015308              -0.000751335               0.002175884               0.001424549               0.000000000               0.000000000               0.000000000               0.000000000              -0.000046632               0.005643576              -0.000001775              -0.000722932               0.002122151               0.001399218               0.000000000               0.000000000               0.000000000               0.000000000              -0.000040015               0.005556468               0.000012660              -0.000709562               0.002088658               0.001379096               0.000000000               0.000000000               0.000000000               0.000000000               0.000850694               0.005992968              -0.002644995              -0.000430112               0.002141006               0.001710894               0.000000000               0.000000000               0.000000000               0.000000000              -0.000502999               0.006958265              -0.002094835              -0.001058407               0.002672200               0.001613793               0.000000000               0.000000000               0.000000000               0.000000000              -0.001556910               0.008049598              -0.001433723              -0.001590037               0.003213185               0.001623147               0.000000000               0.000000000               0.000000000               0.000000000              -0.001625722               0.008103992              -0.001041591              -0.001622641               0.003242184               0.001619543               0.000000000               0.000000000               0.000000000               0.000000000              -0.001457922               0.007890744              -0.000791239              -0.001533060               0.003141242               0.001608181               0.000000000               0.000000000               0.000000000               0.000000000              -0.001238064               0.007603178              -0.000623869              -0.001414668               0.003005923               0.001591255               0.000000000               0.000000000               0.000000000               0.000000000              -0.001008337               0.007307773              -0.000510507              -0.001291595               0.002866432               0.001574837               0.000000000               0.000000000               0.000000000               0.000000000              -0.000781577               0.007023015              -0.000424589              -0.001170965               0.002731303               0.001560338               0.000000000               0.000000000               0.000000000               0.000000000              -0.000571211               0.006759716              -0.000353181              -0.001059166               0.002606271               0.001547105               0.000000000               0.000000000               0.000000000               0.000000000              -0.000389278               0.006528585              -0.000286658              -0.000962050               0.002496857               0.001534807               0.000000000               0.000000000               0.000000000               0.000000000              -0.000246656               0.006328376              -0.000225892              -0.000883541               0.002403951               0.001520410               0.000000000               0.000000000               0.000000000               0.000000000              -0.000157026               0.006125194              -0.000173948              -0.000824532               0.002316555               0.001492023               0.000000000               0.000000000               0.000000000               0.000000000              -0.000117696               0.005910263              -0.000125885              -0.000782917               0.002231040               0.001448123               0.000000000               0.000000000               0.000000000               0.000000000              -0.000112130               0.005703347              -0.000080237              -0.000754965               0.002152752               0.001397787               0.000000000               0.000000000               0.000000000               0.000000000              -0.000119989               0.005512799              -0.000040485              -0.000734094               0.002082279               0.001348185               0.000000000               0.000000000               0.000000000               0.000000000              -0.000128615               0.005337502              -0.000011804              -0.000715417               0.002017622               0.001302205               0.000000000               0.000000000               0.000000000               0.000000000              -0.000132228               0.005238499               0.000002630              -0.000704396               0.001980948               0.001276552               0.000000000               0.000000000               0.000000000               0.000000000               0.000090037               0.004355927              -0.001981980              -0.000510728               0.001622203               0.001111475               0.000000000               0.000000000               0.000000000               0.000000000              -0.000870466               0.005664805              -0.001976255              -0.001034524               0.002233090               0.001198566               0.000000000               0.000000000               0.000000000               0.000000000              -0.001734308               0.007086056              -0.001777735              -0.001536119               0.002874034               0.001337915               0.000000000               0.000000000               0.000000000               0.000000000              -0.001737697               0.007431846              -0.001447773              -0.001580614               0.003004128               0.001423515               0.000000000               0.000000000               0.000000000               0.000000000              -0.001532802               0.007417170              -0.001174460              -0.001501943               0.002973013               0.001471070               0.000000000               0.000000000               0.000000000               0.000000000              -0.001289473               0.007274489              -0.000966288              -0.001392860               0.002889092               0.001496232               0.000000000               0.000000000               0.000000000               0.000000000              -0.001046817               0.007085826              -0.000811883              -0.001278282               0.002788012               0.001509731               0.000000000               0.000000000               0.000000000               0.000000000              -0.000811146               0.006881970              -0.000689865              -0.001164423               0.002682108               0.001517685               0.000000000               0.000000000               0.000000000               0.000000000              -0.000593152               0.006671693              -0.000582525              -0.001056391               0.002576006               0.001519614               0.000000000               0.000000000               0.000000000               0.000000000              -0.000403223               0.006475616              -0.000482140              -0.000960658               0.002478736               0.001518078               0.000000000               0.000000000               0.000000000               0.000000000              -0.000254683               0.006286394              -0.000388825              -0.000881303               0.002389212               0.001507908               0.000000000               0.000000000               0.000000000               0.000000000              -0.000162228               0.006069335              -0.000301209              -0.000819500               0.002296258               0.001476758               0.000000000               0.000000000               0.000000000               0.000000000              -0.000122100               0.005839037              -0.000218037              -0.000775665               0.002204881               0.001429216               0.000000000               0.000000000               0.000000000               0.000000000              -0.000131406               0.005610599              -0.000142097              -0.000750600               0.002120381               0.001369781               0.000000000               0.000000000               0.000000000               0.000000000              -0.000174132               0.005396926              -0.000075107              -0.000739913               0.002045595               0.001305682               0.000000000               0.000000000               0.000000000               0.000000000              -0.000232867               0.005195279              -0.000024892              -0.000736733               0.001977320               0.001240587               0.000000000               0.000000000               0.000000000               0.000000000              -0.000268274               0.005085948              -0.000003380              -0.000736344               0.001940747               0.001204403               0.000000000               0.000000000               0.000000000               0.000000000              -0.000926832               0.002866554              -0.001308097              -0.000705880               0.001190801               0.000484921               0.000000000               0.000000000               0.000000000               0.000000000              -0.001290870               0.004371941              -0.001792626              -0.001030567               0.001800821               0.000770254               0.000000000               0.000000000               0.000000000               0.000000000              -0.001823071               0.005982059              -0.002045206              -0.001431406               0.002471135               0.001039728               0.000000000               0.000000000               0.000000000               0.000000000              -0.001769935               0.006603891              -0.001832696              -0.001489209               0.002697677               0.001208468               0.000000000               0.000000000               0.000000000               0.000000000              -0.001554249               0.006816134              -0.001564469              -0.001434857               0.002750307               0.001315450               0.000000000               0.000000000               0.000000000               0.000000000              -0.001306754               0.006848697              -0.001330629              -0.001346117               0.002731582               0.001385465               0.000000000               0.000000000               0.000000000               0.000000000              -0.001064668               0.006797973              -0.001142351              -0.001248994               0.002682300               0.001433305               0.000000000               0.000000000               0.000000000               0.000000000              -0.000832958               0.006699142              -0.000987047              -0.001149749               0.002616275               0.001466525               0.000000000               0.000000000               0.000000000               0.000000000              -0.000618211               0.006567608              -0.000850010              -0.001052778               0.002540107               0.001487329               0.000000000               0.000000000               0.000000000               0.000000000              -0.000420369               0.006427293              -0.000724550              -0.000961048               0.002462759               0.001501711               0.000000000               0.000000000               0.000000000               0.000000000              -0.000253287               0.006266675              -0.000608040              -0.000878315               0.002381642               0.001503327               0.000000000               0.000000000               0.000000000               0.000000000              -0.000138806               0.006067297              -0.000494501              -0.000810462               0.002292566               0.001482104               0.000000000               0.000000000               0.000000000               0.000000000              -0.000077829               0.005850147              -0.000378482              -0.000760452               0.002203513               0.001443061               0.000000000               0.000000000               0.000000000               0.000000000              -0.000071527               0.005623706              -0.000262831              -0.000729784               0.002117811               0.001388027               0.000000000               0.000000000               0.000000000               0.000000000              -0.000118789               0.005403045              -0.000157205              -0.000719925               0.002040972               0.001321047               0.000000000               0.000000000               0.000000000               0.000000000              -0.000210231               0.005192902              -0.000068501              -0.000727947               0.001973599               0.001245652               0.000000000               0.000000000               0.000000000               0.000000000              -0.000283505               0.005076465              -0.000022474              -0.000740871               0.001939095               0.001198224               0.000000000               0.000000000               0.000000000               0.000000000              -0.002129745               0.001623586              -0.000668378              -0.001001601               0.000875056              -0.000126545               0.000000000               0.000000000               0.000000000               0.000000000              -0.001814922               0.003149726              -0.001519508              -0.001074309               0.001408000               0.000333691               0.000000000               0.000000000               0.000000000               0.000000000              -0.001873194               0.004749202              -0.002137602              -0.001296096               0.002015082               0.000718987               0.000000000               0.000000000               0.000000000               0.000000000              -0.001702006               0.005569656              -0.002076675              -0.001334457               0.002301352               0.000966895               0.000000000               0.000000000               0.000000000               0.000000000              -0.001464604               0.005994212              -0.001856852              -0.001298501               0.002430884               0.001132383               0.000000000               0.000000000               0.000000000               0.000000000              -0.001216367               0.006211187              -0.001626783              -0.001232534               0.002481219               0.001248685               0.000000000               0.000000000               0.000000000               0.000000000              -0.000983490               0.006312228              -0.001425173              -0.001157835               0.002490000               0.001332165               0.000000000               0.000000000               0.000000000               0.000000000              -0.000765418               0.006342739              -0.001249041              -0.001079872               0.002474182               0.001394310               0.000000000               0.000000000               0.000000000               0.000000000              -0.000558674               0.006321337              -0.001093212              -0.000999668               0.002440314               0.001440646               0.000000000               0.000000000               0.000000000               0.000000000              -0.000361064               0.006262718              -0.000957702              -0.000918237               0.002393631               0.001475394               0.000000000               0.000000000               0.000000000               0.000000000              -0.000183209               0.006156310              -0.000831533              -0.000838240               0.002331496               0.001493256               0.000000000               0.000000000               0.000000000               0.000000000              -0.000046758               0.005999921              -0.000698958              -0.000767523               0.002255795               0.001488272               0.000000000               0.000000000               0.000000000               0.000000000               0.000038396               0.005816044              -0.000558910              -0.000712605               0.002176197               0.001463592               0.000000000               0.000000000               0.000000000               0.000000000               0.000072103               0.005609205              -0.000415111              -0.000674110               0.002094420               0.001420309               0.000000000               0.000000000               0.000000000               0.000000000               0.000053809               0.005401970              -0.000270298              -0.000655066               0.002018994               0.001363928               0.000000000               0.000000000               0.000000000               0.000000000              -0.000028223               0.005199482              -0.000130220              -0.000660517               0.001953316               0.001292799               0.000000000               0.000000000               0.000000000               0.000000000              -0.000110812               0.005082440              -0.000054308              -0.000676858               0.001919749               0.001242891               0.000000000               0.000000000               0.000000000               0.000000000              -0.003430299               0.000693720              -0.000142832              -0.001373075               0.000688927              -0.000684148               0.000000000               0.000000000               0.000000000               0.000000000              -0.002409807               0.002065224              -0.001186853              -0.001161829               0.001075676              -0.000086152               0.000000000               0.000000000               0.000000000               0.000000000              -0.001908958               0.003492070              -0.002031908              -0.001152366               0.001548133               0.000395767               0.000000000               0.000000000               0.000000000               0.000000000              -0.001557482               0.004415516              -0.002114335              -0.001135994               0.001850487               0.000714494               0.000000000               0.000000000               0.000000000               0.000000000              -0.001270849               0.005006088              -0.001971695              -0.001102328               0.002036121               0.000933794               0.000000000               0.000000000               0.000000000               0.000000000              -0.001016756               0.005393656              -0.001775759              -0.001055489               0.002149696               0.001094208               0.000000000               0.000000000               0.000000000               0.000000000              -0.000792049               0.005650861              -0.001583205              -0.001003374               0.002218059               0.001214685               0.000000000               0.000000000               0.000000000               0.000000000              -0.000592073               0.005816996              -0.001407796              -0.000949150               0.002255363               0.001306212               0.000000000               0.000000000               0.000000000               0.000000000              -0.000398709               0.005915821              -0.001252578              -0.000888992               0.002268251               0.001379259               0.000000000               0.000000000               0.000000000               0.000000000              -0.000206289               0.005961657              -0.001118450              -0.000822564               0.002261387               0.001438823               0.000000000               0.000000000               0.000000000               0.000000000              -0.000030185               0.005938297              -0.000991307              -0.000753605               0.002230614               0.001477009               0.000000000               0.000000000               0.000000000               0.000000000               0.000118543               0.005845413              -0.000854053              -0.000686221               0.002177192               0.001490970               0.000000000               0.000000000               0.000000000               0.000000000               0.000235852               0.005713693              -0.000706169              -0.000625766               0.002113134               0.001487368               0.000000000               0.000000000               0.000000000               0.000000000               0.000311452               0.005551813              -0.000551442              -0.000577181               0.002042979               0.001465798               0.000000000               0.000000000               0.000000000               0.000000000               0.000342897               0.005374108              -0.000383639              -0.000543176               0.001972410               0.001429234               0.000000000               0.000000000               0.000000000               0.000000000               0.000316711               0.005190652              -0.000198923              -0.000530064               0.001906888               0.001376824               0.000000000               0.000000000               0.000000000               0.000000000               0.000267816               0.005086474              -0.000097432              -0.000535377               0.001873933               0.001338557               0.000000000               0.000000000               0.000000000               0.000000000              -0.004702094               0.000073060               0.000190058              -0.001772416               0.000615155              -0.001157262               0.000000000               0.000000000               0.000000000               0.000000000              -0.003021729               0.001181408              -0.000841185              -0.001280823               0.000820737              -0.000460085               0.000000000               0.000000000               0.000000000               0.000000000              -0.001943238               0.002332125              -0.001728666              -0.001020228               0.001117442               0.000097214               0.000000000               0.000000000               0.000000000               0.000000000              -0.001370325               0.003267531              -0.001904687              -0.000922312               0.001396602               0.000474290               0.000000000               0.000000000               0.000000000               0.000000000              -0.001007001               0.003967052              -0.001839333              -0.000873506               0.001613505               0.000739999               0.000000000               0.000000000               0.000000000               0.000000000              -0.000739889               0.004491002              -0.001696171              -0.000838832               0.001776596               0.000937764               0.000000000               0.000000000               0.000000000               0.000000000              -0.000522080               0.004884481              -0.001536839              -0.000806339               0.001896923               0.001090584               0.000000000               0.000000000               0.000000000               0.000000000              -0.000332630               0.005175335              -0.001386521              -0.000771652               0.001982312               0.001210659               0.000000000               0.000000000               0.000000000               0.000000000              -0.000154005               0.005390114              -0.001253331              -0.000731515               0.002040525               0.001309010               0.000000000               0.000000000               0.000000000               0.000000000               0.000024321               0.005547455              -0.001134714              -0.000684310               0.002077237               0.001392926               0.000000000               0.000000000               0.000000000               0.000000000               0.000192085               0.005625018              -0.001018305              -0.000631094               0.002085352               0.001454258               0.000000000               0.000000000               0.000000000               0.000000000               0.000347313               0.005617057              -0.000893288              -0.000571889               0.002062963               0.001491074               0.000000000               0.000000000               0.000000000               0.000000000               0.000493341               0.005554178              -0.000756512              -0.000509268               0.002021130               0.001511862               0.000000000               0.000000000               0.000000000               0.000000000               0.000623977               0.005452066              -0.000610016              -0.000447516               0.001966509               0.001518993               0.000000000               0.000000000               0.000000000               0.000000000               0.000734165               0.005319517              -0.000446319              -0.000389627               0.001903030               0.001513403               0.000000000               0.000000000               0.000000000               0.000000000               0.000810324               0.005164732              -0.000244866              -0.000341719               0.001835466               0.001493747               0.000000000               0.000000000               0.000000000               0.000000000               0.000843778               0.005083892              -0.000132742              -0.000319069               0.001800970               0.001481901               0.000000000               0.000000000               0.000000000               0.000000000              -0.005775396              -0.000292398               0.000298567              -0.002129222               0.000612270              -0.001516952               0.000000000               0.000000000               0.000000000               0.000000000              -0.003561115               0.000534985              -0.000520660              -0.001402290               0.000645754              -0.000756536               0.000000000               0.000000000               0.000000000               0.000000000              -0.001980264               0.001389691              -0.001253634              -0.000916309               0.000768661              -0.000147648               0.000000000               0.000000000               0.000000000               0.000000000              -0.001191198               0.002279161              -0.001442711              -0.000731593               0.001003577               0.000271983               0.000000000               0.000000000               0.000000000               0.000000000              -0.000742028               0.003035064              -0.001430189              -0.000657643               0.001230892               0.000573249               0.000000000               0.000000000               0.000000000               0.000000000              -0.000449493               0.003652108              -0.001343007              -0.000625072               0.001425714               0.000800642               0.000000000               0.000000000               0.000000000               0.000000000              -0.000231636               0.004148050              -0.001233729              -0.000605369               0.001584459               0.000979090               0.000000000               0.000000000               0.000000000               0.000000000              -0.000049307               0.004538344              -0.001127199              -0.000585782               0.001708027               0.001122245               0.000000000               0.000000000               0.000000000               0.000000000               0.000120125               0.004851888              -0.001031923              -0.000561438               0.001804426               0.001242988               0.000000000               0.000000000               0.000000000               0.000000000               0.000285480               0.005104178              -0.000944052              -0.000530966               0.001878364               0.001347398               0.000000000               0.000000000               0.000000000               0.000000000               0.000443784               0.005271223              -0.000856022              -0.000492483               0.001921218               0.001428735               0.000000000               0.000000000               0.000000000               0.000000000               0.000601411               0.005350874              -0.000759458              -0.000443329               0.001931383               0.001488054               0.000000000               0.000000000               0.000000000               0.000000000               0.000770162               0.005363768              -0.000652601              -0.000381660               0.001915125               0.001533465               0.000000000               0.000000000               0.000000000               0.000000000               0.000956166               0.005325465              -0.000539072              -0.000307120               0.001877511               0.001570390               0.000000000               0.000000000               0.000000000               0.000000000               0.001154690               0.005247053              -0.000406383              -0.000222872               0.001823291               0.001600419               0.000000000               0.000000000               0.000000000               0.000000000               0.001361608               0.005132494              -0.000227996              -0.000130958               0.001754467               0.001623509               0.000000000               0.000000000               0.000000000               0.000000000               0.001515562               0.005084728              -0.000130067              -0.000067255               0.001717311               0.001650055               0.000000000               0.000000000               0.000000000               0.000000000              -0.006491837              -0.000472729               0.000206496              -0.002375346               0.000634201              -0.001741145               0.000000000               0.000000000               0.000000000               0.000000000              -0.003931760               0.000144298              -0.000244584              -0.001492446               0.000545578              -0.000946868               0.000000000               0.000000000               0.000000000               0.000000000              -0.002012067               0.000773964              -0.000657566              -0.000851270               0.000541741              -0.000309529               0.000000000               0.000000000               0.000000000               0.000000000              -0.001068998               0.001607706              -0.000777791              -0.000601837               0.000736508               0.000134672               0.000000000               0.000000000               0.000000000               0.000000000              -0.000552381               0.002387398              -0.000782639              -0.000505567               0.000964313               0.000458747               0.000000000               0.000000000               0.000000000               0.000000000              -0.000232282               0.003054131              -0.000743116              -0.000468871               0.001174324               0.000705452               0.000000000               0.000000000               0.000000000               0.000000000              -0.000006002               0.003606454              -0.000688994              -0.000453057               0.001353158               0.000900101               0.000000000               0.000000000               0.000000000               0.000000000               0.000175180               0.004060178              -0.000634809              -0.000441829               0.001500656               0.001058827               0.000000000               0.000000000               0.000000000               0.000000000               0.000337422               0.004439781              -0.000585793              -0.000428439               0.001622725               0.001194286               0.000000000               0.000000000               0.000000000               0.000000000               0.000494439               0.004757562              -0.000539139              -0.000409280               0.001722265               0.001312985               0.000000000               0.000000000               0.000000000               0.000000000               0.000647752               0.004986974              -0.000491942              -0.000380464               0.001789129               0.001408665               0.000000000               0.000000000               0.000000000               0.000000000               0.000806907               0.005123616              -0.000439308              -0.000337861               0.001820475               0.001482614               0.000000000               0.000000000               0.000000000               0.000000000               0.000992612               0.005192105              -0.000382082              -0.000276783               0.001822945               0.001546162               0.000000000               0.000000000               0.000000000               0.000000000               0.001215744               0.005208460              -0.000319204              -0.000195153               0.001801187               0.001606034               0.000000000               0.000000000               0.000000000               0.000000000               0.001481323               0.005179943              -0.000242608              -0.000091997               0.001757296               0.001665299               0.000000000               0.000000000               0.000000000               0.000000000               0.001801328               0.005103572              -0.000137659               0.000037551               0.001688657               0.001726208               0.000000000               0.000000000               0.000000000               0.000000000               0.002065771               0.005085115              -0.000081060               0.000139023               0.001648680               0.001787703               0.000000000               0.000000000               0.000000000               0.000000000               0.000000000               0.000000000               0.000000000               0.000000000               0.000000000               0.000000000               0.000000000               0.000000000               0.000000000               0.000000000               0.000000000               0.000000000               0.000000000               0.000000000               0.000000000               0.000000000               0.000000000               0.000000000               0.000000000               0.000000000               0.000000000               0.000000000               0.000000000               0.000000000               0.000000000               0.000000000               0.000000000               0.000000000               0.000000000               0.000000000               0.000000000               0.000000000               0.000000000               0.000000000               0.000000000               0.000000000               0.000000000               0.000000000               0.000000000               0.000000000               0.000000000               0.000000000               0.000000000               0.000000000               0.000000000               0.000000000               0.000000000               0.000000000               0.000000000               0.000000000               0.000000000               0.000000000               0.000000000               0.000000000               0.000000000               0.000000000               0.000000000               0.000000000               0.000000000               0.000000000               0.000000000               0.000000000               0.000000000               0.000000000               0.000000000               0.000000000               0.000000000               0.000000000               0.000000000               0.000000000               0.000000000               0.000000000               0.000000000               0.000000000               0.000000000               0.000000000               0.000000000               0.000000000               0.000000000               0.000000000               0.000000000               0.000000000               0.000000000               0.000000000               0.000000000               0.000000000               0.000000000               0.000000000               0.000000000               0.000000000               0.000000000               0.000000000               0.000000000               0.000000000               0.000000000               0.000000000               0.000000000               0.000000000               0.000000000               0.000000000               0.000000000               0.000000000               0.000000000               0.000000000               0.000000000               0.000000000               0.000000000               0.000000000               0.000000000               0.000000000               0.000000000               0.000000000               0.000000000               0.000000000               0.000000000               0.000000000               0.000000000               0.000000000               0.000000000               0.000000000               0.000000000               0.000000000               0.000000000               0.000000000               0.000000000               0.000000000               0.000000000               0.000000000               0.000000000               0.000000000               0.000000000               0.000000000               0.000000000               0.000000000               0.000000000               0.000000000               0.000000000               0.000000000               0.000000000               0.000000000               0.000000000               0.000000000               0.000000000               0.000000000               0.000000000               0.000000000               0.000000000               0.000000000               0.000000000               0.000000000               0.000000000               0.000000000               0.000000000               0.000000000               0.000000000               0.000000000               0.000000000               0.000000000               0.000000000               0.000000000               0.000000000               0.000000000               0.000000000               0.000000000               0.000000000               0.000000000               0.000000000               0.000000000               0.000000000               0.000000000               0.000000000               0.000000000               0.000000000               0.000000000               0.000000000               0.000000000               0.000000000               0.000000000               0.000000000               0.000000000               0.000000000               0.000000000               0.000000000               0.000000000               0.000000000               0.000000000               0.000000000               0.000000000               0.000000000               0.000000000               0.000000000               0.000000000               0.000000000               0.000000000               0.000000000               0.000000000               0.000000000               0.000000000               0.000000000               0.000000000               0.000000000               0.000000000               0.000000000               0.000000000               0.000000000               0.000000000               0.000000000               0.000000000               0.000000000               0.000000000               0.000000000               0.000000000               0.000000000               0.000000000               0.000000000               0.000000000               0.000000000               0.000000000               0.000000000               0.000000000               0.000000000               0.000000000               0.000000000               0.000000000               0.000000000               0.000000000               0.000000000               0.000000000               0.000000000               0.000000000               0.000000000               0.000000000               0.000000000               0.000000000               0.000000000               0.000000000               0.000000000               0.000000000               0.000000000               0.000000000               0.000000000               0.000000000               0.000000000               0.000000000               0.000000000               0.000000000               0.000000000               0.000000000               0.000000000               0.000000000               0.000000000               0.000000000               0.000000000               0.000000000               0.000000000               0.000000000               0.000000000               0.000000000               0.000000000               0.000000000               0.000000000               0.000000000               0.000000000               0.000000000               0.000000000               0.000000000               0.000000000               0.000000000               0.000000000               0.000000000               0.000000000               0.000000000               0.000000000               0.000000000               0.000000000               0.000000000               0.000000000               0.000000000               0.000000000               0.000000000               0.000000000               0.000000000               0.000000000               0.000000000               0.000000000               0.000000000               0.000000000               0.000000000               0.000000000               0.000000000               0.000000000               0.000000000               0.000000000               0.000000000               0.000000000               0.000000000               0.000000000               0.000000000               0.000000000               0.000000000               0.000000000               0.000000000               0.000000000               0.000000000               0.000000000               0.000000000               0.000000000               0.000000000               0.000000000               0.000000000               0.000000000               0.000000000               0.000000000               0.000000000               0.000000000               0.000000000               0.000000000               0.000000000               0.000000000               0.000000000               0.000000000               0.000000000               0.000000000               0.000000000               0.000000000               0.000000000               0.000000000               0.000000000               0.000000000               0.000000000               0.000000000               0.000000000               0.000000000               0.000000000               0.000000000               0.000000000               0.000000000               0.000000000               0.000000000               0.000000000               0.001824907               0.019117471               0.001350761              -0.001705340               0.006940873               0.005235533               0.000000000               0.000000000               0.000000000               0.000000000               0.001743723               0.015210058               0.000709217              -0.001247358               0.005485755               0.004238397               0.000000000               0.000000000               0.000000000               0.000000000               0.002219246               0.012102740               0.000069315              -0.000680624               0.004261081               0.003580457               0.000000000               0.000000000               0.000000000               0.000000000               0.002111847               0.010370094              -0.000199732              -0.000504318               0.003624770               0.003120452               0.000000000               0.000000000               0.000000000               0.000000000               0.001838975               0.009297068              -0.000308711              -0.000472517               0.003256497               0.002783980               0.000000000               0.000000000               0.000000000               0.000000000               0.001545631               0.008570575              -0.000345977              -0.000491709               0.003020733               0.002529024               0.000000000               0.000000000               0.000000000               0.000000000               0.001277305               0.008038813              -0.000351269              -0.000525861               0.002854865               0.002329004               0.000000000               0.000000000               0.000000000               0.000000000               0.001042150               0.007620424              -0.000341265              -0.000561745               0.002727365               0.002165619               0.000000000               0.000000000               0.000000000               0.000000000               0.000833883               0.007268946              -0.000326339              -0.000595911               0.002621595               0.002025684               0.000000000               0.000000000               0.000000000               0.000000000               0.000648196               0.006959414              -0.000312718              -0.000626852               0.002528732               0.001901880               0.000000000               0.000000000               0.000000000               0.000000000               0.000488194               0.006679393              -0.000297464              -0.000651850               0.002443725               0.001791876               0.000000000               0.000000000               0.000000000               0.000000000               0.000352468               0.006410231              -0.000273338              -0.000669102               0.002359756               0.001690654               0.000000000               0.000000000               0.000000000               0.000000000               0.000236336               0.006132735              -0.000243145              -0.000677964               0.002270213               0.001592248               0.000000000               0.000000000               0.000000000               0.000000000               0.000137414               0.005837736              -0.000209869              -0.000678185               0.002171954               0.001493769               0.000000000               0.000000000               0.000000000               0.000000000               0.000063187               0.005521092              -0.000162534              -0.000666440               0.002062492               0.001396053               0.000000000               0.000000000               0.000000000               0.000000000               0.000020836               0.005172465              -0.000091671              -0.000638743               0.001937052               0.001298309               0.000000000               0.000000000               0.000000000               0.000000000              -0.000019113               0.004911496              -0.000055071              -0.000621103               0.001844183               0.001223080               0.000000000               0.000000000               0.000000000               0.000000000               0.002001416               0.017999807               0.002523483              -0.001499442               0.006499689               0.005000247               0.000000000               0.000000000               0.000000000               0.000000000               0.001669106               0.014488374               0.001333610              -0.001185130               0.005224453               0.004039323               0.000000000               0.000000000               0.000000000               0.000000000               0.001870366               0.011777689               0.000156012              -0.000770822               0.004182798               0.003411976               0.000000000               0.000000000               0.000000000               0.000000000               0.001660814               0.010246025              -0.000325907              -0.000657946               0.003634623               0.002976677               0.000000000               0.000000000               0.000000000               0.000000000               0.001370902               0.009275326              -0.000517931              -0.000645326               0.003306853               0.002661527               0.000000000               0.000000000               0.000000000               0.000000000               0.001098921               0.008602824              -0.000581802              -0.000663256               0.003088665               0.002425409               0.000000000               0.000000000               0.000000000               0.000000000               0.000866490               0.008096132              -0.000588621              -0.000687081               0.002927711               0.002240630               0.000000000               0.000000000               0.000000000               0.000000000               0.000675329               0.007689063              -0.000570093              -0.000707883               0.002798956               0.002091073               0.000000000               0.000000000               0.000000000               0.000000000               0.000514467               0.007345195              -0.000543093              -0.000725223               0.002690115               0.001964892               0.000000000               0.000000000               0.000000000               0.000000000               0.000379088               0.007041864              -0.000518476              -0.000738073               0.002593289               0.001855216               0.000000000               0.000000000               0.000000000               0.000000000               0.000268260               0.006763803              -0.000492549              -0.000744876               0.002502871               0.001757995               0.000000000               0.000000000               0.000000000               0.000000000               0.000180778               0.006497953              -0.000453683              -0.000744451               0.002414113               0.001669662               0.000000000               0.000000000               0.000000000               0.000000000               0.000113702               0.006237022              -0.000403439              -0.000736988               0.002324649               0.001587661               0.000000000               0.000000000               0.000000000               0.000000000               0.000061541               0.005977542              -0.000345828              -0.000724113               0.002233865               0.001509752               0.000000000               0.000000000               0.000000000               0.000000000               0.000028088               0.005721488              -0.000267273              -0.000704651               0.002142027               0.001437376               0.000000000               0.000000000               0.000000000               0.000000000               0.000009389               0.005469953              -0.000152008              -0.000680221               0.002050040               0.001369819               0.000000000               0.000000000               0.000000000               0.000000000              -0.000013871               0.005300710              -0.000090006              -0.000667789               0.001989482               0.001321693               0.000000000               0.000000000               0.000000000               0.000000000               0.002201984               0.016300450               0.003381597              -0.001211812               0.005837366               0.004625554               0.000000000               0.000000000               0.000000000               0.000000000               0.001512793               0.013397105               0.001808853              -0.001107339               0.004834770               0.003727431               0.000000000               0.000000000               0.000000000               0.000000000               0.001337211               0.011288278               0.000267794              -0.000909578               0.004065914               0.003156336               0.000000000               0.000000000               0.000000000               0.000000000               0.001017978               0.010043315              -0.000337645              -0.000873670               0.003638962               0.002765291               0.000000000               0.000000000               0.000000000               0.000000000               0.000726070               0.009210590              -0.000571711              -0.000879045               0.003363181               0.002484136               0.000000000               0.000000000               0.000000000               0.000000000               0.000497255               0.008608030              -0.000647261              -0.000889531               0.003165825               0.002276294               0.000000000               0.000000000               0.000000000               0.000000000               0.000325908               0.008137513              -0.000653074              -0.000894972               0.003010801               0.002115829               0.000000000               0.000000000               0.000000000               0.000000000               0.000201619               0.007749820              -0.000630750              -0.000893118               0.002880954               0.001987835               0.000000000               0.000000000               0.000000000               0.000000000               0.000110344               0.007414586              -0.000599812              -0.000885442               0.002766651               0.001881209               0.000000000               0.000000000               0.000000000               0.000000000               0.000046335               0.007114896              -0.000570167              -0.000871984               0.002662270               0.001790285               0.000000000               0.000000000               0.000000000               0.000000000               0.000009644               0.006837992              -0.000537658              -0.000851130               0.002563018               0.001711888               0.000000000               0.000000000               0.000000000               0.000000000              -0.000007733               0.006579010              -0.000491526              -0.000825274               0.002468073               0.001642799               0.000000000               0.000000000               0.000000000               0.000000000              -0.000014695               0.006340549              -0.000432298              -0.000798077               0.002379521               0.001581444               0.000000000               0.000000000               0.000000000               0.000000000              -0.000017785               0.006124407              -0.000363310              -0.000772218               0.002298855               0.001526636               0.000000000               0.000000000               0.000000000               0.000000000              -0.000016297               0.005936321              -0.000273311              -0.000748149               0.002228137               0.001479987               0.000000000               0.000000000               0.000000000               0.000000000              -0.000010255               0.005788513              -0.000151554              -0.000727408               0.002171954               0.001444547               0.000000000               0.000000000               0.000000000               0.000000000              -0.000010572               0.005715429              -0.000084583              -0.000718391               0.002144588               0.001426196               0.000000000               0.000000000               0.000000000               0.000000000               0.002320700               0.014231652               0.003855500              -0.000908695               0.005046734               0.004138039               0.000000000               0.000000000               0.000000000               0.000000000               0.001256800               0.012084301               0.002106991              -0.001039236               0.004374472               0.003335236               0.000000000               0.000000000               0.000000000               0.000000000               0.000685746               0.010695487               0.000412661              -0.001079779               0.003925053               0.002845274               0.000000000               0.000000000               0.000000000               0.000000000               0.000291818               0.009765446              -0.000222707              -0.001111246               0.003625531               0.002514285               0.000000000               0.000000000               0.000000000               0.000000000               0.000041121               0.009083769              -0.000463011              -0.001120048               0.003401242               0.002281194               0.000000000               0.000000000               0.000000000               0.000000000              -0.000112808               0.008552881              -0.000542658              -0.001111411               0.003221402               0.002109991               0.000000000               0.000000000               0.000000000               0.000000000              -0.000201064               0.008117894              -0.000552230              -0.001090133               0.003069315               0.001979182               0.000000000               0.000000000               0.000000000               0.000000000              -0.000244095               0.007748346              -0.000533386              -0.001060076               0.002936115               0.001876039               0.000000000               0.000000000               0.000000000               0.000000000              -0.000257613               0.007420690              -0.000505154              -0.001024189               0.002814935               0.001790746               0.000000000               0.000000000               0.000000000               0.000000000              -0.000242357               0.007124392              -0.000476488              -0.000981431               0.002701917               0.001720486               0.000000000               0.000000000               0.000000000               0.000000000              -0.000204574               0.006853576              -0.000442251              -0.000933410               0.002595639               0.001662229               0.000000000               0.000000000               0.000000000               0.000000000              -0.000159713               0.006606032              -0.000395866              -0.000885644               0.002497203               0.001611559               0.000000000               0.000000000               0.000000000               0.000000000              -0.000117115               0.006389589              -0.000338604              -0.000842615               0.002410713               0.001568098               0.000000000               0.000000000               0.000000000               0.000000000              -0.000079453               0.006210809              -0.000272510              -0.000806144               0.002338964               0.001532820               0.000000000               0.000000000               0.000000000               0.000000000              -0.000046569               0.006075886              -0.000192720              -0.000776947               0.002284257               0.001507310               0.000000000               0.000000000               0.000000000               0.000000000              -0.000021076               0.005994016              -0.000099356              -0.000757154               0.002250370               0.001493216               0.000000000               0.000000000               0.000000000               0.000000000              -0.000008754               0.005971108              -0.000049765              -0.000749669               0.002240239               0.001490570               0.000000000               0.000000000               0.000000000               0.000000000               0.002261292               0.012002220               0.003951883              -0.000652295               0.004218130               0.003565836               0.000000000               0.000000000               0.000000000               0.000000000               0.000898076               0.010692131               0.002245570              -0.000999737               0.003897253               0.002897516               0.000000000               0.000000000               0.000000000               0.000000000              -0.000001465               0.010049311               0.000602665              -0.001256710               0.003768640               0.002511930               0.000000000               0.000000000               0.000000000               0.000000000              -0.000404376               0.009422715               0.000005682              -0.001329477               0.003584033               0.002254556               0.000000000               0.000000000               0.000000000               0.000000000              -0.000571383               0.008879102              -0.000223340              -0.001324153               0.003401055               0.002076902               0.000000000               0.000000000               0.000000000               0.000000000              -0.000623893               0.008410607              -0.000306742              -0.001285283               0.003231935               0.001946652               0.000000000               0.000000000               0.000000000               0.000000000              -0.000617476               0.008003710              -0.000328986              -0.001232014               0.003078548               0.001846534               0.000000000               0.000000000               0.000000000               0.000000000              -0.000574193               0.007648024              -0.000323265              -0.001171322               0.002939756               0.001768434               0.000000000               0.000000000               0.000000000               0.000000000              -0.000509054               0.007328215              -0.000305124              -0.001106919               0.002811687               0.001704768               0.000000000               0.000000000               0.000000000               0.000000000              -0.000426737               0.007038505              -0.000284419              -0.001039837               0.002692757               0.001652920               0.000000000               0.000000000               0.000000000               0.000000000              -0.000333799               0.006778747              -0.000257342              -0.000972515               0.002583731               0.001611216               0.000000000               0.000000000               0.000000000               0.000000000              -0.000242486               0.006550479              -0.000220842              -0.000909740               0.002486718               0.001576978               0.000000000               0.000000000               0.000000000               0.000000000              -0.000165020               0.006359946              -0.000179849              -0.000856874               0.002405585               0.001548712               0.000000000               0.000000000               0.000000000               0.000000000              -0.000105673               0.006213628              -0.000134104              -0.000816329               0.002343298               0.001526969               0.000000000               0.000000000               0.000000000               0.000000000              -0.000060609               0.006107549              -0.000082666              -0.000786170               0.002297886               0.001511716               0.000000000               0.000000000               0.000000000               0.000000000              -0.000025106               0.006039802              -0.000034537              -0.000764388               0.002268043               0.001503655               0.000000000               0.000000000               0.000000000               0.000000000              -0.000013558               0.006010648              -0.000015849              -0.000756413               0.002255667               0.001499254               0.000000000               0.000000000               0.000000000               0.000000000               0.001975563               0.009790934               0.003728087              -0.000483033               0.003424622               0.002941589               0.000000000               0.000000000               0.000000000               0.000000000               0.000457946               0.009330915               0.002262580              -0.000994634               0.003441818               0.002447184               0.000000000               0.000000000               0.000000000               0.000000000              -0.000642069               0.009386446               0.000839485              -0.001414078               0.003600143               0.002186065               0.000000000               0.000000000               0.000000000               0.000000000              -0.000977826               0.009021183               0.000319162              -0.001494329               0.003505140               0.002010812               0.000000000               0.000000000               0.000000000               0.000000000              -0.001033928               0.008589789               0.000099245              -0.001461443               0.003350382               0.001888939               0.000000000               0.000000000               0.000000000               0.000000000              -0.000978712               0.008176774               0.000000253              -0.001389110               0.003188601               0.001799491               0.000000000               0.000000000               0.000000000               0.000000000              -0.000878374               0.007798461              -0.000045627              -0.001304194               0.003034192               0.001729998               0.000000000               0.000000000               0.000000000               0.000000000              -0.000758793               0.007456603              -0.000063727              -0.001216620               0.002891049               0.001674430               0.000000000               0.000000000               0.000000000               0.000000000              -0.000630765               0.007146919              -0.000065891              -0.001129899               0.002758915               0.001629016               0.000000000               0.000000000               0.000000000               0.000000000              -0.000495645               0.006871870              -0.000064811              -0.001044848               0.002638883               0.001594035               0.000000000               0.000000000               0.000000000               0.000000000              -0.000364297               0.006632041              -0.000059206              -0.000965614               0.002532530               0.001566915               0.000000000               0.000000000               0.000000000               0.000000000              -0.000254303               0.006429651              -0.000046303              -0.000899068               0.002442885               0.001543817               0.000000000               0.000000000               0.000000000               0.000000000              -0.000171340               0.006266830              -0.000034573              -0.000847604               0.002371457               0.001523853               0.000000000               0.000000000               0.000000000               0.000000000              -0.000111693               0.006134214              -0.000023342              -0.000808660               0.002314271               0.001505611               0.000000000               0.000000000               0.000000000               0.000000000              -0.000068676               0.006022289              -0.000009341              -0.000778538               0.002266922               0.001488385               0.000000000               0.000000000               0.000000000               0.000000000              -0.000032659               0.005929457              -0.000001631              -0.000753427               0.002227609               0.001474181               0.000000000               0.000000000               0.000000000               0.000000000              -0.000028759               0.005867201              -0.000009078              -0.000744183               0.002203775               0.001459592               0.000000000               0.000000000               0.000000000               0.000000000               0.001476585               0.007739796               0.003258718              -0.000413758               0.002717824               0.002304067               0.000000000               0.000000000               0.000000000               0.000000000              -0.000035333               0.008078799               0.002195144              -0.001023099               0.003033938               0.002010839               0.000000000               0.000000000               0.000000000               0.000000000              -0.001174640               0.008711580               0.001115811              -0.001529434               0.003413642               0.001884208               0.000000000               0.000000000               0.000000000               0.000000000              -0.001380537               0.008555221               0.000672643              -0.001587100               0.003380745               0.001793645               0.000000000               0.000000000               0.000000000               0.000000000              -0.001311440               0.008224917               0.000444342              -0.001519901               0.003248245               0.001728344               0.000000000               0.000000000               0.000000000               0.000000000              -0.001160887               0.007867035               0.000315555              -0.001418708               0.003095222               0.001676513               0.000000000               0.000000000               0.000000000               0.000000000              -0.000984843               0.007524280               0.000239089              -0.001309848               0.002944684               0.001634836               0.000000000               0.000000000               0.000000000               0.000000000              -0.000804724               0.007204288               0.000188800              -0.001202304               0.002802174               0.001599869               0.000000000               0.000000000               0.000000000               0.000000000              -0.000628751               0.006914886               0.000153727              -0.001100140               0.002671652               0.001571512               0.000000000               0.000000000               0.000000000               0.000000000              -0.000464532               0.006662041               0.000123129              -0.001006952               0.002556309               0.001549357               0.000000000               0.000000000               0.000000000               0.000000000              -0.000325008               0.006446815               0.000097760              -0.000927728               0.002458159               0.001530432               0.000000000               0.000000000               0.000000000               0.000000000              -0.000218080               0.006262848               0.000076509              -0.000864634               0.002375807               0.001511173               0.000000000               0.000000000               0.000000000               0.000000000              -0.000144679               0.006092824               0.000052976              -0.000815856               0.002302873               0.001487017               0.000000000               0.000000000               0.000000000               0.000000000              -0.000103843               0.005927604               0.000031746              -0.000779890               0.002235811               0.001455922               0.000000000               0.000000000               0.000000000               0.000000000              -0.000078106               0.005776374               0.000015308              -0.000751335               0.002175884               0.001424549               0.000000000               0.000000000               0.000000000               0.000000000              -0.000046632               0.005643576               0.000001775              -0.000722932               0.002122151               0.001399218               0.000000000               0.000000000               0.000000000               0.000000000              -0.000040015               0.005556468              -0.000012660              -0.000709562               0.002088658               0.001379096               0.000000000               0.000000000               0.000000000               0.000000000               0.000850694               0.005992968               0.002644995              -0.000430112               0.002141006               0.001710894               0.000000000               0.000000000               0.000000000               0.000000000              -0.000502999               0.006958265               0.002094835              -0.001058407               0.002672200               0.001613793               0.000000000               0.000000000               0.000000000               0.000000000              -0.001556910               0.008049598               0.001433723              -0.001590037               0.003213185               0.001623147               0.000000000               0.000000000               0.000000000               0.000000000              -0.001625722               0.008103992               0.001041591              -0.001622641               0.003242184               0.001619543               0.000000000               0.000000000               0.000000000               0.000000000              -0.001457922               0.007890744               0.000791239              -0.001533060               0.003141242               0.001608181               0.000000000               0.000000000               0.000000000               0.000000000              -0.001238064               0.007603178               0.000623869              -0.001414668               0.003005923               0.001591255               0.000000000               0.000000000               0.000000000               0.000000000              -0.001008337               0.007307773               0.000510507              -0.001291595               0.002866432               0.001574837               0.000000000               0.000000000               0.000000000               0.000000000              -0.000781577               0.007023015               0.000424589              -0.001170965               0.002731303               0.001560338               0.000000000               0.000000000               0.000000000               0.000000000              -0.000571211               0.006759716               0.000353181              -0.001059166               0.002606271               0.001547105               0.000000000               0.000000000               0.000000000               0.000000000              -0.000389278               0.006528585               0.000286658              -0.000962050               0.002496857               0.001534807               0.000000000               0.000000000               0.000000000               0.000000000              -0.000246656               0.006328376               0.000225892              -0.000883541               0.002403951               0.001520410               0.000000000               0.000000000               0.000000000               0.000000000              -0.000157026               0.006125194               0.000173948              -0.000824532               0.002316555               0.001492023               0.000000000               0.000000000               0.000000000               0.000000000              -0.000117696               0.005910263               0.000125885              -0.000782917               0.002231040               0.001448123               0.000000000               0.000000000               0.000000000               0.000000000              -0.000112130               0.005703347               0.000080237              -0.000754965               0.002152752               0.001397787               0.000000000               0.000000000               0.000000000               0.000000000              -0.000119989               0.005512799               0.000040485              -0.000734094               0.002082279               0.001348185               0.000000000               0.000000000               0.000000000               0.000000000              -0.000128615               0.005337502               0.000011804              -0.000715417               0.002017622               0.001302205               0.000000000               0.000000000               0.000000000               0.000000000              -0.000132228               0.005238499              -0.000002630              -0.000704396               0.001980948               0.001276552               0.000000000               0.000000000               0.000000000               0.000000000               0.000090037               0.004355927               0.001981980              -0.000510728               0.001622203               0.001111475               0.000000000               0.000000000               0.000000000               0.000000000              -0.000870466               0.005664805               0.001976255              -0.001034524               0.002233090               0.001198566               0.000000000               0.000000000               0.000000000               0.000000000              -0.001734308               0.007086056               0.001777735              -0.001536119               0.002874034               0.001337915               0.000000000               0.000000000               0.000000000               0.000000000              -0.001737697               0.007431846               0.001447773              -0.001580614               0.003004128               0.001423515               0.000000000               0.000000000               0.000000000               0.000000000              -0.001532802               0.007417170               0.001174460              -0.001501943               0.002973013               0.001471070               0.000000000               0.000000000               0.000000000               0.000000000              -0.001289473               0.007274489               0.000966288              -0.001392860               0.002889092               0.001496232               0.000000000               0.000000000               0.000000000               0.000000000              -0.001046817               0.007085826               0.000811883              -0.001278282               0.002788012               0.001509731               0.000000000               0.000000000               0.000000000               0.000000000              -0.000811146               0.006881970               0.000689865              -0.001164423               0.002682108               0.001517685               0.000000000               0.000000000               0.000000000               0.000000000              -0.000593152               0.006671693               0.000582525              -0.001056391               0.002576006               0.001519614               0.000000000               0.000000000               0.000000000               0.000000000              -0.000403223               0.006475616               0.000482140              -0.000960658               0.002478736               0.001518078               0.000000000               0.000000000               0.000000000               0.000000000              -0.000254683               0.006286394               0.000388825              -0.000881303               0.002389212               0.001507908               0.000000000               0.000000000               0.000000000               0.000000000              -0.000162228               0.006069335               0.000301209              -0.000819500               0.002296258               0.001476758               0.000000000               0.000000000               0.000000000               0.000000000              -0.000122100               0.005839037               0.000218037              -0.000775665               0.002204881               0.001429216               0.000000000               0.000000000               0.000000000               0.000000000              -0.000131406               0.005610599               0.000142097              -0.000750600               0.002120381               0.001369781               0.000000000               0.000000000               0.000000000               0.000000000              -0.000174132               0.005396926               0.000075107              -0.000739913               0.002045595               0.001305682               0.000000000               0.000000000               0.000000000               0.000000000              -0.000232867               0.005195279               0.000024892              -0.000736733               0.001977320               0.001240587               0.000000000               0.000000000               0.000000000               0.000000000              -0.000268274               0.005085948               0.000003380              -0.000736344               0.001940747               0.001204403               0.000000000               0.000000000               0.000000000               0.000000000              -0.000926832               0.002866554               0.001308097              -0.000705880               0.001190801               0.000484921               0.000000000               0.000000000               0.000000000               0.000000000              -0.001290870               0.004371941               0.001792626              -0.001030567               0.001800821               0.000770254               0.000000000               0.000000000               0.000000000               0.000000000              -0.001823071               0.005982059               0.002045206              -0.001431406               0.002471135               0.001039728               0.000000000               0.000000000               0.000000000               0.000000000              -0.001769935               0.006603891               0.001832696              -0.001489209               0.002697677               0.001208468               0.000000000               0.000000000               0.000000000               0.000000000              -0.001554249               0.006816134               0.001564469              -0.001434857               0.002750307               0.001315450               0.000000000               0.000000000               0.000000000               0.000000000              -0.001306754               0.006848697               0.001330629              -0.001346117               0.002731582               0.001385465               0.000000000               0.000000000               0.000000000               0.000000000              -0.001064668               0.006797973               0.001142351              -0.001248994               0.002682300               0.001433305               0.000000000               0.000000000               0.000000000               0.000000000              -0.000832958               0.006699142               0.000987047              -0.001149749               0.002616275               0.001466525               0.000000000               0.000000000               0.000000000               0.000000000              -0.000618211               0.006567608               0.000850010              -0.001052778               0.002540107               0.001487329               0.000000000               0.000000000               0.000000000               0.000000000              -0.000420369               0.006427293               0.000724550              -0.000961048               0.002462759               0.001501711               0.000000000               0.000000000               0.000000000               0.000000000              -0.000253287               0.006266675               0.000608040              -0.000878315               0.002381642               0.001503327               0.000000000               0.000000000               0.000000000               0.000000000              -0.000138806               0.006067297               0.000494501              -0.000810462               0.002292566               0.001482104               0.000000000               0.000000000               0.000000000               0.000000000              -0.000077829               0.005850147               0.000378482              -0.000760452               0.002203513               0.001443061               0.000000000               0.000000000               0.000000000               0.000000000              -0.000071527               0.005623706               0.000262831              -0.000729784               0.002117811               0.001388027               0.000000000               0.000000000               0.000000000               0.000000000              -0.000118789               0.005403045               0.000157205              -0.000719925               0.002040972               0.001321047               0.000000000               0.000000000               0.000000000               0.000000000              -0.000210231               0.005192902               0.000068501              -0.000727947               0.001973599               0.001245652               0.000000000               0.000000000               0.000000000               0.000000000              -0.000283505               0.005076465               0.000022474              -0.000740871               0.001939095               0.001198224               0.000000000               0.000000000               0.000000000               0.000000000              -0.002129745               0.001623586               0.000668378              -0.001001601               0.000875056              -0.000126545               0.000000000               0.000000000               0.000000000               0.000000000              -0.001814922               0.003149726               0.001519508              -0.001074309               0.001408000               0.000333691               0.000000000               0.000000000               0.000000000               0.000000000              -0.001873194               0.004749202               0.002137602              -0.001296096               0.002015082               0.000718987               0.000000000               0.000000000               0.000000000               0.000000000              -0.001702006               0.005569656               0.002076675              -0.001334457               0.002301352               0.000966895               0.000000000               0.000000000               0.000000000               0.000000000              -0.001464604               0.005994212               0.001856852              -0.001298501               0.002430884               0.001132383               0.000000000               0.000000000               0.000000000               0.000000000              -0.001216367               0.006211187               0.001626783              -0.001232534               0.002481219               0.001248685               0.000000000               0.000000000               0.000000000               0.000000000              -0.000983490               0.006312228               0.001425173              -0.001157835               0.002490000               0.001332165               0.000000000               0.000000000               0.000000000               0.000000000              -0.000765418               0.006342739               0.001249041              -0.001079872               0.002474182               0.001394310               0.000000000               0.000000000               0.000000000               0.000000000              -0.000558674               0.006321337               0.001093212              -0.000999668               0.002440314               0.001440646               0.000000000               0.000000000               0.000000000               0.000000000              -0.000361064               0.006262718               0.000957702              -0.000918237               0.002393631               0.001475394               0.000000000               0.000000000               0.000000000               0.000000000              -0.000183209               0.006156310               0.000831533              -0.000838240               0.002331496               0.001493256               0.000000000               0.000000000               0.000000000               0.000000000              -0.000046758               0.005999921               0.000698958              -0.000767523               0.002255795               0.001488272               0.000000000               0.000000000               0.000000000               0.000000000               0.000038396               0.005816044               0.000558910              -0.000712605               0.002176197               0.001463592               0.000000000               0.000000000               0.000000000               0.000000000               0.000072103               0.005609205               0.000415111              -0.000674110               0.002094420               0.001420309               0.000000000               0.000000000               0.000000000               0.000000000               0.000053809               0.005401970               0.000270298              -0.000655066               0.002018994               0.001363928               0.000000000               0.000000000               0.000000000               0.000000000              -0.000028223               0.005199482               0.000130220              -0.000660517               0.001953316               0.001292799               0.000000000               0.000000000               0.000000000               0.000000000              -0.000110812               0.005082440               0.000054308              -0.000676858               0.001919749               0.001242891               0.000000000               0.000000000               0.000000000               0.000000000              -0.003430299               0.000693720               0.000142832              -0.001373075               0.000688927              -0.000684148               0.000000000               0.000000000               0.000000000               0.000000000              -0.002409807               0.002065224               0.001186853              -0.001161829               0.001075676              -0.000086152               0.000000000               0.000000000               0.000000000               0.000000000              -0.001908958               0.003492070               0.002031908              -0.001152366               0.001548133               0.000395767               0.000000000               0.000000000               0.000000000               0.000000000              -0.001557482               0.004415516               0.002114335              -0.001135994               0.001850487               0.000714494               0.000000000               0.000000000               0.000000000               0.000000000              -0.001270849               0.005006088               0.001971695              -0.001102328               0.002036121               0.000933794               0.000000000               0.000000000               0.000000000               0.000000000              -0.001016756               0.005393656               0.001775759              -0.001055489               0.002149696               0.001094208               0.000000000               0.000000000               0.000000000               0.000000000              -0.000792049               0.005650861               0.001583205              -0.001003374               0.002218059               0.001214685               0.000000000               0.000000000               0.000000000               0.000000000              -0.000592073               0.005816996               0.001407796              -0.000949150               0.002255363               0.001306212               0.000000000               0.000000000               0.000000000               0.000000000              -0.000398709               0.005915821               0.001252578              -0.000888992               0.002268251               0.001379259               0.000000000               0.000000000               0.000000000               0.000000000              -0.000206289               0.005961657               0.001118450              -0.000822564               0.002261387               0.001438823               0.000000000               0.000000000               0.000000000               0.000000000              -0.000030185               0.005938297               0.000991307              -0.000753605               0.002230614               0.001477009               0.000000000               0.000000000               0.000000000               0.000000000               0.000118543               0.005845413               0.000854053              -0.000686221               0.002177192               0.001490970               0.000000000               0.000000000               0.000000000               0.000000000               0.000235852               0.005713693               0.000706169              -0.000625766               0.002113134               0.001487368               0.000000000               0.000000000               0.000000000               0.000000000               0.000311452               0.005551813               0.000551442              -0.000577181               0.002042979               0.001465798               0.000000000               0.000000000               0.000000000               0.000000000               0.000342897               0.005374108               0.000383639              -0.000543176               0.001972410               0.001429234               0.000000000               0.000000000               0.000000000               0.000000000               0.000316711               0.005190652               0.000198923              -0.000530064               0.001906888               0.001376824               0.000000000               0.000000000               0.000000000               0.000000000               0.000267816               0.005086474               0.000097432              -0.000535377               0.001873933               0.001338557               0.000000000               0.000000000               0.000000000               0.000000000              -0.004702094               0.000073060              -0.000190058              -0.001772416               0.000615155              -0.001157262               0.000000000               0.000000000               0.000000000               0.000000000              -0.003021729               0.001181408               0.000841185              -0.001280823               0.000820737              -0.000460085               0.000000000               0.000000000               0.000000000               0.000000000              -0.001943238               0.002332125               0.001728666              -0.001020228               0.001117442               0.000097214               0.000000000               0.000000000               0.000000000               0.000000000              -0.001370325               0.003267531               0.001904687              -0.000922312               0.001396602               0.000474290               0.000000000               0.000000000               0.000000000               0.000000000              -0.001007001               0.003967052               0.001839333              -0.000873506               0.001613505               0.000739999               0.000000000               0.000000000               0.000000000               0.000000000              -0.000739889               0.004491002               0.001696171              -0.000838832               0.001776596               0.000937764               0.000000000               0.000000000               0.000000000               0.000000000              -0.000522080               0.004884481               0.001536839              -0.000806339               0.001896923               0.001090584               0.000000000               0.000000000               0.000000000               0.000000000              -0.000332630               0.005175335               0.001386521              -0.000771652               0.001982312               0.001210659               0.000000000               0.000000000               0.000000000               0.000000000              -0.000154005               0.005390114               0.001253331              -0.000731515               0.002040525               0.001309010               0.000000000               0.000000000               0.000000000               0.000000000               0.000024321               0.005547455               0.001134714              -0.000684310               0.002077237               0.001392926               0.000000000               0.000000000               0.000000000               0.000000000               0.000192085               0.005625018               0.001018305              -0.000631094               0.002085352               0.001454258               0.000000000               0.000000000               0.000000000               0.000000000               0.000347313               0.005617057               0.000893288              -0.000571889               0.002062963               0.001491074               0.000000000               0.000000000               0.000000000               0.000000000               0.000493341               0.005554178               0.000756512              -0.000509268               0.002021130               0.001511862               0.000000000               0.000000000               0.000000000               0.000000000               0.000623977               0.005452066               0.000610016              -0.000447516               0.001966509               0.001518993               0.000000000               0.000000000               0.000000000               0.000000000               0.000734165               0.005319517               0.000446319              -0.000389627               0.001903030               0.001513403               0.000000000               0.000000000               0.000000000               0.000000000               0.000810324               0.005164732               0.000244866              -0.000341719               0.001835466               0.001493747               0.000000000               0.000000000               0.000000000               0.000000000               0.000843778               0.005083892               0.000132742              -0.000319069               0.001800970               0.001481901               0.000000000               0.000000000               0.000000000               0.000000000              -0.005775396              -0.000292398              -0.000298567              -0.002129222               0.000612270              -0.001516952               0.000000000               0.000000000               0.000000000               0.000000000              -0.003561115               0.000534985               0.000520660              -0.001402290               0.000645754              -0.000756536               0.000000000               0.000000000               0.000000000               0.000000000              -0.001980264               0.001389691               0.001253634              -0.000916309               0.000768661              -0.000147648               0.000000000               0.000000000               0.000000000               0.000000000              -0.001191198               0.002279161               0.001442711              -0.000731593               0.001003577               0.000271983               0.000000000               0.000000000               0.000000000               0.000000000              -0.000742028               0.003035064               0.001430189              -0.000657643               0.001230892               0.000573249               0.000000000               0.000000000               0.000000000               0.000000000              -0.000449493               0.003652108               0.001343007              -0.000625072               0.001425714               0.000800642               0.000000000               0.000000000               0.000000000               0.000000000              -0.000231636               0.004148050               0.001233729              -0.000605369               0.001584459               0.000979090               0.000000000               0.000000000               0.000000000               0.000000000              -0.000049307               0.004538344               0.001127199              -0.000585782               0.001708027               0.001122245               0.000000000               0.000000000               0.000000000               0.000000000               0.000120125               0.004851888               0.001031923              -0.000561438               0.001804426               0.001242988               0.000000000               0.000000000               0.000000000               0.000000000               0.000285480               0.005104178               0.000944052              -0.000530966               0.001878364               0.001347398               0.000000000               0.000000000               0.000000000               0.000000000               0.000443784               0.005271223               0.000856022              -0.000492483               0.001921218               0.001428735               0.000000000               0.000000000               0.000000000               0.000000000               0.000601411               0.005350874               0.000759458              -0.000443329               0.001931383               0.001488054               0.000000000               0.000000000               0.000000000               0.000000000               0.000770162               0.005363768               0.000652601              -0.000381660               0.001915125               0.001533465               0.000000000               0.000000000               0.000000000               0.000000000               0.000956166               0.005325465               0.000539072              -0.000307120               0.001877511               0.001570390               0.000000000               0.000000000               0.000000000               0.000000000               0.001154690               0.005247053               0.000406383              -0.000222872               0.001823291               0.001600419               0.000000000               0.000000000               0.000000000               0.000000000               0.001361608               0.005132494               0.000227996              -0.000130958               0.001754467               0.001623509               0.000000000               0.000000000               0.000000000               0.000000000               0.001515562               0.005084728               0.000130067              -0.000067255               0.001717311               0.001650055               0.000000000               0.000000000               0.000000000               0.000000000              -0.006491837              -0.000472729              -0.000206496              -0.002375346               0.000634201              -0.001741145               0.000000000               0.000000000               0.000000000               0.000000000              -0.003931760               0.000144298               0.000244584              -0.001492446               0.000545578              -0.000946868               0.000000000               0.000000000               0.000000000               0.000000000              -0.002012067               0.000773964               0.000657566              -0.000851270               0.000541741              -0.000309529               0.000000000               0.000000000               0.000000000               0.000000000              -0.001068998               0.001607706               0.000777791              -0.000601837               0.000736508               0.000134672               0.000000000               0.000000000               0.000000000               0.000000000              -0.000552381               0.002387398               0.000782639              -0.000505567               0.000964313               0.000458747               0.000000000               0.000000000               0.000000000               0.000000000              -0.000232282               0.003054131               0.000743116              -0.000468871               0.001174324               0.000705452               0.000000000               0.000000000               0.000000000               0.000000000              -0.000006002               0.003606454               0.000688994              -0.000453057               0.001353158               0.000900101               0.000000000               0.000000000               0.000000000               0.000000000               0.000175180               0.004060178               0.000634809              -0.000441829               0.001500656               0.001058827               0.000000000               0.000000000               0.000000000               0.000000000               0.000337422               0.004439781               0.000585793              -0.000428439               0.001622725               0.001194286               0.000000000               0.000000000               0.000000000               0.000000000               0.000494439               0.004757562               0.000539139              -0.000409280               0.001722265               0.001312985               0.000000000               0.000000000               0.000000000               0.000000000               0.000647752               0.004986974               0.000491942              -0.000380464               0.001789129               0.001408665               0.000000000               0.000000000               0.000000000               0.000000000               0.000806907               0.005123616               0.000439308              -0.000337861               0.001820475               0.001482614               0.000000000               0.000000000               0.000000000               0.000000000               0.000992612               0.005192105               0.000382082              -0.000276783               0.001822945               0.001546162               0.000000000               0.000000000               0.000000000               0.000000000               0.001215744               0.005208460               0.000319204              -0.000195153               0.001801187               0.001606034               0.000000000               0.000000000               0.000000000               0.000000000               0.001481323               0.005179943               0.000242608              -0.000091997               0.001757296               0.001665299               0.000000000               0.000000000               0.000000000               0.000000000               0.001801328               0.005103572               0.000137659               0.000037551               0.001688657               0.001726208               0.000000000               0.000000000               0.000000000               0.000000000               0.002065771               0.005085115               0.000081060               0.000139023               0.001648680               0.001787703               0.000000000               0.000000000               0.000000000               0.000000000               0.000000000               0.000000000               0.000000000               0.000000000               0.000000000               0.000000000               0.000000000               0.000000000               0.000000000               0.000000000               0.000000000               0.000000000               0.000000000               0.000000000               0.000000000               0.000000000               0.000000000               0.000000000               0.000000000               0.000000000               0.000000000               0.000000000               0.000000000               0.000000000               0.000000000               0.000000000               0.000000000               0.000000000               0.000000000               0.000000000               0.000000000               0.000000000               0.000000000               0.000000000               0.000000000               0.000000000               0.000000000               0.000000000               0.000000000               0.000000000               0.000000000               0.000000000               0.000000000               0.000000000               0.000000000               0.000000000               0.000000000               0.000000000               0.000000000               0.000000000               0.000000000               0.000000000               0.000000000               0.000000000               0.000000000               0.000000000               0.000000000               0.000000000               0.000000000               0.000000000               0.000000000               0.000000000               0.000000000               0.000000000               0.000000000               0.000000000               0.000000000               0.000000000               0.000000000               0.000000000               0.000000000               0.000000000               0.000000000               0.000000000               0.000000000               0.000000000               0.000000000               0.000000000               0.000000000               0.000000000               0.000000000               0.000000000               0.000000000               0.000000000               0.000000000               0.000000000               0.000000000               0.000000000               0.000000000               0.000000000               0.000000000               0.000000000               0.000000000               0.000000000               0.000000000               0.000000000               0.000000000               0.000000000               0.000000000               0.000000000               0.000000000               0.000000000               0.000000000               0.000000000               0.000000000               0.000000000               0.000000000               0.000000000               0.000000000               0.000000000               0.000000000               0.000000000               0.000000000               0.000000000               0.000000000               0.000000000               0.000000000               0.000000000               0.000000000               0.000000000               0.000000000               0.000000000               0.000000000               0.000000000               0.000000000               0.000000000               0.000000000               0.000000000               0.000000000               0.000000000               0.000000000               0.000000000               0.000000000               0.000000000               0.000000000               0.000000000               0.000000000               0.000000000               0.000000000               0.000000000               0.000000000               0.000000000               0.000000000               0.000000000               0.000000000               0.000000000               0.000000000               0.000000000               0.000000000               0.000000000               0.000000000               0.000000000               0.000000000               0.000000000               0.000000000               0.000000000               0.000000000               0.000000000               0.000000000               0.000000000               0.000000000               0.000000000               0.000000000               0.000000000               0.000000000               0.000000000               0.000000000               0.000000000               0.000000000               0.000000000 </DataArray>
</PointData>
</Piece>
</UnstructuredGrid> </VTKFile>
