<?xml version="1.0"?>
<VTKFile type="UnstructuredGrid" version="0.1">
<UnstructuredGrid>
<Piece NumberOfPoints="      1156" NumberOfCells="      1024">
<Points>
<DataArray type="Float64"                                    Name="coordinates"                                                      NumberOfComponents=" 3" format="ascii">
              0.133000000               0.000000000               0.000000000               0.155937500               0.000000000               0.000000000               0.178875000               0.000000000               0.000000000               0.201812500               0.000000000               0.000000000               0.224750000               0.000000000               0.000000000               0.247687500               0.000000000               0.000000000               0.270625000               0.000000000               0.000000000               0.293562500               0.000000000               0.000000000               0.316500000               0.000000000               0.000000000               0.339437500               0.000000000               0.000000000               0.362375000               0.000000000               0.000000000               0.385312500               0.000000000               0.000000000               0.408250000               0.000000000               0.000000000               0.431187500               0.000000000               0.000000000               0.454125000               0.000000000               0.000000000               0.477062500               0.000000000               0.000000000               0.500000000               0.000000000               0.000000000               0.132359569               0.013036280               0.000000000               0.155337096               0.016127762               0.000000000               0.178314623               0.019219245               0.000000000               0.201292150               0.022310727               0.000000000               0.224269676               0.025402210               0.000000000               0.247247203               0.028493692               0.000000000               0.270224730               0.031585175               0.000000000               0.293202257               0.034676657               0.000000000               0.316179784               0.037768140               0.000000000               0.339157311               0.040859622               0.000000000               0.362134838               0.043951105               0.000000000               0.385112365               0.047042587               0.000000000               0.408089892               0.050134070               0.000000000               0.431067419               0.053225552               0.000000000               0.454044946               0.056317035               0.000000000               0.477022473               0.059408517               0.000000000               0.500000000               0.062500000               0.000000000               0.130444442               0.025947013               0.000000000               0.153541665               0.032137825               0.000000000               0.176638887               0.038328636               0.000000000               0.199736109               0.044519448               0.000000000               0.222833332               0.050710260               0.000000000               0.245930554               0.056901071               0.000000000               0.269027776               0.063091883               0.000000000               0.292124999               0.069282695               0.000000000               0.315222221               0.075473506               0.000000000               0.338319444               0.081664318               0.000000000               0.361416666               0.087855130               0.000000000               0.384513888               0.094045942               0.000000000               0.407611111               0.100236753               0.000000000               0.430708333               0.106427565               0.000000000               0.453805555               0.112618377               0.000000000               0.476902778               0.118809188               0.000000000               0.500000000               0.125000000               0.000000000               0.127273065               0.038607862               0.000000000               0.150568498               0.047913621               0.000000000               0.173863932               0.057219379               0.000000000               0.197159365               0.066525138               0.000000000               0.220454798               0.075830897               0.000000000               0.243750232               0.085136655               0.000000000               0.267045665               0.094442414               0.000000000               0.290341099               0.103748172               0.000000000               0.313636532               0.113053931               0.000000000               0.336931966               0.122359690               0.000000000               0.360227399               0.131665448               0.000000000               0.383522833               0.140971207               0.000000000               0.406818266               0.150276966               0.000000000               0.430113700               0.159582724               0.000000000               0.453409133               0.168888483               0.000000000               0.476704567               0.178194241               0.000000000               0.500000000               0.187500000               0.000000000               0.122875978               0.050896897               0.000000000               0.146446229               0.063340840               0.000000000               0.170016481               0.075784784               0.000000000               0.193586732               0.088228728               0.000000000               0.217156983               0.100672672               0.000000000               0.240727235               0.113116616               0.000000000               0.264297486               0.125560560               0.000000000               0.287867738               0.138004504               0.000000000               0.311437989               0.150448448               0.000000000               0.335008240               0.162892392               0.000000000               0.358578492               0.175336336               0.000000000               0.382148743               0.187780280               0.000000000               0.405718994               0.200224224               0.000000000               0.429289246               0.212668168               0.000000000               0.452859497               0.225112112               0.000000000               0.476429749               0.237556056               0.000000000               0.500000000               0.250000000               0.000000000               0.117295528               0.062695766               0.000000000               0.141214558               0.078308531               0.000000000               0.165133587               0.093921295               0.000000000               0.189052617               0.109534060               0.000000000               0.212971646               0.125146824               0.000000000               0.236890676               0.140759589               0.000000000               0.260809705               0.156372354               0.000000000               0.284728735               0.171985118               0.000000000               0.308647764               0.187597883               0.000000000               0.332566794               0.203210648               0.000000000               0.356485823               0.218823412               0.000000000               0.380404853               0.234436177               0.000000000               0.404323882               0.250048941               0.000000000               0.428242912               0.265661706               0.000000000               0.452161941               0.281274471               0.000000000               0.476080971               0.296887235               0.000000000               0.500000000               0.312500000               0.000000000               0.110585458               0.073890841               0.000000000               0.134923867               0.092710163               0.000000000               0.159262276               0.111529486               0.000000000               0.183600685               0.130348808               0.000000000               0.207939094               0.149168131               0.000000000               0.232277503               0.167987453               0.000000000               0.256615912               0.186806776               0.000000000               0.280954320               0.205626098               0.000000000               0.305292729               0.224445420               0.000000000               0.329631138               0.243264743               0.000000000               0.353969547               0.262084065               0.000000000               0.378307956               0.280903388               0.000000000               0.402646365               0.299722710               0.000000000               0.426984773               0.318542033               0.000000000               0.451323182               0.337361355               0.000000000               0.475661591               0.356180678               0.000000000               0.500000000               0.375000000               0.000000000               0.102810390               0.084374307               0.000000000               0.127634741               0.106444663               0.000000000               0.152459092               0.128515018               0.000000000               0.177283442               0.150585374               0.000000000               0.202107793               0.172655730               0.000000000               0.226932143               0.194726086               0.000000000               0.251756494               0.216796442               0.000000000               0.276580845               0.238866798               0.000000000               0.301405195               0.260937153               0.000000000               0.326229546               0.283007509               0.000000000               0.351053896               0.305077865               0.000000000               0.375878247               0.327148221               0.000000000               0.400702598               0.349218577               0.000000000               0.425526948               0.371288933               0.000000000               0.450351299               0.393359288               0.000000000               0.475175649               0.415429644               0.000000000               0.500000000               0.437500000               0.000000000               0.094045202               0.094045202               0.000000000               0.119417377               0.119417377               0.000000000               0.144789552               0.144789552               0.000000000               0.170161727               0.170161727               0.000000000               0.195533901               0.195533901               0.000000000               0.220906076               0.220906076               0.000000000               0.246278251               0.246278251               0.000000000               0.271650426               0.271650426               0.000000000               0.297022601               0.297022601               0.000000000               0.322394776               0.322394776               0.000000000               0.347766951               0.347766951               0.000000000               0.373139126               0.373139126               0.000000000               0.398511300               0.398511300               0.000000000               0.423883475               0.423883475               0.000000000               0.449255650               0.449255650               0.000000000               0.474627825               0.474627825               0.000000000               0.500000000               0.500000000               0.000000000               0.084374307               0.102810390               0.000000000               0.106444663               0.127634741               0.000000000               0.128515018               0.152459092               0.000000000               0.150585374               0.177283442               0.000000000               0.172655730               0.202107793               0.000000000               0.194726086               0.226932143               0.000000000               0.216796442               0.251756494               0.000000000               0.238866798               0.276580845               0.000000000               0.260937153               0.301405195               0.000000000               0.283007509               0.326229546               0.000000000               0.305077865               0.351053896               0.000000000               0.327148221               0.375878247               0.000000000               0.349218577               0.400702598               0.000000000               0.371288933               0.425526948               0.000000000               0.393359288               0.450351299               0.000000000               0.415429644               0.475175649               0.000000000               0.437500000               0.500000000               0.000000000               0.073890841               0.110585458               0.000000000               0.092710163               0.134923867               0.000000000               0.111529486               0.159262276               0.000000000               0.130348808               0.183600685               0.000000000               0.149168131               0.207939094               0.000000000               0.167987453               0.232277503               0.000000000               0.186806776               0.256615912               0.000000000               0.205626098               0.280954320               0.000000000               0.224445420               0.305292729               0.000000000               0.243264743               0.329631138               0.000000000               0.262084065               0.353969547               0.000000000               0.280903388               0.378307956               0.000000000               0.299722710               0.402646365               0.000000000               0.318542033               0.426984773               0.000000000               0.337361355               0.451323182               0.000000000               0.356180678               0.475661591               0.000000000               0.375000000               0.500000000               0.000000000               0.062695766               0.117295528               0.000000000               0.078308531               0.141214558               0.000000000               0.093921295               0.165133587               0.000000000               0.109534060               0.189052617               0.000000000               0.125146824               0.212971646               0.000000000               0.140759589               0.236890676               0.000000000               0.156372354               0.260809705               0.000000000               0.171985118               0.284728735               0.000000000               0.187597883               0.308647764               0.000000000               0.203210648               0.332566794               0.000000000               0.218823412               0.356485823               0.000000000               0.234436177               0.380404853               0.000000000               0.250048941               0.404323882               0.000000000               0.265661706               0.428242912               0.000000000               0.281274471               0.452161941               0.000000000               0.296887235               0.476080971               0.000000000               0.312500000               0.500000000               0.000000000               0.050896897               0.122875978               0.000000000               0.063340840               0.146446229               0.000000000               0.075784784               0.170016481               0.000000000               0.088228728               0.193586732               0.000000000               0.100672672               0.217156983               0.000000000               0.113116616               0.240727235               0.000000000               0.125560560               0.264297486               0.000000000               0.138004504               0.287867738               0.000000000               0.150448448               0.311437989               0.000000000               0.162892392               0.335008240               0.000000000               0.175336336               0.358578492               0.000000000               0.187780280               0.382148743               0.000000000               0.200224224               0.405718994               0.000000000               0.212668168               0.429289246               0.000000000               0.225112112               0.452859497               0.000000000               0.237556056               0.476429749               0.000000000               0.250000000               0.500000000               0.000000000               0.038607862               0.127273065               0.000000000               0.047913621               0.150568498               0.000000000               0.057219379               0.173863932               0.000000000               0.066525138               0.197159365               0.000000000               0.075830897               0.220454798               0.000000000               0.085136655               0.243750232               0.000000000               0.094442414               0.267045665               0.000000000               0.103748172               0.290341099               0.000000000               0.113053931               0.313636532               0.000000000               0.122359690               0.336931966               0.000000000               0.131665448               0.360227399               0.000000000               0.140971207               0.383522833               0.000000000               0.150276966               0.406818266               0.000000000               0.159582724               0.430113700               0.000000000               0.168888483               0.453409133               0.000000000               0.178194241               0.476704567               0.000000000               0.187500000               0.500000000               0.000000000               0.025947013               0.130444442               0.000000000               0.032137825               0.153541665               0.000000000               0.038328636               0.176638887               0.000000000               0.044519448               0.199736109               0.000000000               0.050710260               0.222833332               0.000000000               0.056901071               0.245930554               0.000000000               0.063091883               0.269027776               0.000000000               0.069282695               0.292124999               0.000000000               0.075473506               0.315222221               0.000000000               0.081664318               0.338319444               0.000000000               0.087855130               0.361416666               0.000000000               0.094045942               0.384513888               0.000000000               0.100236753               0.407611111               0.000000000               0.106427565               0.430708333               0.000000000               0.112618377               0.453805555               0.000000000               0.118809188               0.476902778               0.000000000               0.125000000               0.500000000               0.000000000               0.013036280               0.132359569               0.000000000               0.016127762               0.155337096               0.000000000               0.019219245               0.178314623               0.000000000               0.022310727               0.201292150               0.000000000               0.025402210               0.224269676               0.000000000               0.028493692               0.247247203               0.000000000               0.031585175               0.270224730               0.000000000               0.034676657               0.293202257               0.000000000               0.037768140               0.316179784               0.000000000               0.040859622               0.339157311               0.000000000               0.043951105               0.362134838               0.000000000               0.047042587               0.385112365               0.000000000               0.050134070               0.408089892               0.000000000               0.053225552               0.431067419               0.000000000               0.056317035               0.454044946               0.000000000               0.059408517               0.477022473               0.000000000               0.062500000               0.500000000               0.000000000               0.000000000               0.133000000               0.000000000               0.000000000               0.155937500               0.000000000               0.000000000               0.178875000               0.000000000               0.000000000               0.201812500               0.000000000               0.000000000               0.224750000               0.000000000               0.000000000               0.247687500               0.000000000               0.000000000               0.270625000               0.000000000               0.000000000               0.293562500               0.000000000               0.000000000               0.316500000               0.000000000               0.000000000               0.339437500               0.000000000               0.000000000               0.362375000               0.000000000               0.000000000               0.385312500               0.000000000               0.000000000               0.408250000               0.000000000               0.000000000               0.431187500               0.000000000               0.000000000               0.454125000               0.000000000               0.000000000               0.477062500               0.000000000               0.000000000               0.500000000               0.000000000               0.133000000               0.000000000               0.000000000               0.155937500               0.000000000               0.000000000               0.178875000               0.000000000               0.000000000               0.201812500               0.000000000               0.000000000               0.224750000               0.000000000               0.000000000               0.247687500               0.000000000               0.000000000               0.270625000               0.000000000               0.000000000               0.293562500               0.000000000               0.000000000               0.316500000               0.000000000               0.000000000               0.339437500               0.000000000               0.000000000               0.362375000               0.000000000               0.000000000               0.385312500               0.000000000               0.000000000               0.408250000               0.000000000               0.000000000               0.431187500               0.000000000               0.000000000               0.454125000               0.000000000               0.000000000               0.477062500               0.000000000               0.000000000               0.500000000               0.000000000               0.000000000               0.132359569              -0.013036280               0.000000000               0.155337096              -0.016127762               0.000000000               0.178314623              -0.019219245               0.000000000               0.201292150              -0.022310727               0.000000000               0.224269676              -0.025402210               0.000000000               0.247247203              -0.028493692               0.000000000               0.270224730              -0.031585175               0.000000000               0.293202257              -0.034676657               0.000000000               0.316179784              -0.037768140               0.000000000               0.339157311              -0.040859622               0.000000000               0.362134838              -0.043951105               0.000000000               0.385112365              -0.047042587               0.000000000               0.408089892              -0.050134070               0.000000000               0.431067419              -0.053225552               0.000000000               0.454044946              -0.056317035               0.000000000               0.477022473              -0.059408517               0.000000000               0.500000000              -0.062500000               0.000000000               0.130444442              -0.025947013               0.000000000               0.153541665              -0.032137825               0.000000000               0.176638887              -0.038328636               0.000000000               0.199736109              -0.044519448               0.000000000               0.222833332              -0.050710260               0.000000000               0.245930554              -0.056901071               0.000000000               0.269027776              -0.063091883               0.000000000               0.292124999              -0.069282695               0.000000000               0.315222221              -0.075473506               0.000000000               0.338319444              -0.081664318               0.000000000               0.361416666              -0.087855130               0.000000000               0.384513888              -0.094045942               0.000000000               0.407611111              -0.100236753               0.000000000               0.430708333              -0.106427565               0.000000000               0.453805555              -0.112618377               0.000000000               0.476902778              -0.118809188               0.000000000               0.500000000              -0.125000000               0.000000000               0.127273065              -0.038607862               0.000000000               0.150568498              -0.047913621               0.000000000               0.173863932              -0.057219379               0.000000000               0.197159365              -0.066525138               0.000000000               0.220454798              -0.075830897               0.000000000               0.243750232              -0.085136655               0.000000000               0.267045665              -0.094442414               0.000000000               0.290341099              -0.103748172               0.000000000               0.313636532              -0.113053931               0.000000000               0.336931966              -0.122359690               0.000000000               0.360227399              -0.131665448               0.000000000               0.383522833              -0.140971207               0.000000000               0.406818266              -0.150276966               0.000000000               0.430113700              -0.159582724               0.000000000               0.453409133              -0.168888483               0.000000000               0.476704567              -0.178194241               0.000000000               0.500000000              -0.187500000               0.000000000               0.122875978              -0.050896897               0.000000000               0.146446229              -0.063340840               0.000000000               0.170016481              -0.075784784               0.000000000               0.193586732              -0.088228728               0.000000000               0.217156983              -0.100672672               0.000000000               0.240727235              -0.113116616               0.000000000               0.264297486              -0.125560560               0.000000000               0.287867738              -0.138004504               0.000000000               0.311437989              -0.150448448               0.000000000               0.335008240              -0.162892392               0.000000000               0.358578492              -0.175336336               0.000000000               0.382148743              -0.187780280               0.000000000               0.405718994              -0.200224224               0.000000000               0.429289246              -0.212668168               0.000000000               0.452859497              -0.225112112               0.000000000               0.476429749              -0.237556056               0.000000000               0.500000000              -0.250000000               0.000000000               0.117295528              -0.062695766               0.000000000               0.141214558              -0.078308531               0.000000000               0.165133587              -0.093921295               0.000000000               0.189052617              -0.109534060               0.000000000               0.212971646              -0.125146824               0.000000000               0.236890676              -0.140759589               0.000000000               0.260809705              -0.156372354               0.000000000               0.284728735              -0.171985118               0.000000000               0.308647764              -0.187597883               0.000000000               0.332566794              -0.203210648               0.000000000               0.356485823              -0.218823412               0.000000000               0.380404853              -0.234436177               0.000000000               0.404323882              -0.250048941               0.000000000               0.428242912              -0.265661706               0.000000000               0.452161941              -0.281274471               0.000000000               0.476080971              -0.296887235               0.000000000               0.500000000              -0.312500000               0.000000000               0.110585458              -0.073890841               0.000000000               0.134923867              -0.092710163               0.000000000               0.159262276              -0.111529486               0.000000000               0.183600685              -0.130348808               0.000000000               0.207939094              -0.149168131               0.000000000               0.232277503              -0.167987453               0.000000000               0.256615912              -0.186806776               0.000000000               0.280954320              -0.205626098               0.000000000               0.305292729              -0.224445420               0.000000000               0.329631138              -0.243264743               0.000000000               0.353969547              -0.262084065               0.000000000               0.378307956              -0.280903388               0.000000000               0.402646365              -0.299722710               0.000000000               0.426984773              -0.318542033               0.000000000               0.451323182              -0.337361355               0.000000000               0.475661591              -0.356180678               0.000000000               0.500000000              -0.375000000               0.000000000               0.102810390              -0.084374307               0.000000000               0.127634741              -0.106444663               0.000000000               0.152459092              -0.128515018               0.000000000               0.177283442              -0.150585374               0.000000000               0.202107793              -0.172655730               0.000000000               0.226932143              -0.194726086               0.000000000               0.251756494              -0.216796442               0.000000000               0.276580845              -0.238866798               0.000000000               0.301405195              -0.260937153               0.000000000               0.326229546              -0.283007509               0.000000000               0.351053896              -0.305077865               0.000000000               0.375878247              -0.327148221               0.000000000               0.400702598              -0.349218577               0.000000000               0.425526948              -0.371288933               0.000000000               0.450351299              -0.393359288               0.000000000               0.475175649              -0.415429644               0.000000000               0.500000000              -0.437500000               0.000000000               0.094045202              -0.094045202               0.000000000               0.119417377              -0.119417377               0.000000000               0.144789552              -0.144789552               0.000000000               0.170161727              -0.170161727               0.000000000               0.195533901              -0.195533901               0.000000000               0.220906076              -0.220906076               0.000000000               0.246278251              -0.246278251               0.000000000               0.271650426              -0.271650426               0.000000000               0.297022601              -0.297022601               0.000000000               0.322394776              -0.322394776               0.000000000               0.347766951              -0.347766951               0.000000000               0.373139126              -0.373139126               0.000000000               0.398511300              -0.398511300               0.000000000               0.423883475              -0.423883475               0.000000000               0.449255650              -0.449255650               0.000000000               0.474627825              -0.474627825               0.000000000               0.500000000              -0.500000000               0.000000000               0.084374307              -0.102810390               0.000000000               0.106444663              -0.127634741               0.000000000               0.128515018              -0.152459092               0.000000000               0.150585374              -0.177283442               0.000000000               0.172655730              -0.202107793               0.000000000               0.194726086              -0.226932143               0.000000000               0.216796442              -0.251756494               0.000000000               0.238866798              -0.276580845               0.000000000               0.260937153              -0.301405195               0.000000000               0.283007509              -0.326229546               0.000000000               0.305077865              -0.351053896               0.000000000               0.327148221              -0.375878247               0.000000000               0.349218577              -0.400702598               0.000000000               0.371288933              -0.425526948               0.000000000               0.393359288              -0.450351299               0.000000000               0.415429644              -0.475175649               0.000000000               0.437500000              -0.500000000               0.000000000               0.073890841              -0.110585458               0.000000000               0.092710163              -0.134923867               0.000000000               0.111529486              -0.159262276               0.000000000               0.130348808              -0.183600685               0.000000000               0.149168131              -0.207939094               0.000000000               0.167987453              -0.232277503               0.000000000               0.186806776              -0.256615912               0.000000000               0.205626098              -0.280954320               0.000000000               0.224445420              -0.305292729               0.000000000               0.243264743              -0.329631138               0.000000000               0.262084065              -0.353969547               0.000000000               0.280903388              -0.378307956               0.000000000               0.299722710              -0.402646365               0.000000000               0.318542033              -0.426984773               0.000000000               0.337361355              -0.451323182               0.000000000               0.356180678              -0.475661591               0.000000000               0.375000000              -0.500000000               0.000000000               0.062695766              -0.117295528               0.000000000               0.078308531              -0.141214558               0.000000000               0.093921295              -0.165133587               0.000000000               0.109534060              -0.189052617               0.000000000               0.125146824              -0.212971646               0.000000000               0.140759589              -0.236890676               0.000000000               0.156372354              -0.260809705               0.000000000               0.171985118              -0.284728735               0.000000000               0.187597883              -0.308647764               0.000000000               0.203210648              -0.332566794               0.000000000               0.218823412              -0.356485823               0.000000000               0.234436177              -0.380404853               0.000000000               0.250048941              -0.404323882               0.000000000               0.265661706              -0.428242912               0.000000000               0.281274471              -0.452161941               0.000000000               0.296887235              -0.476080971               0.000000000               0.312500000              -0.500000000               0.000000000               0.050896897              -0.122875978               0.000000000               0.063340840              -0.146446229               0.000000000               0.075784784              -0.170016481               0.000000000               0.088228728              -0.193586732               0.000000000               0.100672672              -0.217156983               0.000000000               0.113116616              -0.240727235               0.000000000               0.125560560              -0.264297486               0.000000000               0.138004504              -0.287867738               0.000000000               0.150448448              -0.311437989               0.000000000               0.162892392              -0.335008240               0.000000000               0.175336336              -0.358578492               0.000000000               0.187780280              -0.382148743               0.000000000               0.200224224              -0.405718994               0.000000000               0.212668168              -0.429289246               0.000000000               0.225112112              -0.452859497               0.000000000               0.237556056              -0.476429749               0.000000000               0.250000000              -0.500000000               0.000000000               0.038607862              -0.127273065               0.000000000               0.047913621              -0.150568498               0.000000000               0.057219379              -0.173863932               0.000000000               0.066525138              -0.197159365               0.000000000               0.075830897              -0.220454798               0.000000000               0.085136655              -0.243750232               0.000000000               0.094442414              -0.267045665               0.000000000               0.103748172              -0.290341099               0.000000000               0.113053931              -0.313636532               0.000000000               0.122359690              -0.336931966               0.000000000               0.131665448              -0.360227399               0.000000000               0.140971207              -0.383522833               0.000000000               0.150276966              -0.406818266               0.000000000               0.159582724              -0.430113700               0.000000000               0.168888483              -0.453409133               0.000000000               0.178194241              -0.476704567               0.000000000               0.187500000              -0.500000000               0.000000000               0.025947013              -0.130444442               0.000000000               0.032137825              -0.153541665               0.000000000               0.038328636              -0.176638887               0.000000000               0.044519448              -0.199736109               0.000000000               0.050710260              -0.222833332               0.000000000               0.056901071              -0.245930554               0.000000000               0.063091883              -0.269027776               0.000000000               0.069282695              -0.292124999               0.000000000               0.075473506              -0.315222221               0.000000000               0.081664318              -0.338319444               0.000000000               0.087855130              -0.361416666               0.000000000               0.094045942              -0.384513888               0.000000000               0.100236753              -0.407611111               0.000000000               0.106427565              -0.430708333               0.000000000               0.112618377              -0.453805555               0.000000000               0.118809188              -0.476902778               0.000000000               0.125000000              -0.500000000               0.000000000               0.013036280              -0.132359569               0.000000000               0.016127762              -0.155337096               0.000000000               0.019219245              -0.178314623               0.000000000               0.022310727              -0.201292150               0.000000000               0.025402210              -0.224269676               0.000000000               0.028493692              -0.247247203               0.000000000               0.031585175              -0.270224730               0.000000000               0.034676657              -0.293202257               0.000000000               0.037768140              -0.316179784               0.000000000               0.040859622              -0.339157311               0.000000000               0.043951105              -0.362134838               0.000000000               0.047042587              -0.385112365               0.000000000               0.050134070              -0.408089892               0.000000000               0.053225552              -0.431067419               0.000000000               0.056317035              -0.454044946               0.000000000               0.059408517              -0.477022473               0.000000000               0.062500000              -0.500000000               0.000000000               0.000000000              -0.133000000               0.000000000               0.000000000              -0.155937500               0.000000000               0.000000000              -0.178875000               0.000000000               0.000000000              -0.201812500               0.000000000               0.000000000              -0.224750000               0.000000000               0.000000000              -0.247687500               0.000000000               0.000000000              -0.270625000               0.000000000               0.000000000              -0.293562500               0.000000000               0.000000000              -0.316500000               0.000000000               0.000000000              -0.339437500               0.000000000               0.000000000              -0.362375000               0.000000000               0.000000000              -0.385312500               0.000000000               0.000000000              -0.408250000               0.000000000               0.000000000              -0.431187500               0.000000000               0.000000000              -0.454125000               0.000000000               0.000000000              -0.477062500               0.000000000               0.000000000              -0.500000000               0.000000000              -0.133000000               0.000000000               0.000000000              -0.155937500               0.000000000               0.000000000              -0.178875000               0.000000000               0.000000000              -0.201812500               0.000000000               0.000000000              -0.224750000               0.000000000               0.000000000              -0.247687500               0.000000000               0.000000000              -0.270625000               0.000000000               0.000000000              -0.293562500               0.000000000               0.000000000              -0.316500000               0.000000000               0.000000000              -0.339437500               0.000000000               0.000000000              -0.362375000               0.000000000               0.000000000              -0.385312500               0.000000000               0.000000000              -0.408250000               0.000000000               0.000000000              -0.431187500               0.000000000               0.000000000              -0.454125000               0.000000000               0.000000000              -0.477062500               0.000000000               0.000000000              -0.500000000               0.000000000               0.000000000              -0.132359569              -0.013036280               0.000000000              -0.155337096              -0.016127762               0.000000000              -0.178314623              -0.019219245               0.000000000              -0.201292150              -0.022310727               0.000000000              -0.224269676              -0.025402210               0.000000000              -0.247247203              -0.028493692               0.000000000              -0.270224730              -0.031585175               0.000000000              -0.293202257              -0.034676657               0.000000000              -0.316179784              -0.037768140               0.000000000              -0.339157311              -0.040859622               0.000000000              -0.362134838              -0.043951105               0.000000000              -0.385112365              -0.047042587               0.000000000              -0.408089892              -0.050134070               0.000000000              -0.431067419              -0.053225552               0.000000000              -0.454044946              -0.056317035               0.000000000              -0.477022473              -0.059408517               0.000000000              -0.500000000              -0.062500000               0.000000000              -0.130444442              -0.025947013               0.000000000              -0.153541665              -0.032137825               0.000000000              -0.176638887              -0.038328636               0.000000000              -0.199736109              -0.044519448               0.000000000              -0.222833332              -0.050710260               0.000000000              -0.245930554              -0.056901071               0.000000000              -0.269027776              -0.063091883               0.000000000              -0.292124999              -0.069282695               0.000000000              -0.315222221              -0.075473506               0.000000000              -0.338319444              -0.081664318               0.000000000              -0.361416666              -0.087855130               0.000000000              -0.384513888              -0.094045942               0.000000000              -0.407611111              -0.100236753               0.000000000              -0.430708333              -0.106427565               0.000000000              -0.453805555              -0.112618377               0.000000000              -0.476902778              -0.118809188               0.000000000              -0.500000000              -0.125000000               0.000000000              -0.127273065              -0.038607862               0.000000000              -0.150568498              -0.047913621               0.000000000              -0.173863932              -0.057219379               0.000000000              -0.197159365              -0.066525138               0.000000000              -0.220454798              -0.075830897               0.000000000              -0.243750232              -0.085136655               0.000000000              -0.267045665              -0.094442414               0.000000000              -0.290341099              -0.103748172               0.000000000              -0.313636532              -0.113053931               0.000000000              -0.336931966              -0.122359690               0.000000000              -0.360227399              -0.131665448               0.000000000              -0.383522833              -0.140971207               0.000000000              -0.406818266              -0.150276966               0.000000000              -0.430113700              -0.159582724               0.000000000              -0.453409133              -0.168888483               0.000000000              -0.476704567              -0.178194241               0.000000000              -0.500000000              -0.187500000               0.000000000              -0.122875978              -0.050896897               0.000000000              -0.146446229              -0.063340840               0.000000000              -0.170016481              -0.075784784               0.000000000              -0.193586732              -0.088228728               0.000000000              -0.217156983              -0.100672672               0.000000000              -0.240727235              -0.113116616               0.000000000              -0.264297486              -0.125560560               0.000000000              -0.287867738              -0.138004504               0.000000000              -0.311437989              -0.150448448               0.000000000              -0.335008240              -0.162892392               0.000000000              -0.358578492              -0.175336336               0.000000000              -0.382148743              -0.187780280               0.000000000              -0.405718994              -0.200224224               0.000000000              -0.429289246              -0.212668168               0.000000000              -0.452859497              -0.225112112               0.000000000              -0.476429749              -0.237556056               0.000000000              -0.500000000              -0.250000000               0.000000000              -0.117295528              -0.062695766               0.000000000              -0.141214558              -0.078308531               0.000000000              -0.165133587              -0.093921295               0.000000000              -0.189052617              -0.109534060               0.000000000              -0.212971646              -0.125146824               0.000000000              -0.236890676              -0.140759589               0.000000000              -0.260809705              -0.156372354               0.000000000              -0.284728735              -0.171985118               0.000000000              -0.308647764              -0.187597883               0.000000000              -0.332566794              -0.203210648               0.000000000              -0.356485823              -0.218823412               0.000000000              -0.380404853              -0.234436177               0.000000000              -0.404323882              -0.250048941               0.000000000              -0.428242912              -0.265661706               0.000000000              -0.452161941              -0.281274471               0.000000000              -0.476080971              -0.296887235               0.000000000              -0.500000000              -0.312500000               0.000000000              -0.110585458              -0.073890841               0.000000000              -0.134923867              -0.092710163               0.000000000              -0.159262276              -0.111529486               0.000000000              -0.183600685              -0.130348808               0.000000000              -0.207939094              -0.149168131               0.000000000              -0.232277503              -0.167987453               0.000000000              -0.256615912              -0.186806776               0.000000000              -0.280954320              -0.205626098               0.000000000              -0.305292729              -0.224445420               0.000000000              -0.329631138              -0.243264743               0.000000000              -0.353969547              -0.262084065               0.000000000              -0.378307956              -0.280903388               0.000000000              -0.402646365              -0.299722710               0.000000000              -0.426984773              -0.318542033               0.000000000              -0.451323182              -0.337361355               0.000000000              -0.475661591              -0.356180678               0.000000000              -0.500000000              -0.375000000               0.000000000              -0.102810390              -0.084374307               0.000000000              -0.127634741              -0.106444663               0.000000000              -0.152459092              -0.128515018               0.000000000              -0.177283442              -0.150585374               0.000000000              -0.202107793              -0.172655730               0.000000000              -0.226932143              -0.194726086               0.000000000              -0.251756494              -0.216796442               0.000000000              -0.276580845              -0.238866798               0.000000000              -0.301405195              -0.260937153               0.000000000              -0.326229546              -0.283007509               0.000000000              -0.351053896              -0.305077865               0.000000000              -0.375878247              -0.327148221               0.000000000              -0.400702598              -0.349218577               0.000000000              -0.425526948              -0.371288933               0.000000000              -0.450351299              -0.393359288               0.000000000              -0.475175649              -0.415429644               0.000000000              -0.500000000              -0.437500000               0.000000000              -0.094045202              -0.094045202               0.000000000              -0.119417377              -0.119417377               0.000000000              -0.144789552              -0.144789552               0.000000000              -0.170161727              -0.170161727               0.000000000              -0.195533901              -0.195533901               0.000000000              -0.220906076              -0.220906076               0.000000000              -0.246278251              -0.246278251               0.000000000              -0.271650426              -0.271650426               0.000000000              -0.297022601              -0.297022601               0.000000000              -0.322394776              -0.322394776               0.000000000              -0.347766951              -0.347766951               0.000000000              -0.373139126              -0.373139126               0.000000000              -0.398511300              -0.398511300               0.000000000              -0.423883475              -0.423883475               0.000000000              -0.449255650              -0.449255650               0.000000000              -0.474627825              -0.474627825               0.000000000              -0.500000000              -0.500000000               0.000000000              -0.084374307              -0.102810390               0.000000000              -0.106444663              -0.127634741               0.000000000              -0.128515018              -0.152459092               0.000000000              -0.150585374              -0.177283442               0.000000000              -0.172655730              -0.202107793               0.000000000              -0.194726086              -0.226932143               0.000000000              -0.216796442              -0.251756494               0.000000000              -0.238866798              -0.276580845               0.000000000              -0.260937153              -0.301405195               0.000000000              -0.283007509              -0.326229546               0.000000000              -0.305077865              -0.351053896               0.000000000              -0.327148221              -0.375878247               0.000000000              -0.349218577              -0.400702598               0.000000000              -0.371288933              -0.425526948               0.000000000              -0.393359288              -0.450351299               0.000000000              -0.415429644              -0.475175649               0.000000000              -0.437500000              -0.500000000               0.000000000              -0.073890841              -0.110585458               0.000000000              -0.092710163              -0.134923867               0.000000000              -0.111529486              -0.159262276               0.000000000              -0.130348808              -0.183600685               0.000000000              -0.149168131              -0.207939094               0.000000000              -0.167987453              -0.232277503               0.000000000              -0.186806776              -0.256615912               0.000000000              -0.205626098              -0.280954320               0.000000000              -0.224445420              -0.305292729               0.000000000              -0.243264743              -0.329631138               0.000000000              -0.262084065              -0.353969547               0.000000000              -0.280903388              -0.378307956               0.000000000              -0.299722710              -0.402646365               0.000000000              -0.318542033              -0.426984773               0.000000000              -0.337361355              -0.451323182               0.000000000              -0.356180678              -0.475661591               0.000000000              -0.375000000              -0.500000000               0.000000000              -0.062695766              -0.117295528               0.000000000              -0.078308531              -0.141214558               0.000000000              -0.093921295              -0.165133587               0.000000000              -0.109534060              -0.189052617               0.000000000              -0.125146824              -0.212971646               0.000000000              -0.140759589              -0.236890676               0.000000000              -0.156372354              -0.260809705               0.000000000              -0.171985118              -0.284728735               0.000000000              -0.187597883              -0.308647764               0.000000000              -0.203210648              -0.332566794               0.000000000              -0.218823412              -0.356485823               0.000000000              -0.234436177              -0.380404853               0.000000000              -0.250048941              -0.404323882               0.000000000              -0.265661706              -0.428242912               0.000000000              -0.281274471              -0.452161941               0.000000000              -0.296887235              -0.476080971               0.000000000              -0.312500000              -0.500000000               0.000000000              -0.050896897              -0.122875978               0.000000000              -0.063340840              -0.146446229               0.000000000              -0.075784784              -0.170016481               0.000000000              -0.088228728              -0.193586732               0.000000000              -0.100672672              -0.217156983               0.000000000              -0.113116616              -0.240727235               0.000000000              -0.125560560              -0.264297486               0.000000000              -0.138004504              -0.287867738               0.000000000              -0.150448448              -0.311437989               0.000000000              -0.162892392              -0.335008240               0.000000000              -0.175336336              -0.358578492               0.000000000              -0.187780280              -0.382148743               0.000000000              -0.200224224              -0.405718994               0.000000000              -0.212668168              -0.429289246               0.000000000              -0.225112112              -0.452859497               0.000000000              -0.237556056              -0.476429749               0.000000000              -0.250000000              -0.500000000               0.000000000              -0.038607862              -0.127273065               0.000000000              -0.047913621              -0.150568498               0.000000000              -0.057219379              -0.173863932               0.000000000              -0.066525138              -0.197159365               0.000000000              -0.075830897              -0.220454798               0.000000000              -0.085136655              -0.243750232               0.000000000              -0.094442414              -0.267045665               0.000000000              -0.103748172              -0.290341099               0.000000000              -0.113053931              -0.313636532               0.000000000              -0.122359690              -0.336931966               0.000000000              -0.131665448              -0.360227399               0.000000000              -0.140971207              -0.383522833               0.000000000              -0.150276966              -0.406818266               0.000000000              -0.159582724              -0.430113700               0.000000000              -0.168888483              -0.453409133               0.000000000              -0.178194241              -0.476704567               0.000000000              -0.187500000              -0.500000000               0.000000000              -0.025947013              -0.130444442               0.000000000              -0.032137825              -0.153541665               0.000000000              -0.038328636              -0.176638887               0.000000000              -0.044519448              -0.199736109               0.000000000              -0.050710260              -0.222833332               0.000000000              -0.056901071              -0.245930554               0.000000000              -0.063091883              -0.269027776               0.000000000              -0.069282695              -0.292124999               0.000000000              -0.075473506              -0.315222221               0.000000000              -0.081664318              -0.338319444               0.000000000              -0.087855130              -0.361416666               0.000000000              -0.094045942              -0.384513888               0.000000000              -0.100236753              -0.407611111               0.000000000              -0.106427565              -0.430708333               0.000000000              -0.112618377              -0.453805555               0.000000000              -0.118809188              -0.476902778               0.000000000              -0.125000000              -0.500000000               0.000000000              -0.013036280              -0.132359569               0.000000000              -0.016127762              -0.155337096               0.000000000              -0.019219245              -0.178314623               0.000000000              -0.022310727              -0.201292150               0.000000000              -0.025402210              -0.224269676               0.000000000              -0.028493692              -0.247247203               0.000000000              -0.031585175              -0.270224730               0.000000000              -0.034676657              -0.293202257               0.000000000              -0.037768140              -0.316179784               0.000000000              -0.040859622              -0.339157311               0.000000000              -0.043951105              -0.362134838               0.000000000              -0.047042587              -0.385112365               0.000000000              -0.050134070              -0.408089892               0.000000000              -0.053225552              -0.431067419               0.000000000              -0.056317035              -0.454044946               0.000000000              -0.059408517              -0.477022473               0.000000000              -0.062500000              -0.500000000               0.000000000               0.000000000              -0.133000000               0.000000000               0.000000000              -0.155937500               0.000000000               0.000000000              -0.178875000               0.000000000               0.000000000              -0.201812500               0.000000000               0.000000000              -0.224750000               0.000000000               0.000000000              -0.247687500               0.000000000               0.000000000              -0.270625000               0.000000000               0.000000000              -0.293562500               0.000000000               0.000000000              -0.316500000               0.000000000               0.000000000              -0.339437500               0.000000000               0.000000000              -0.362375000               0.000000000               0.000000000              -0.385312500               0.000000000               0.000000000              -0.408250000               0.000000000               0.000000000              -0.431187500               0.000000000               0.000000000              -0.454125000               0.000000000               0.000000000              -0.477062500               0.000000000               0.000000000              -0.500000000               0.000000000              -0.133000000               0.000000000               0.000000000              -0.155937500               0.000000000               0.000000000              -0.178875000               0.000000000               0.000000000              -0.201812500               0.000000000               0.000000000              -0.224750000               0.000000000               0.000000000              -0.247687500               0.000000000               0.000000000              -0.270625000               0.000000000               0.000000000              -0.293562500               0.000000000               0.000000000              -0.316500000               0.000000000               0.000000000              -0.339437500               0.000000000               0.000000000              -0.362375000               0.000000000               0.000000000              -0.385312500               0.000000000               0.000000000              -0.408250000               0.000000000               0.000000000              -0.431187500               0.000000000               0.000000000              -0.454125000               0.000000000               0.000000000              -0.477062500               0.000000000               0.000000000              -0.500000000               0.000000000               0.000000000              -0.132359569               0.013036280               0.000000000              -0.155337096               0.016127762               0.000000000              -0.178314623               0.019219245               0.000000000              -0.201292150               0.022310727               0.000000000              -0.224269676               0.025402210               0.000000000              -0.247247203               0.028493692               0.000000000              -0.270224730               0.031585175               0.000000000              -0.293202257               0.034676657               0.000000000              -0.316179784               0.037768140               0.000000000              -0.339157311               0.040859622               0.000000000              -0.362134838               0.043951105               0.000000000              -0.385112365               0.047042587               0.000000000              -0.408089892               0.050134070               0.000000000              -0.431067419               0.053225552               0.000000000              -0.454044946               0.056317035               0.000000000              -0.477022473               0.059408517               0.000000000              -0.500000000               0.062500000               0.000000000              -0.130444442               0.025947013               0.000000000              -0.153541665               0.032137825               0.000000000              -0.176638887               0.038328636               0.000000000              -0.199736109               0.044519448               0.000000000              -0.222833332               0.050710260               0.000000000              -0.245930554               0.056901071               0.000000000              -0.269027776               0.063091883               0.000000000              -0.292124999               0.069282695               0.000000000              -0.315222221               0.075473506               0.000000000              -0.338319444               0.081664318               0.000000000              -0.361416666               0.087855130               0.000000000              -0.384513888               0.094045942               0.000000000              -0.407611111               0.100236753               0.000000000              -0.430708333               0.106427565               0.000000000              -0.453805555               0.112618377               0.000000000              -0.476902778               0.118809188               0.000000000              -0.500000000               0.125000000               0.000000000              -0.127273065               0.038607862               0.000000000              -0.150568498               0.047913621               0.000000000              -0.173863932               0.057219379               0.000000000              -0.197159365               0.066525138               0.000000000              -0.220454798               0.075830897               0.000000000              -0.243750232               0.085136655               0.000000000              -0.267045665               0.094442414               0.000000000              -0.290341099               0.103748172               0.000000000              -0.313636532               0.113053931               0.000000000              -0.336931966               0.122359690               0.000000000              -0.360227399               0.131665448               0.000000000              -0.383522833               0.140971207               0.000000000              -0.406818266               0.150276966               0.000000000              -0.430113700               0.159582724               0.000000000              -0.453409133               0.168888483               0.000000000              -0.476704567               0.178194241               0.000000000              -0.500000000               0.187500000               0.000000000              -0.122875978               0.050896897               0.000000000              -0.146446229               0.063340840               0.000000000              -0.170016481               0.075784784               0.000000000              -0.193586732               0.088228728               0.000000000              -0.217156983               0.100672672               0.000000000              -0.240727235               0.113116616               0.000000000              -0.264297486               0.125560560               0.000000000              -0.287867738               0.138004504               0.000000000              -0.311437989               0.150448448               0.000000000              -0.335008240               0.162892392               0.000000000              -0.358578492               0.175336336               0.000000000              -0.382148743               0.187780280               0.000000000              -0.405718994               0.200224224               0.000000000              -0.429289246               0.212668168               0.000000000              -0.452859497               0.225112112               0.000000000              -0.476429749               0.237556056               0.000000000              -0.500000000               0.250000000               0.000000000              -0.117295528               0.062695766               0.000000000              -0.141214558               0.078308531               0.000000000              -0.165133587               0.093921295               0.000000000              -0.189052617               0.109534060               0.000000000              -0.212971646               0.125146824               0.000000000              -0.236890676               0.140759589               0.000000000              -0.260809705               0.156372354               0.000000000              -0.284728735               0.171985118               0.000000000              -0.308647764               0.187597883               0.000000000              -0.332566794               0.203210648               0.000000000              -0.356485823               0.218823412               0.000000000              -0.380404853               0.234436177               0.000000000              -0.404323882               0.250048941               0.000000000              -0.428242912               0.265661706               0.000000000              -0.452161941               0.281274471               0.000000000              -0.476080971               0.296887235               0.000000000              -0.500000000               0.312500000               0.000000000              -0.110585458               0.073890841               0.000000000              -0.134923867               0.092710163               0.000000000              -0.159262276               0.111529486               0.000000000              -0.183600685               0.130348808               0.000000000              -0.207939094               0.149168131               0.000000000              -0.232277503               0.167987453               0.000000000              -0.256615912               0.186806776               0.000000000              -0.280954320               0.205626098               0.000000000              -0.305292729               0.224445420               0.000000000              -0.329631138               0.243264743               0.000000000              -0.353969547               0.262084065               0.000000000              -0.378307956               0.280903388               0.000000000              -0.402646365               0.299722710               0.000000000              -0.426984773               0.318542033               0.000000000              -0.451323182               0.337361355               0.000000000              -0.475661591               0.356180678               0.000000000              -0.500000000               0.375000000               0.000000000              -0.102810390               0.084374307               0.000000000              -0.127634741               0.106444663               0.000000000              -0.152459092               0.128515018               0.000000000              -0.177283442               0.150585374               0.000000000              -0.202107793               0.172655730               0.000000000              -0.226932143               0.194726086               0.000000000              -0.251756494               0.216796442               0.000000000              -0.276580845               0.238866798               0.000000000              -0.301405195               0.260937153               0.000000000              -0.326229546               0.283007509               0.000000000              -0.351053896               0.305077865               0.000000000              -0.375878247               0.327148221               0.000000000              -0.400702598               0.349218577               0.000000000              -0.425526948               0.371288933               0.000000000              -0.450351299               0.393359288               0.000000000              -0.475175649               0.415429644               0.000000000              -0.500000000               0.437500000               0.000000000              -0.094045202               0.094045202               0.000000000              -0.119417377               0.119417377               0.000000000              -0.144789552               0.144789552               0.000000000              -0.170161727               0.170161727               0.000000000              -0.195533901               0.195533901               0.000000000              -0.220906076               0.220906076               0.000000000              -0.246278251               0.246278251               0.000000000              -0.271650426               0.271650426               0.000000000              -0.297022601               0.297022601               0.000000000              -0.322394776               0.322394776               0.000000000              -0.347766951               0.347766951               0.000000000              -0.373139126               0.373139126               0.000000000              -0.398511300               0.398511300               0.000000000              -0.423883475               0.423883475               0.000000000              -0.449255650               0.449255650               0.000000000              -0.474627825               0.474627825               0.000000000              -0.500000000               0.500000000               0.000000000              -0.084374307               0.102810390               0.000000000              -0.106444663               0.127634741               0.000000000              -0.128515018               0.152459092               0.000000000              -0.150585374               0.177283442               0.000000000              -0.172655730               0.202107793               0.000000000              -0.194726086               0.226932143               0.000000000              -0.216796442               0.251756494               0.000000000              -0.238866798               0.276580845               0.000000000              -0.260937153               0.301405195               0.000000000              -0.283007509               0.326229546               0.000000000              -0.305077865               0.351053896               0.000000000              -0.327148221               0.375878247               0.000000000              -0.349218577               0.400702598               0.000000000              -0.371288933               0.425526948               0.000000000              -0.393359288               0.450351299               0.000000000              -0.415429644               0.475175649               0.000000000              -0.437500000               0.500000000               0.000000000              -0.073890841               0.110585458               0.000000000              -0.092710163               0.134923867               0.000000000              -0.111529486               0.159262276               0.000000000              -0.130348808               0.183600685               0.000000000              -0.149168131               0.207939094               0.000000000              -0.167987453               0.232277503               0.000000000              -0.186806776               0.256615912               0.000000000              -0.205626098               0.280954320               0.000000000              -0.224445420               0.305292729               0.000000000              -0.243264743               0.329631138               0.000000000              -0.262084065               0.353969547               0.000000000              -0.280903388               0.378307956               0.000000000              -0.299722710               0.402646365               0.000000000              -0.318542033               0.426984773               0.000000000              -0.337361355               0.451323182               0.000000000              -0.356180678               0.475661591               0.000000000              -0.375000000               0.500000000               0.000000000              -0.062695766               0.117295528               0.000000000              -0.078308531               0.141214558               0.000000000              -0.093921295               0.165133587               0.000000000              -0.109534060               0.189052617               0.000000000              -0.125146824               0.212971646               0.000000000              -0.140759589               0.236890676               0.000000000              -0.156372354               0.260809705               0.000000000              -0.171985118               0.284728735               0.000000000              -0.187597883               0.308647764               0.000000000              -0.203210648               0.332566794               0.000000000              -0.218823412               0.356485823               0.000000000              -0.234436177               0.380404853               0.000000000              -0.250048941               0.404323882               0.000000000              -0.265661706               0.428242912               0.000000000              -0.281274471               0.452161941               0.000000000              -0.296887235               0.476080971               0.000000000              -0.312500000               0.500000000               0.000000000              -0.050896897               0.122875978               0.000000000              -0.063340840               0.146446229               0.000000000              -0.075784784               0.170016481               0.000000000              -0.088228728               0.193586732               0.000000000              -0.100672672               0.217156983               0.000000000              -0.113116616               0.240727235               0.000000000              -0.125560560               0.264297486               0.000000000              -0.138004504               0.287867738               0.000000000              -0.150448448               0.311437989               0.000000000              -0.162892392               0.335008240               0.000000000              -0.175336336               0.358578492               0.000000000              -0.187780280               0.382148743               0.000000000              -0.200224224               0.405718994               0.000000000              -0.212668168               0.429289246               0.000000000              -0.225112112               0.452859497               0.000000000              -0.237556056               0.476429749               0.000000000              -0.250000000               0.500000000               0.000000000              -0.038607862               0.127273065               0.000000000              -0.047913621               0.150568498               0.000000000              -0.057219379               0.173863932               0.000000000              -0.066525138               0.197159365               0.000000000              -0.075830897               0.220454798               0.000000000              -0.085136655               0.243750232               0.000000000              -0.094442414               0.267045665               0.000000000              -0.103748172               0.290341099               0.000000000              -0.113053931               0.313636532               0.000000000              -0.122359690               0.336931966               0.000000000              -0.131665448               0.360227399               0.000000000              -0.140971207               0.383522833               0.000000000              -0.150276966               0.406818266               0.000000000              -0.159582724               0.430113700               0.000000000              -0.168888483               0.453409133               0.000000000              -0.178194241               0.476704567               0.000000000              -0.187500000               0.500000000               0.000000000              -0.025947013               0.130444442               0.000000000              -0.032137825               0.153541665               0.000000000              -0.038328636               0.176638887               0.000000000              -0.044519448               0.199736109               0.000000000              -0.050710260               0.222833332               0.000000000              -0.056901071               0.245930554               0.000000000              -0.063091883               0.269027776               0.000000000              -0.069282695               0.292124999               0.000000000              -0.075473506               0.315222221               0.000000000              -0.081664318               0.338319444               0.000000000              -0.087855130               0.361416666               0.000000000              -0.094045942               0.384513888               0.000000000              -0.100236753               0.407611111               0.000000000              -0.106427565               0.430708333               0.000000000              -0.112618377               0.453805555               0.000000000              -0.118809188               0.476902778               0.000000000              -0.125000000               0.500000000               0.000000000              -0.013036280               0.132359569               0.000000000              -0.016127762               0.155337096               0.000000000              -0.019219245               0.178314623               0.000000000              -0.022310727               0.201292150               0.000000000              -0.025402210               0.224269676               0.000000000              -0.028493692               0.247247203               0.000000000              -0.031585175               0.270224730               0.000000000              -0.034676657               0.293202257               0.000000000              -0.037768140               0.316179784               0.000000000              -0.040859622               0.339157311               0.000000000              -0.043951105               0.362134838               0.000000000              -0.047042587               0.385112365               0.000000000              -0.050134070               0.408089892               0.000000000              -0.053225552               0.431067419               0.000000000              -0.056317035               0.454044946               0.000000000              -0.059408517               0.477022473               0.000000000              -0.062500000               0.500000000               0.000000000               0.000000000               0.133000000               0.000000000               0.000000000               0.155937500               0.000000000               0.000000000               0.178875000               0.000000000               0.000000000               0.201812500               0.000000000               0.000000000               0.224750000               0.000000000               0.000000000               0.247687500               0.000000000               0.000000000               0.270625000               0.000000000               0.000000000               0.293562500               0.000000000               0.000000000               0.316500000               0.000000000               0.000000000               0.339437500               0.000000000               0.000000000               0.362375000               0.000000000               0.000000000               0.385312500               0.000000000               0.000000000               0.408250000               0.000000000               0.000000000               0.431187500               0.000000000               0.000000000               0.454125000               0.000000000               0.000000000               0.477062500               0.000000000               0.000000000               0.500000000               0.000000000 </DataArray>
</Points>
<Cells>
<DataArray type="Int32"                                    Name="connectivity"                                                      NumberOfComponents=" 1" format="ascii">
         0          1         18         17          1          2         19         18          2          3         20         19          3          4         21         20          4          5         22         21          5          6         23         22          6          7         24         23          7          8         25         24          8          9         26         25          9         10         27         26         10         11         28         27         11         12         29         28         12         13         30         29         13         14         31         30         14         15         32         31         15         16         33         32         17         18         35         34         18         19         36         35         19         20         37         36         20         21         38         37         21         22         39         38         22         23         40         39         23         24         41         40         24         25         42         41         25         26         43         42         26         27         44         43         27         28         45         44         28         29         46         45         29         30         47         46         30         31         48         47         31         32         49         48         32         33         50         49         34         35         52         51         35         36         53         52         36         37         54         53         37         38         55         54         38         39         56         55         39         40         57         56         40         41         58         57         41         42         59         58         42         43         60         59         43         44         61         60         44         45         62         61         45         46         63         62         46         47         64         63         47         48         65         64         48         49         66         65         49         50         67         66         51         52         69         68         52         53         70         69         53         54         71         70         54         55         72         71         55         56         73         72         56         57         74         73         57         58         75         74         58         59         76         75         59         60         77         76         60         61         78         77         61         62         79         78         62         63         80         79         63         64         81         80         64         65         82         81         65         66         83         82         66         67         84         83         68         69         86         85         69         70         87         86         70         71         88         87         71         72         89         88         72         73         90         89         73         74         91         90         74         75         92         91         75         76         93         92         76         77         94         93         77         78         95         94         78         79         96         95         79         80         97         96         80         81         98         97         81         82         99         98         82         83        100         99         83         84        101        100         85         86        103        102         86         87        104        103         87         88        105        104         88         89        106        105         89         90        107        106         90         91        108        107         91         92        109        108         92         93        110        109         93         94        111        110         94         95        112        111         95         96        113        112         96         97        114        113         97         98        115        114         98         99        116        115         99        100        117        116        100        101        118        117        102        103        120        119        103        104        121        120        104        105        122        121        105        106        123        122        106        107        124        123        107        108        125        124        108        109        126        125        109        110        127        126        110        111        128        127        111        112        129        128        112        113        130        129        113        114        131        130        114        115        132        131        115        116        133        132        116        117        134        133        117        118        135        134        119        120        137        136        120        121        138        137        121        122        139        138        122        123        140        139        123        124        141        140        124        125        142        141        125        126        143        142        126        127        144        143        127        128        145        144        128        129        146        145        129        130        147        146        130        131        148        147        131        132        149        148        132        133        150        149        133        134        151        150        134        135        152        151        136        137        154        153        137        138        155        154        138        139        156        155        139        140        157        156        140        141        158        157        141        142        159        158        142        143        160        159        143        144        161        160        144        145        162        161        145        146        163        162        146        147        164        163        147        148        165        164        148        149        166        165        149        150        167        166        150        151        168        167        151        152        169        168        153        154        171        170        154        155        172        171        155        156        173        172        156        157        174        173        157        158        175        174        158        159        176        175        159        160        177        176        160        161        178        177        161        162        179        178        162        163        180        179        163        164        181        180        164        165        182        181        165        166        183        182        166        167        184        183        167        168        185        184        168        169        186        185        170        171        188        187        171        172        189        188        172        173        190        189        173        174        191        190        174        175        192        191        175        176        193        192        176        177        194        193        177        178        195        194        178        179        196        195        179        180        197        196        180        181        198        197        181        182        199        198        182        183        200        199        183        184        201        200        184        185        202        201        185        186        203        202        187        188        205        204        188        189        206        205        189        190        207        206        190        191        208        207        191        192        209        208        192        193        210        209        193        194        211        210        194        195        212        211        195        196        213        212        196        197        214        213        197        198        215        214        198        199        216        215        199        200        217        216        200        201        218        217        201        202        219        218        202        203        220        219        204        205        222        221        205        206        223        222        206        207        224        223        207        208        225        224        208        209        226        225        209        210        227        226        210        211        228        227        211        212        229        228        212        213        230        229        213        214        231        230        214        215        232        231        215        216        233        232        216        217        234        233        217        218        235        234        218        219        236        235        219        220        237        236        221        222        239        238        222        223        240        239        223        224        241        240        224        225        242        241        225        226        243        242        226        227        244        243        227        228        245        244        228        229        246        245        229        230        247        246        230        231        248        247        231        232        249        248        232        233        250        249        233        234        251        250        234        235        252        251        235        236        253        252        236        237        254        253        238        239        256        255        239        240        257        256        240        241        258        257        241        242        259        258        242        243        260        259        243        244        261        260        244        245        262        261        245        246        263        262        246        247        264        263        247        248        265        264        248        249        266        265        249        250        267        266        250        251        268        267        251        252        269        268        252        253        270        269        253        254        271        270        255        256        273        272        256        257        274        273        257        258        275        274        258        259        276        275        259        260        277        276        260        261        278        277        261        262        279        278        262        263        280        279        263        264        281        280        264        265        282        281        265        266        283        282        266        267        284        283        267        268        285        284        268        269        286        285        269        270        287        286        270        271        288        287        306        307          1          0        307        308          2          1        308        309          3          2        309        310          4          3        310        311          5          4        311        312          6          5        312        313          7          6        313        314          8          7        314        315          9          8        315        316         10          9        316        317         11         10        317        318         12         11        318        319         13         12        319        320         14         13        320        321         15         14        321        322         16         15        323        324        307        306        324        325        308        307        325        326        309        308        326        327        310        309        327        328        311        310        328        329        312        311        329        330        313        312        330        331        314        313        331        332        315        314        332        333        316        315        333        334        317        316        334        335        318        317        335        336        319        318        336        337        320        319        337        338        321        320        338        339        322        321        340        341        324        323        341        342        325        324        342        343        326        325        343        344        327        326        344        345        328        327        345        346        329        328        346        347        330        329        347        348        331        330        348        349        332        331        349        350        333        332        350        351        334        333        351        352        335        334        352        353        336        335        353        354        337        336        354        355        338        337        355        356        339        338        357        358        341        340        358        359        342        341        359        360        343        342        360        361        344        343        361        362        345        344        362        363        346        345        363        364        347        346        364        365        348        347        365        366        349        348        366        367        350        349        367        368        351        350        368        369        352        351        369        370        353        352        370        371        354        353        371        372        355        354        372        373        356        355        374        375        358        357        375        376        359        358        376        377        360        359        377        378        361        360        378        379        362        361        379        380        363        362        380        381        364        363        381        382        365        364        382        383        366        365        383        384        367        366        384        385        368        367        385        386        369        368        386        387        370        369        387        388        371        370        388        389        372        371        389        390        373        372        391        392        375        374        392        393        376        375        393        394        377        376        394        395        378        377        395        396        379        378        396        397        380        379        397        398        381        380        398        399        382        381        399        400        383        382        400        401        384        383        401        402        385        384        402        403        386        385        403        404        387        386        404        405        388        387        405        406        389        388        406        407        390        389        408        409        392        391        409        410        393        392        410        411        394        393        411        412        395        394        412        413        396        395        413        414        397        396        414        415        398        397        415        416        399        398        416        417        400        399        417        418        401        400        418        419        402        401        419        420        403        402        420        421        404        403        421        422        405        404        422        423        406        405        423        424        407        406        425        426        409        408        426        427        410        409        427        428        411        410        428        429        412        411        429        430        413        412        430        431        414        413        431        432        415        414        432        433        416        415        433        434        417        416        434        435        418        417        435        436        419        418        436        437        420        419        437        438        421        420        438        439        422        421        439        440        423        422        440        441        424        423        442        443        426        425        443        444        427        426        444        445        428        427        445        446        429        428        446        447        430        429        447        448        431        430        448        449        432        431        449        450        433        432        450        451        434        433        451        452        435        434        452        453        436        435        453        454        437        436        454        455        438        437        455        456        439        438        456        457        440        439        457        458        441        440        459        460        443        442        460        461        444        443        461        462        445        444        462        463        446        445        463        464        447        446        464        465        448        447        465        466        449        448        466        467        450        449        467        468        451        450        468        469        452        451        469        470        453        452        470        471        454        453        471        472        455        454        472        473        456        455        473        474        457        456        474        475        458        457        476        477        460        459        477        478        461        460        478        479        462        461        479        480        463        462        480        481        464        463        481        482        465        464        482        483        466        465        483        484        467        466        484        485        468        467        485        486        469        468        486        487        470        469        487        488        471        470        488        489        472        471        489        490        473        472        490        491        474        473        491        492        475        474        493        494        477        476        494        495        478        477        495        496        479        478        496        497        480        479        497        498        481        480        498        499        482        481        499        500        483        482        500        501        484        483        501        502        485        484        502        503        486        485        503        504        487        486        504        505        488        487        505        506        489        488        506        507        490        489        507        508        491        490        508        509        492        491        510        511        494        493        511        512        495        494        512        513        496        495        513        514        497        496        514        515        498        497        515        516        499        498        516        517        500        499        517        518        501        500        518        519        502        501        519        520        503        502        520        521        504        503        521        522        505        504        522        523        506        505        523        524        507        506        524        525        508        507        525        526        509        508        527        528        511        510        528        529        512        511        529        530        513        512        530        531        514        513        531        532        515        514        532        533        516        515        533        534        517        516        534        535        518        517        535        536        519        518        536        537        520        519        537        538        521        520        538        539        522        521        539        540        523        522        540        541        524        523        541        542        525        524        542        543        526        525        544        545        528        527        545        546        529        528        546        547        530        529        547        548        531        530        548        549        532        531        549        550        533        532        550        551        534        533        551        552        535        534        552        553        536        535        553        554        537        536        554        555        538        537        555        556        539        538        556        557        540        539        557        558        541        540        558        559        542        541        559        560        543        542        561        562        545        544        562        563        546        545        563        564        547        546        564        565        548        547        565        566        549        548        566        567        550        549        567        568        551        550        568        569        552        551        569        570        553        552        570        571        554        553        571        572        555        554        572        573        556        555        573        574        557        556        574        575        558        557        575        576        559        558        576        577        560        559        578        579        596        595        579        580        597        596        580        581        598        597        581        582        599        598        582        583        600        599        583        584        601        600        584        585        602        601        585        586        603        602        586        587        604        603        587        588        605        604        588        589        606        605        589        590        607        606        590        591        608        607        591        592        609        608        592        593        610        609        593        594        611        610        595        596        613        612        596        597        614        613        597        598        615        614        598        599        616        615        599        600        617        616        600        601        618        617        601        602        619        618        602        603        620        619        603        604        621        620        604        605        622        621        605        606        623        622        606        607        624        623        607        608        625        624        608        609        626        625        609        610        627        626        610        611        628        627        612        613        630        629        613        614        631        630        614        615        632        631        615        616        633        632        616        617        634        633        617        618        635        634        618        619        636        635        619        620        637        636        620        621        638        637        621        622        639        638        622        623        640        639        623        624        641        640        624        625        642        641        625        626        643        642        626        627        644        643        627        628        645        644        629        630        647        646        630        631        648        647        631        632        649        648        632        633        650        649        633        634        651        650        634        635        652        651        635        636        653        652        636        637        654        653        637        638        655        654        638        639        656        655        639        640        657        656        640        641        658        657        641        642        659        658        642        643        660        659        643        644        661        660        644        645        662        661        646        647        664        663        647        648        665        664        648        649        666        665        649        650        667        666        650        651        668        667        651        652        669        668        652        653        670        669        653        654        671        670        654        655        672        671        655        656        673        672        656        657        674        673        657        658        675        674        658        659        676        675        659        660        677        676        660        661        678        677        661        662        679        678        663        664        681        680        664        665        682        681        665        666        683        682        666        667        684        683        667        668        685        684        668        669        686        685        669        670        687        686        670        671        688        687        671        672        689        688        672        673        690        689        673        674        691        690        674        675        692        691        675        676        693        692        676        677        694        693        677        678        695        694        678        679        696        695        680        681        698        697        681        682        699        698        682        683        700        699        683        684        701        700        684        685        702        701        685        686        703        702        686        687        704        703        687        688        705        704        688        689        706        705        689        690        707        706        690        691        708        707        691        692        709        708        692        693        710        709        693        694        711        710        694        695        712        711        695        696        713        712        697        698        715        714        698        699        716        715        699        700        717        716        700        701        718        717        701        702        719        718        702        703        720        719        703        704        721        720        704        705        722        721        705        706        723        722        706        707        724        723        707        708        725        724        708        709        726        725        709        710        727        726        710        711        728        727        711        712        729        728        712        713        730        729        714        715        732        731        715        716        733        732        716        717        734        733        717        718        735        734        718        719        736        735        719        720        737        736        720        721        738        737        721        722        739        738        722        723        740        739        723        724        741        740        724        725        742        741        725        726        743        742        726        727        744        743        727        728        745        744        728        729        746        745        729        730        747        746        731        732        749        748        732        733        750        749        733        734        751        750        734        735        752        751        735        736        753        752        736        737        754        753        737        738        755        754        738        739        756        755        739        740        757        756        740        741        758        757        741        742        759        758        742        743        760        759        743        744        761        760        744        745        762        761        745        746        763        762        746        747        764        763        748        749        766        765        749        750        767        766        750        751        768        767        751        752        769        768        752        753        770        769        753        754        771        770        754        755        772        771        755        756        773        772        756        757        774        773        757        758        775        774        758        759        776        775        759        760        777        776        760        761        778        777        761        762        779        778        762        763        780        779        763        764        781        780        765        766        783        782        766        767        784        783        767        768        785        784        768        769        786        785        769        770        787        786        770        771        788        787        771        772        789        788        772        773        790        789        773        774        791        790        774        775        792        791        775        776        793        792        776        777        794        793        777        778        795        794        778        779        796        795        779        780        797        796        780        781        798        797        782        783        800        799        783        784        801        800        784        785        802        801        785        786        803        802        786        787        804        803        787        788        805        804        788        789        806        805        789        790        807        806        790        791        808        807        791        792        809        808        792        793        810        809        793        794        811        810        794        795        812        811        795        796        813        812        796        797        814        813        797        798        815        814        799        800        817        816        800        801        818        817        801        802        819        818        802        803        820        819        803        804        821        820        804        805        822        821        805        806        823        822        806        807        824        823        807        808        825        824        808        809        826        825        809        810        827        826        810        811        828        827        811        812        829        828        812        813        830        829        813        814        831        830        814        815        832        831        816        817        834        833        817        818        835        834        818        819        836        835        819        820        837        836        820        821        838        837        821        822        839        838        822        823        840        839        823        824        841        840        824        825        842        841        825        826        843        842        826        827        844        843        827        828        845        844        828        829        846        845        829        830        847        846        830        831        848        847        831        832        849        848        833        834        562        561        834        835        563        562        835        836        564        563        836        837        565        564        837        838        566        565        838        839        567        566        839        840        568        567        840        841        569        568        841        842        570        569        842        843        571        570        843        844        572        571        844        845        573        572        845        846        574        573        846        847        575        574        847        848        576        575        848        849        577        576        884        885        579        578        885        886        580        579        886        887        581        580        887        888        582        581        888        889        583        582        889        890        584        583        890        891        585        584        891        892        586        585        892        893        587        586        893        894        588        587        894        895        589        588        895        896        590        589        896        897        591        590        897        898        592        591        898        899        593        592        899        900        594        593        901        902        885        884        902        903        886        885        903        904        887        886        904        905        888        887        905        906        889        888        906        907        890        889        907        908        891        890        908        909        892        891        909        910        893        892        910        911        894        893        911        912        895        894        912        913        896        895        913        914        897        896        914        915        898        897        915        916        899        898        916        917        900        899        918        919        902        901        919        920        903        902        920        921        904        903        921        922        905        904        922        923        906        905        923        924        907        906        924        925        908        907        925        926        909        908        926        927        910        909        927        928        911        910        928        929        912        911        929        930        913        912        930        931        914        913        931        932        915        914        932        933        916        915        933        934        917        916        935        936        919        918        936        937        920        919        937        938        921        920        938        939        922        921        939        940        923        922        940        941        924        923        941        942        925        924        942        943        926        925        943        944        927        926        944        945        928        927        945        946        929        928        946        947        930        929        947        948        931        930        948        949        932        931        949        950        933        932        950        951        934        933        952        953        936        935        953        954        937        936        954        955        938        937        955        956        939        938        956        957        940        939        957        958        941        940        958        959        942        941        959        960        943        942        960        961        944        943        961        962        945        944        962        963        946        945        963        964        947        946        964        965        948        947        965        966        949        948        966        967        950        949        967        968        951        950        969        970        953        952        970        971        954        953        971        972        955        954        972        973        956        955        973        974        957        956        974        975        958        957        975        976        959        958        976        977        960        959        977        978        961        960        978        979        962        961        979        980        963        962        980        981        964        963        981        982        965        964        982        983        966        965        983        984        967        966        984        985        968        967        986        987        970        969        987        988        971        970        988        989        972        971        989        990        973        972        990        991        974        973        991        992        975        974        992        993        976        975        993        994        977        976        994        995        978        977        995        996        979        978        996        997        980        979        997        998        981        980        998        999        982        981        999       1000        983        982       1000       1001        984        983       1001       1002        985        984       1003       1004        987        986       1004       1005        988        987       1005       1006        989        988       1006       1007        990        989       1007       1008        991        990       1008       1009        992        991       1009       1010        993        992       1010       1011        994        993       1011       1012        995        994       1012       1013        996        995       1013       1014        997        996       1014       1015        998        997       1015       1016        999        998       1016       1017       1000        999       1017       1018       1001       1000       1018       1019       1002       1001       1020       1021       1004       1003       1021       1022       1005       1004       1022       1023       1006       1005       1023       1024       1007       1006       1024       1025       1008       1007       1025       1026       1009       1008       1026       1027       1010       1009       1027       1028       1011       1010       1028       1029       1012       1011       1029       1030       1013       1012       1030       1031       1014       1013       1031       1032       1015       1014       1032       1033       1016       1015       1033       1034       1017       1016       1034       1035       1018       1017       1035       1036       1019       1018       1037       1038       1021       1020       1038       1039       1022       1021       1039       1040       1023       1022       1040       1041       1024       1023       1041       1042       1025       1024       1042       1043       1026       1025       1043       1044       1027       1026       1044       1045       1028       1027       1045       1046       1029       1028       1046       1047       1030       1029       1047       1048       1031       1030       1048       1049       1032       1031       1049       1050       1033       1032       1050       1051       1034       1033       1051       1052       1035       1034       1052       1053       1036       1035       1054       1055       1038       1037       1055       1056       1039       1038       1056       1057       1040       1039       1057       1058       1041       1040       1058       1059       1042       1041       1059       1060       1043       1042       1060       1061       1044       1043       1061       1062       1045       1044       1062       1063       1046       1045       1063       1064       1047       1046       1064       1065       1048       1047       1065       1066       1049       1048       1066       1067       1050       1049       1067       1068       1051       1050       1068       1069       1052       1051       1069       1070       1053       1052       1071       1072       1055       1054       1072       1073       1056       1055       1073       1074       1057       1056       1074       1075       1058       1057       1075       1076       1059       1058       1076       1077       1060       1059       1077       1078       1061       1060       1078       1079       1062       1061       1079       1080       1063       1062       1080       1081       1064       1063       1081       1082       1065       1064       1082       1083       1066       1065       1083       1084       1067       1066       1084       1085       1068       1067       1085       1086       1069       1068       1086       1087       1070       1069       1088       1089       1072       1071       1089       1090       1073       1072       1090       1091       1074       1073       1091       1092       1075       1074       1092       1093       1076       1075       1093       1094       1077       1076       1094       1095       1078       1077       1095       1096       1079       1078       1096       1097       1080       1079       1097       1098       1081       1080       1098       1099       1082       1081       1099       1100       1083       1082       1100       1101       1084       1083       1101       1102       1085       1084       1102       1103       1086       1085       1103       1104       1087       1086       1105       1106       1089       1088       1106       1107       1090       1089       1107       1108       1091       1090       1108       1109       1092       1091       1109       1110       1093       1092       1110       1111       1094       1093       1111       1112       1095       1094       1112       1113       1096       1095       1113       1114       1097       1096       1114       1115       1098       1097       1115       1116       1099       1098       1116       1117       1100       1099       1117       1118       1101       1100       1118       1119       1102       1101       1119       1120       1103       1102       1120       1121       1104       1103       1122       1123       1106       1105       1123       1124       1107       1106       1124       1125       1108       1107       1125       1126       1109       1108       1126       1127       1110       1109       1127       1128       1111       1110       1128       1129       1112       1111       1129       1130       1113       1112       1130       1131       1114       1113       1131       1132       1115       1114       1132       1133       1116       1115       1133       1134       1117       1116       1134       1135       1118       1117       1135       1136       1119       1118       1136       1137       1120       1119       1137       1138       1121       1120        272        273       1123       1122        273        274       1124       1123        274        275       1125       1124        275        276       1126       1125        276        277       1127       1126        277        278       1128       1127        278        279       1129       1128        279        280       1130       1129        280        281       1131       1130        281        282       1132       1131        282        283       1133       1132        283        284       1134       1133        284        285       1135       1134        285        286       1136       1135        286        287       1137       1136        287        288       1138       1137 </DataArray>
<DataArray type="Int32"                                    Name="offsets"                                                      NumberOfComponents=" 1" format="ascii">
         4          8         12         16         20         24         28         32         36         40         44         48         52         56         60         64         68         72         76         80         84         88         92         96        100        104        108        112        116        120        124        128        132        136        140        144        148        152        156        160        164        168        172        176        180        184        188        192        196        200        204        208        212        216        220        224        228        232        236        240        244        248        252        256        260        264        268        272        276        280        284        288        292        296        300        304        308        312        316        320        324        328        332        336        340        344        348        352        356        360        364        368        372        376        380        384        388        392        396        400        404        408        412        416        420        424        428        432        436        440        444        448        452        456        460        464        468        472        476        480        484        488        492        496        500        504        508        512        516        520        524        528        532        536        540        544        548        552        556        560        564        568        572        576        580        584        588        592        596        600        604        608        612        616        620        624        628        632        636        640        644        648        652        656        660        664        668        672        676        680        684        688        692        696        700        704        708        712        716        720        724        728        732        736        740        744        748        752        756        760        764        768        772        776        780        784        788        792        796        800        804        808        812        816        820        824        828        832        836        840        844        848        852        856        860        864        868        872        876        880        884        888        892        896        900        904        908        912        916        920        924        928        932        936        940        944        948        952        956        960        964        968        972        976        980        984        988        992        996       1000       1004       1008       1012       1016       1020       1024       1028       1032       1036       1040       1044       1048       1052       1056       1060       1064       1068       1072       1076       1080       1084       1088       1092       1096       1100       1104       1108       1112       1116       1120       1124       1128       1132       1136       1140       1144       1148       1152       1156       1160       1164       1168       1172       1176       1180       1184       1188       1192       1196       1200       1204       1208       1212       1216       1220       1224       1228       1232       1236       1240       1244       1248       1252       1256       1260       1264       1268       1272       1276       1280       1284       1288       1292       1296       1300       1304       1308       1312       1316       1320       1324       1328       1332       1336       1340       1344       1348       1352       1356       1360       1364       1368       1372       1376       1380       1384       1388       1392       1396       1400       1404       1408       1412       1416       1420       1424       1428       1432       1436       1440       1444       1448       1452       1456       1460       1464       1468       1472       1476       1480       1484       1488       1492       1496       1500       1504       1508       1512       1516       1520       1524       1528       1532       1536       1540       1544       1548       1552       1556       1560       1564       1568       1572       1576       1580       1584       1588       1592       1596       1600       1604       1608       1612       1616       1620       1624       1628       1632       1636       1640       1644       1648       1652       1656       1660       1664       1668       1672       1676       1680       1684       1688       1692       1696       1700       1704       1708       1712       1716       1720       1724       1728       1732       1736       1740       1744       1748       1752       1756       1760       1764       1768       1772       1776       1780       1784       1788       1792       1796       1800       1804       1808       1812       1816       1820       1824       1828       1832       1836       1840       1844       1848       1852       1856       1860       1864       1868       1872       1876       1880       1884       1888       1892       1896       1900       1904       1908       1912       1916       1920       1924       1928       1932       1936       1940       1944       1948       1952       1956       1960       1964       1968       1972       1976       1980       1984       1988       1992       1996       2000       2004       2008       2012       2016       2020       2024       2028       2032       2036       2040       2044       2048       2052       2056       2060       2064       2068       2072       2076       2080       2084       2088       2092       2096       2100       2104       2108       2112       2116       2120       2124       2128       2132       2136       2140       2144       2148       2152       2156       2160       2164       2168       2172       2176       2180       2184       2188       2192       2196       2200       2204       2208       2212       2216       2220       2224       2228       2232       2236       2240       2244       2248       2252       2256       2260       2264       2268       2272       2276       2280       2284       2288       2292       2296       2300       2304       2308       2312       2316       2320       2324       2328       2332       2336       2340       2344       2348       2352       2356       2360       2364       2368       2372       2376       2380       2384       2388       2392       2396       2400       2404       2408       2412       2416       2420       2424       2428       2432       2436       2440       2444       2448       2452       2456       2460       2464       2468       2472       2476       2480       2484       2488       2492       2496       2500       2504       2508       2512       2516       2520       2524       2528       2532       2536       2540       2544       2548       2552       2556       2560       2564       2568       2572       2576       2580       2584       2588       2592       2596       2600       2604       2608       2612       2616       2620       2624       2628       2632       2636       2640       2644       2648       2652       2656       2660       2664       2668       2672       2676       2680       2684       2688       2692       2696       2700       2704       2708       2712       2716       2720       2724       2728       2732       2736       2740       2744       2748       2752       2756       2760       2764       2768       2772       2776       2780       2784       2788       2792       2796       2800       2804       2808       2812       2816       2820       2824       2828       2832       2836       2840       2844       2848       2852       2856       2860       2864       2868       2872       2876       2880       2884       2888       2892       2896       2900       2904       2908       2912       2916       2920       2924       2928       2932       2936       2940       2944       2948       2952       2956       2960       2964       2968       2972       2976       2980       2984       2988       2992       2996       3000       3004       3008       3012       3016       3020       3024       3028       3032       3036       3040       3044       3048       3052       3056       3060       3064       3068       3072       3076       3080       3084       3088       3092       3096       3100       3104       3108       3112       3116       3120       3124       3128       3132       3136       3140       3144       3148       3152       3156       3160       3164       3168       3172       3176       3180       3184       3188       3192       3196       3200       3204       3208       3212       3216       3220       3224       3228       3232       3236       3240       3244       3248       3252       3256       3260       3264       3268       3272       3276       3280       3284       3288       3292       3296       3300       3304       3308       3312       3316       3320       3324       3328       3332       3336       3340       3344       3348       3352       3356       3360       3364       3368       3372       3376       3380       3384       3388       3392       3396       3400       3404       3408       3412       3416       3420       3424       3428       3432       3436       3440       3444       3448       3452       3456       3460       3464       3468       3472       3476       3480       3484       3488       3492       3496       3500       3504       3508       3512       3516       3520       3524       3528       3532       3536       3540       3544       3548       3552       3556       3560       3564       3568       3572       3576       3580       3584       3588       3592       3596       3600       3604       3608       3612       3616       3620       3624       3628       3632       3636       3640       3644       3648       3652       3656       3660       3664       3668       3672       3676       3680       3684       3688       3692       3696       3700       3704       3708       3712       3716       3720       3724       3728       3732       3736       3740       3744       3748       3752       3756       3760       3764       3768       3772       3776       3780       3784       3788       3792       3796       3800       3804       3808       3812       3816       3820       3824       3828       3832       3836       3840       3844       3848       3852       3856       3860       3864       3868       3872       3876       3880       3884       3888       3892       3896       3900       3904       3908       3912       3916       3920       3924       3928       3932       3936       3940       3944       3948       3952       3956       3960       3964       3968       3972       3976       3980       3984       3988       3992       3996       4000       4004       4008       4012       4016       4020       4024       4028       4032       4036       4040       4044       4048       4052       4056       4060       4064       4068       4072       4076       4080       4084       4088       4092       4096 </DataArray>
<DataArray type="UInt8"                                    Name="types"                                                      NumberOfComponents=" 1" format="ascii">
         9          9          9          9          9          9          9          9          9          9          9          9          9          9          9          9          9          9          9          9          9          9          9          9          9          9          9          9          9          9          9          9          9          9          9          9          9          9          9          9          9          9          9          9          9          9          9          9          9          9          9          9          9          9          9          9          9          9          9          9          9          9          9          9          9          9          9          9          9          9          9          9          9          9          9          9          9          9          9          9          9          9          9          9          9          9          9          9          9          9          9          9          9          9          9          9          9          9          9          9          9          9          9          9          9          9          9          9          9          9          9          9          9          9          9          9          9          9          9          9          9          9          9          9          9          9          9          9          9          9          9          9          9          9          9          9          9          9          9          9          9          9          9          9          9          9          9          9          9          9          9          9          9          9          9          9          9          9          9          9          9          9          9          9          9          9          9          9          9          9          9          9          9          9          9          9          9          9          9          9          9          9          9          9          9          9          9          9          9          9          9          9          9          9          9          9          9          9          9          9          9          9          9          9          9          9          9          9          9          9          9          9          9          9          9          9          9          9          9          9          9          9          9          9          9          9          9          9          9          9          9          9          9          9          9          9          9          9          9          9          9          9          9          9          9          9          9          9          9          9          9          9          9          9          9          9          9          9          9          9          9          9          9          9          9          9          9          9          9          9          9          9          9          9          9          9          9          9          9          9          9          9          9          9          9          9          9          9          9          9          9          9          9          9          9          9          9          9          9          9          9          9          9          9          9          9          9          9          9          9          9          9          9          9          9          9          9          9          9          9          9          9          9          9          9          9          9          9          9          9          9          9          9          9          9          9          9          9          9          9          9          9          9          9          9          9          9          9          9          9          9          9          9          9          9          9          9          9          9          9          9          9          9          9          9          9          9          9          9          9          9          9          9          9          9          9          9          9          9          9          9          9          9          9          9          9          9          9          9          9          9          9          9          9          9          9          9          9          9          9          9          9          9          9          9          9          9          9          9          9          9          9          9          9          9          9          9          9          9          9          9          9          9          9          9          9          9          9          9          9          9          9          9          9          9          9          9          9          9          9          9          9          9          9          9          9          9          9          9          9          9          9          9          9          9          9          9          9          9          9          9          9          9          9          9          9          9          9          9          9          9          9          9          9          9          9          9          9          9          9          9          9          9          9          9          9          9          9          9          9          9          9          9          9          9          9          9          9          9          9          9          9          9          9          9          9          9          9          9          9          9          9          9          9          9          9          9          9          9          9          9          9          9          9          9          9          9          9          9          9          9          9          9          9          9          9          9          9          9          9          9          9          9          9          9          9          9          9          9          9          9          9          9          9          9          9          9          9          9          9          9          9          9          9          9          9          9          9          9          9          9          9          9          9          9          9          9          9          9          9          9          9          9          9          9          9          9          9          9          9          9          9          9          9          9          9          9          9          9          9          9          9          9          9          9          9          9          9          9          9          9          9          9          9          9          9          9          9          9          9          9          9          9          9          9          9          9          9          9          9          9          9          9          9          9          9          9          9          9          9          9          9          9          9          9          9          9          9          9          9          9          9          9          9          9          9          9          9          9          9          9          9          9          9          9          9          9          9          9          9          9          9          9          9          9          9          9          9          9          9          9          9          9          9          9          9          9          9          9          9          9          9          9          9          9          9          9          9          9          9          9          9          9          9          9          9          9          9          9          9          9          9          9          9          9          9          9          9          9          9          9          9          9          9          9          9          9          9          9          9          9          9          9          9          9          9          9          9          9          9          9          9          9          9          9          9          9          9          9          9          9          9          9          9          9          9          9          9          9          9          9          9          9          9          9          9          9          9          9          9          9          9          9          9          9          9          9          9          9          9          9          9          9          9          9          9          9          9          9          9          9          9          9          9          9          9          9          9          9          9          9          9          9          9          9          9          9          9          9          9          9          9          9          9          9          9          9          9          9          9          9          9          9          9          9          9          9          9          9          9          9          9          9          9          9          9          9          9          9          9          9          9          9          9          9          9          9          9          9          9          9          9          9          9          9          9          9          9          9          9          9          9          9          9          9          9          9          9          9          9          9          9          9          9          9          9          9          9          9          9          9          9          9          9          9          9          9          9          9          9          9          9          9          9          9          9          9          9          9          9          9          9          9          9          9          9          9          9          9          9          9          9          9          9          9          9          9          9          9          9          9          9          9          9          9          9          9          9          9          9          9          9          9          9          9          9          9          9          9          9          9          9          9          9          9          9          9          9          9          9          9          9          9          9          9          9          9          9          9          9          9          9          9          9          9          9          9          9          9          9          9          9          9          9          9          9          9          9          9          9          9          9          9          9          9          9          9          9          9          9          9          9          9          9          9          9          9          9          9          9          9          9          9          9          9          9          9          9          9          9          9          9          9          9          9          9          9          9          9          9          9          9          9          9 </DataArray>
</Cells>
<CellData>
<DataArray type="Int32"                                    Name="material"                                                      NumberOfComponents=" 1" format="ascii">
         1          1          1          1          1          1          1          1          1          1          1          1          1          1          1          1          1          1          1          1          1          1          1          1          1          1          1          1          1          1          1          1          1          1          1          1          1          1          1          1          1          1          1          1          1          1          1          1          1          1          1          1          1          1          1          1          1          1          1          1          1          1          1          1          1          1          1          1          1          1          1          1          1          1          1          1          1          1          1          1          1          1          1          1          1          1          1          1          1          1          1          1          1          1          1          1          1          1          1          1          1          1          1          1          1          1          1          1          1          1          1          1          1          1          1          1          1          1          1          1          1          1          1          1          1          1          1          1          1          1          1          1          1          1          1          1          1          1          1          1          1          1          1          1          1          1          1          1          1          1          1          1          1          1          1          1          1          1          1          1          1          1          1          1          1          1          1          1          1          1          1          1          1          1          1          1          1          1          1          1          1          1          1          1          1          1          1          1          1          1          1          1          1          1          1          1          1          1          1          1          1          1          1          1          1          1          1          1          1          1          1          1          1          1          1          1          1          1          1          1          1          1          1          1          1          1          1          1          1          1          1          1          1          1          1          1          1          1          1          1          1          1          1          1          1          1          1          1          1          1          1          1          1          1          1          1          1          1          1          1          1          1          1          1          1          1          1          1          1          1          1          1          1          1          1          1          1          1          1          1          1          1          1          1          1          1          1          1          1          1          1          1          1          1          1          1          1          1          1          1          1          1          1          1          1          1          1          1          1          1          1          1          1          1          1          1          1          1          1          1          1          1          1          1          1          1          1          1          1          1          1          1          1          1          1          1          1          1          1          1          1          1          1          1          1          1          1          1          1          1          1          1          1          1          1          1          1          1          1          1          1          1          1          1          1          1          1          1          1          1          1          1          1          1          1          1          1          1          1          1          1          1          1          1          1          1          1          1          1          1          1          1          1          1          1          1          1          1          1          1          1          1          1          1          1          1          1          1          1          1          1          1          1          1          1          1          1          1          1          1          1          1          1          1          1          1          1          1          1          1          1          1          1          1          1          1          1          1          1          1          1          1          1          1          1          1          1          1          1          1          1          1          1          1          1          1          1          1          1          1          1          1          1          1          1          1          1          1          1          1          1          1          1          1          1          1          1          1          1          1          1          1          1          1          1          1          1          1          1          1          1          1          1          1          1          1          1          1          1          1          1          1          1          1          1          1          1          1          1          1          1          1          1          1          1          1          1          1          1          1          1          1          1          1          1          1          1          1          1          1          1          1          1          1          1          1          1          1          1          1          1          1          1          1          1          1          1          1          1          1          1          1          1          1          1          1          1          1          1          1          1          1          1          1          1          1          1          1          1          1          1          1          1          1          1          1          1          1          1          1          1          1          1          1          1          1          1          1          1          1          1          1          1          1          1          1          1          1          1          1          1          1          1          1          1          1          1          1          1          1          1          1          1          1          1          1          1          1          1          1          1          1          1          1          1          1          1          1          1          1          1          1          1          1          1          1          1          1          1          1          1          1          1          1          1          1          1          1          1          1          1          1          1          1          1          1          1          1          1          1          1          1          1          1          1          1          1          1          1          1          1          1          1          1          1          1          1          1          1          1          1          1          1          1          1          1          1          1          1          1          1          1          1          1          1          1          1          1          1          1          1          1          1          1          1          1          1          1          1          1          1          1          1          1          1          1          1          1          1          1          1          1          1          1          1          1          1          1          1          1          1          1          1          1          1          1          1          1          1          1          1          1          1          1          1          1          1          1          1          1          1          1          1          1          1          1          1          1          1          1          1          1          1          1          1          1          1          1          1          1          1          1          1          1          1          1          1          1          1          1          1          1          1          1          1          1          1          1          1          1          1          1          1          1          1          1          1          1          1          1          1          1          1          1          1          1          1          1          1          1          1          1          1          1          1          1          1          1          1          1          1          1          1          1          1          1          1          1          1          1          1          1          1          1          1          1          1          1          1          1          1          1          1          1          1          1          1          1          1          1          1          1          1          1          1          1          1          1          1          1          1          1          1          1          1          1          1          1          1          1          1          1          1          1          1          1          1          1          1          1          1          1          1          1          1          1          1          1          1          1          1          1          1          1          1          1          1          1          1          1          1          1          1          1          1          1          1          1          1          1          1          1          1          1          1          1          1          1          1          1          1          1          1          1          1          1          1          1          1          1          1          1          1          1          1          1          1          1          1          1          1          1          1          1          1          1          1          1          1          1          1          1          1          1          1          1          1          1          1          1          1          1          1          1          1          1          1          1          1          1          1          1          1          1          1          1          1          1          1          1          1          1          1          1          1          1          1          1          1          1          1          1          1          1          1          1          1          1          1          1          1          1          1          1          1          1          1          1          1          1          1          1          1          1          1          1          1          1          1          1          1          1          1          1 </DataArray>
</CellData>
<PointData>
<DataArray type="Float64"                                    Name="u"                                                      NumberOfComponents=" 3" format="ascii">
              0.000002398               0.000000000               0.999999998              -0.000008837              -0.000000000               0.999999998              -0.000014493              -0.000000000               0.999999998              -0.000017964              -0.000000000               0.999999998              -0.000020661              -0.000000000               0.999999998              -0.000023314               0.000000000               0.999999998              -0.000026249              -0.000000000               0.999999998              -0.000029559              -0.000000000               0.999999998              -0.000033282               0.000000000               0.999999998              -0.000037507              -0.000000000               0.999999998              -0.000042213               0.000000000               0.999999998              -0.000047426              -0.000000000               0.999999998              -0.000053134              -0.000000000               0.999999998              -0.000059291               0.000000000               0.999999998              -0.000065955              -0.000000000               0.999999998              -0.000073150              -0.000000000               0.999999998              -0.000080885               0.000000000               0.999999998               0.000002324               0.000027646               0.999999998              -0.000008527               0.000024903               0.999999998              -0.000013958               0.000024332               0.999999998              -0.000017330               0.000025023               0.999999998              -0.000019987               0.000026504               0.999999998              -0.000022670               0.000028491               0.999999998              -0.000025644               0.000030915               0.999999998              -0.000029035               0.000033607               0.999999998              -0.000032939               0.000036502               0.999999998              -0.000037332               0.000039616               0.999999998              -0.000042215               0.000042877               0.999999998              -0.000047588               0.000046350               0.999999998              -0.000053462               0.000049900               0.999999998              -0.000059791               0.000053565               0.999999998              -0.000066595               0.000057462               0.999999998              -0.000073937               0.000061505               0.999999998              -0.000081803               0.000065524               0.999999998               0.000002127               0.000055041               0.999999998              -0.000007599               0.000049498               0.999999998              -0.000012376               0.000048465               0.999999998              -0.000015461               0.000049949               0.999999998              -0.000018111               0.000053006               0.999999998              -0.000020906               0.000057120               0.999999998              -0.000024131               0.000061928               0.999999998              -0.000027896               0.000067338               0.999999998              -0.000032199               0.000073190               0.999999998              -0.000037002               0.000079431               0.999999998              -0.000042349               0.000085945               0.999999998              -0.000048209               0.000092794               0.999999998              -0.000054566               0.000099877               0.999999998              -0.000061387               0.000107165               0.999999998              -0.000068662               0.000114951               0.999999998              -0.000076437               0.000123163               0.999999998              -0.000084723               0.000131369               0.999999998               0.000001784               0.000081896               0.999999998              -0.000006063               0.000073540               0.999999998              -0.000009896               0.000072184               0.999999998              -0.000012648               0.000074616               0.999999998              -0.000015383               0.000079369               0.999999998              -0.000018550               0.000085648               0.999999998              -0.000022270               0.000092975               0.999999998              -0.000026599               0.000101070               0.999999998              -0.000031588               0.000109872               0.999999998              -0.000037163               0.000119209               0.999999998              -0.000043294               0.000128967               0.999999998              -0.000049920               0.000139227               0.999999998              -0.000057016               0.000149839               0.999999998              -0.000064665               0.000160854               0.999999998              -0.000072835               0.000172553               0.999999998              -0.000081463               0.000184852               0.999999998              -0.000090500               0.000197333               0.999999998               0.000001361               0.000107933               0.999999998              -0.000003916               0.000096831               0.999999998              -0.000006729               0.000095349               0.999999998              -0.000009322               0.000098896               0.999999998              -0.000012353               0.000105496               0.999999998              -0.000016090               0.000113997               0.999999998              -0.000020573               0.000123851               0.999999998              -0.000025822               0.000134779               0.999999998              -0.000031815               0.000146576               0.999999998              -0.000038433               0.000159049               0.999999998              -0.000045570               0.000172044               0.999999998              -0.000053198               0.000185583               0.999999998              -0.000061397               0.000199853               0.999999998              -0.000070179               0.000214661               0.999999998              -0.000079444               0.000230092               0.999999998              -0.000089030               0.000246177               0.999999998              -0.000098842               0.000262429               0.999999998               0.000000994               0.000132931               0.999999998              -0.000001298               0.000119218               0.999999998              -0.000003201               0.000117859               0.999999998              -0.000005867               0.000122757               0.999999998              -0.000009513               0.000131250               0.999999998              -0.000014124               0.000142066               0.999999998              -0.000019722               0.000154515               0.999999998              -0.000026147               0.000168218               0.999999998              -0.000033297               0.000182984               0.999999998              -0.000041038               0.000198525               0.999999998              -0.000049333               0.000214798               0.999999998              -0.000058201               0.000231707               0.999999998              -0.000067593               0.000249499               0.999999998              -0.000077518               0.000267971               0.999999998              -0.000087810               0.000286920               0.999999998              -0.000098274               0.000306209               0.999999998              -0.000108883               0.000325840               0.999999998               0.000000687               0.000156636               0.999999998               0.000001610               0.000140656               0.999999998               0.000000375               0.000139701               0.999999998              -0.000002708               0.000146048               0.999999998              -0.000007266               0.000156459               0.999999998              -0.000013059               0.000169570               0.999999998              -0.000019907               0.000184614               0.999999998              -0.000027604               0.000201131               0.999999998              -0.000035960               0.000218764               0.999999998              -0.000044950               0.000237405               0.999999998              -0.000054490               0.000256915               0.999999998              -0.000064582               0.000277243               0.999999998              -0.000075171               0.000298561               0.999999998              -0.000086067               0.000320658               0.999999998              -0.000097163               0.000343017               0.999999998              -0.000108424               0.000365640               0.999999998              -0.000119915               0.000388815               0.999999998               0.000000406               0.000178770               0.999999998               0.000004608               0.000161136               0.999999998               0.000003675               0.000160799               0.999999998              -0.000000166               0.000168564               0.999999998              -0.000005860               0.000180901               0.999999998              -0.000012934               0.000196366               0.999999998              -0.000021099               0.000213997               0.999999998              -0.000030073               0.000233269               0.999999998              -0.000039656               0.000253769               0.999999998              -0.000049846               0.000275558               0.999999998              -0.000060457               0.000298461               0.999999998              -0.000071592               0.000322487               0.999999998              -0.000083103               0.000347547               0.999999998              -0.000094893               0.000373185               0.999999998              -0.000106851               0.000399075               0.999999998              -0.000119093               0.000425399               0.999999998              -0.000131667               0.000452417               0.999999998               0.000000068               0.000198975               0.999999998               0.000007564               0.000180669               0.999999998               0.000006412               0.000180957               0.999999998               0.000001629               0.000190091               0.999999998              -0.000005296               0.000204395               0.999999998              -0.000013677               0.000222215               0.999999998              -0.000023098               0.000242458               0.999999998              -0.000033253               0.000264510               0.999999998              -0.000043969               0.000288070               0.999999998              -0.000055133               0.000313194               0.999999998              -0.000066745               0.000339799               0.999999998              -0.000078910               0.000367650               0.999999998              -0.000091462               0.000396435               0.999999998              -0.000104118               0.000425852               0.999999998              -0.000116946               0.000455746               0.999999998              -0.000130128               0.000486213               0.999999998              -0.000143557               0.000517138               0.999999998              -0.000000566               0.000217891               0.999999998               0.000009434               0.000200956               0.999999998               0.000009481               0.000199284               0.999999998               0.000005550               0.000206034               0.999999998              -0.000000531               0.000217944               0.999999998              -0.000007953               0.000233473               0.999999998              -0.000016468               0.000251527               0.999999998              -0.000025557               0.000271451               0.999999998              -0.000035028               0.000292891               0.999999998              -0.000044880               0.000315746               0.999999998              -0.000055086               0.000340024               0.999999998              -0.000065758               0.000365581               0.999999998              -0.000076838               0.000392355               0.999999998              -0.000088059               0.000420024               0.999999998              -0.000099212               0.000448389               0.999999998              -0.000110436               0.000477330               0.999999998              -0.000121809               0.000506946               0.999999998              -0.000000964               0.000235020               0.999999998               0.000010405               0.000220364               0.999999998               0.000011657               0.000217819               0.999999998               0.000008780               0.000222671               0.999999998               0.000003732               0.000232494               0.999999998              -0.000002661               0.000245848               0.999999998              -0.000010117               0.000261894               0.999999998              -0.000018081               0.000279887               0.999999998              -0.000026404               0.000299410               0.999999998              -0.000034964               0.000320193               0.999999998              -0.000043919               0.000342282               0.999999998              -0.000053111               0.000365635               0.999999998              -0.000062555               0.000390262               0.999999998              -0.000072141               0.000416033               0.999999998              -0.000081685               0.000442681               0.999999998              -0.000091139               0.000469946               0.999999998              -0.000100594               0.000497830               0.999999998              -0.000001162               0.000249986               0.999999998               0.000010444               0.000238364               0.999999998               0.000012654               0.000235796               0.999999998               0.000010902               0.000239399               0.999999998               0.000006990               0.000247538               0.999999998               0.000001740               0.000259088               0.999999998              -0.000004487               0.000273307               0.999999998              -0.000011282               0.000289583               0.999999998              -0.000018362               0.000307427               0.999999998              -0.000025810               0.000326536               0.999999998              -0.000033456               0.000346755               0.999999998              -0.000041213               0.000368212               0.999999998              -0.000048965               0.000390933               0.999999998              -0.000056847               0.000414817               0.999999998              -0.000064545               0.000439728               0.999999998              -0.000072029               0.000465332               0.999999998              -0.000079188               0.000491575               0.999999998              -0.000001158               0.000262527               0.999999998               0.000009583               0.000254303               0.999999998               0.000012346               0.000252334               0.999999998               0.000011581               0.000255382               0.999999998               0.000008770               0.000262315               0.999999998               0.000004759               0.000272453               0.999999998              -0.000000168               0.000285091               0.999999998              -0.000005690               0.000299898               0.999999998              -0.000011587               0.000316312               0.999999998              -0.000017744               0.000334003               0.999999998              -0.000024099               0.000352828               0.999999998              -0.000030437               0.000372769               0.999999998              -0.000036597               0.000393844               0.999999998              -0.000042575               0.000416166               0.999999998              -0.000048354               0.000439578               0.999999998              -0.000053728               0.000463791               0.999999998              -0.000058557               0.000488650               0.999999998              -0.000001000               0.000272437               0.999999998               0.000007940               0.000267518               0.999999998               0.000010708               0.000266523               0.999999998               0.000010602               0.000269459               0.999999998               0.000008833               0.000275777               0.999999998               0.000005951               0.000284855               0.999999998               0.000002343               0.000296309               0.999999998              -0.000001860               0.000309845               0.999999998              -0.000006433               0.000325149               0.999999998              -0.000011167               0.000341838               0.999999998              -0.000016065               0.000359641               0.999999998              -0.000020916               0.000378579               0.999999998              -0.000025524               0.000398565               0.999999998              -0.000029715               0.000419729               0.999999998              -0.000033600               0.000441946               0.999999998              -0.000037047               0.000465019               0.999999998              -0.000039660               0.000488780               0.999999998              -0.000000738               0.000279614               0.999999998               0.000005641               0.000277357               0.999999998               0.000007879               0.000277462               0.999999998               0.000008102               0.000280596               0.999999998               0.000007104               0.000286572               0.999999998               0.000005278               0.000295077               0.999999998               0.000002940               0.000305795               0.999999998               0.000000132               0.000318473               0.999999998              -0.000002996               0.000332987               0.999999998              -0.000006260               0.000348934               0.999999998              -0.000009462               0.000366119               0.999999998              -0.000012639               0.000384535               0.999999998              -0.000015762               0.000403981               0.999999998              -0.000018563               0.000424397               0.999999998              -0.000020821               0.000445809               0.999999998              -0.000022649               0.000468135               0.999999998              -0.000023586               0.000491198               0.999999998              -0.000000390               0.000283965               0.999999998               0.000002912               0.000283458               0.999999998               0.000004170               0.000284349               0.999999998               0.000004387               0.000287748               0.999999998               0.000003977               0.000293671               0.999999998               0.000003121               0.000301903               0.999999998               0.000001975               0.000312228               0.999999998               0.000000541               0.000324413               0.999999998              -0.000001097               0.000338401               0.999999998              -0.000002750               0.000353957               0.999999998              -0.000004228               0.000370871               0.999999998              -0.000005772               0.000388939               0.999999998              -0.000007547               0.000408052               0.999999998              -0.000008967               0.000428144               0.999999998              -0.000009916               0.000449197               0.999999998              -0.000010589               0.000471145               0.999999998              -0.000010805               0.000493880               0.999999998               0.000000000               0.000285356               0.999999998               0.000000000               0.000285485               0.999999998               0.000000000               0.000286718               0.999999998              -0.000000000               0.000290229               0.999999998              -0.000000000               0.000296116               0.999999998               0.000000000               0.000304250               0.999999998               0.000000000               0.000314519               0.999999998              -0.000000000               0.000326581               0.999999998               0.000000000               0.000340315               0.999999998              -0.000000000               0.000355758               0.999999998              -0.000000000               0.000372653               0.999999998               0.000000000               0.000390579               0.999999998               0.000000000               0.000409553               0.999999998              -0.000000000               0.000429560               0.999999998              -0.000000000               0.000450526               0.999999998               0.000000000               0.000472379               0.999999998               0.000000000               0.000495046               0.999999998               0.000002398               0.000000000               0.999999998              -0.000008837              -0.000000000               0.999999998              -0.000014493              -0.000000000               0.999999998              -0.000017964              -0.000000000               0.999999998              -0.000020661              -0.000000000               0.999999998              -0.000023314               0.000000000               0.999999998              -0.000026249              -0.000000000               0.999999998              -0.000029559              -0.000000000               0.999999998              -0.000033282               0.000000000               0.999999998              -0.000037507              -0.000000000               0.999999998              -0.000042213               0.000000000               0.999999998              -0.000047426              -0.000000000               0.999999998              -0.000053134              -0.000000000               0.999999998              -0.000059291               0.000000000               0.999999998              -0.000065955              -0.000000000               0.999999998              -0.000073150              -0.000000000               0.999999998              -0.000080885               0.000000000               0.999999998               0.000002324              -0.000027646               0.999999998              -0.000008527              -0.000024903               0.999999998              -0.000013958              -0.000024332               0.999999998              -0.000017330              -0.000025023               0.999999998              -0.000019987              -0.000026504               0.999999998              -0.000022670              -0.000028491               0.999999998              -0.000025644              -0.000030915               0.999999998              -0.000029035              -0.000033607               0.999999998              -0.000032939              -0.000036502               0.999999998              -0.000037332              -0.000039616               0.999999998              -0.000042215              -0.000042877               0.999999998              -0.000047588              -0.000046350               0.999999998              -0.000053462              -0.000049900               0.999999998              -0.000059791              -0.000053565               0.999999998              -0.000066595              -0.000057462               0.999999998              -0.000073937              -0.000061505               0.999999998              -0.000081803              -0.000065524               0.999999998               0.000002127              -0.000055041               0.999999998              -0.000007599              -0.000049498               0.999999998              -0.000012376              -0.000048465               0.999999998              -0.000015461              -0.000049949               0.999999998              -0.000018111              -0.000053006               0.999999998              -0.000020906              -0.000057120               0.999999998              -0.000024131              -0.000061928               0.999999998              -0.000027896              -0.000067338               0.999999998              -0.000032199              -0.000073190               0.999999998              -0.000037002              -0.000079431               0.999999998              -0.000042349              -0.000085945               0.999999998              -0.000048209              -0.000092794               0.999999998              -0.000054566              -0.000099877               0.999999998              -0.000061387              -0.000107165               0.999999998              -0.000068662              -0.000114951               0.999999998              -0.000076437              -0.000123163               0.999999998              -0.000084723              -0.000131369               0.999999998               0.000001784              -0.000081896               0.999999998              -0.000006063              -0.000073540               0.999999998              -0.000009896              -0.000072184               0.999999998              -0.000012648              -0.000074616               0.999999998              -0.000015383              -0.000079369               0.999999998              -0.000018550              -0.000085648               0.999999998              -0.000022270              -0.000092975               0.999999998              -0.000026599              -0.000101070               0.999999998              -0.000031588              -0.000109872               0.999999998              -0.000037163              -0.000119209               0.999999998              -0.000043294              -0.000128967               0.999999998              -0.000049920              -0.000139227               0.999999998              -0.000057016              -0.000149839               0.999999998              -0.000064665              -0.000160854               0.999999998              -0.000072835              -0.000172553               0.999999998              -0.000081463              -0.000184852               0.999999998              -0.000090500              -0.000197333               0.999999998               0.000001361              -0.000107933               0.999999998              -0.000003916              -0.000096831               0.999999998              -0.000006729              -0.000095349               0.999999998              -0.000009322              -0.000098896               0.999999998              -0.000012353              -0.000105496               0.999999998              -0.000016090              -0.000113997               0.999999998              -0.000020573              -0.000123851               0.999999998              -0.000025822              -0.000134779               0.999999998              -0.000031815              -0.000146576               0.999999998              -0.000038433              -0.000159049               0.999999998              -0.000045570              -0.000172044               0.999999998              -0.000053198              -0.000185583               0.999999998              -0.000061397              -0.000199853               0.999999998              -0.000070179              -0.000214661               0.999999998              -0.000079444              -0.000230092               0.999999998              -0.000089030              -0.000246177               0.999999998              -0.000098842              -0.000262429               0.999999998               0.000000994              -0.000132931               0.999999998              -0.000001298              -0.000119218               0.999999998              -0.000003201              -0.000117859               0.999999998              -0.000005867              -0.000122757               0.999999998              -0.000009513              -0.000131250               0.999999998              -0.000014124              -0.000142066               0.999999998              -0.000019722              -0.000154515               0.999999998              -0.000026147              -0.000168218               0.999999998              -0.000033297              -0.000182984               0.999999998              -0.000041038              -0.000198525               0.999999998              -0.000049333              -0.000214798               0.999999998              -0.000058201              -0.000231707               0.999999998              -0.000067593              -0.000249499               0.999999998              -0.000077518              -0.000267971               0.999999998              -0.000087810              -0.000286920               0.999999998              -0.000098274              -0.000306209               0.999999998              -0.000108883              -0.000325840               0.999999998               0.000000687              -0.000156636               0.999999998               0.000001610              -0.000140656               0.999999998               0.000000375              -0.000139701               0.999999998              -0.000002708              -0.000146048               0.999999998              -0.000007266              -0.000156459               0.999999998              -0.000013059              -0.000169570               0.999999998              -0.000019907              -0.000184614               0.999999998              -0.000027604              -0.000201131               0.999999998              -0.000035960              -0.000218764               0.999999998              -0.000044950              -0.000237405               0.999999998              -0.000054490              -0.000256915               0.999999998              -0.000064582              -0.000277243               0.999999998              -0.000075171              -0.000298561               0.999999998              -0.000086067              -0.000320658               0.999999998              -0.000097163              -0.000343017               0.999999998              -0.000108424              -0.000365640               0.999999998              -0.000119915              -0.000388815               0.999999998               0.000000406              -0.000178770               0.999999998               0.000004608              -0.000161136               0.999999998               0.000003675              -0.000160799               0.999999998              -0.000000166              -0.000168564               0.999999998              -0.000005860              -0.000180901               0.999999998              -0.000012934              -0.000196366               0.999999998              -0.000021099              -0.000213997               0.999999998              -0.000030073              -0.000233269               0.999999998              -0.000039656              -0.000253769               0.999999998              -0.000049846              -0.000275558               0.999999998              -0.000060457              -0.000298461               0.999999998              -0.000071592              -0.000322487               0.999999998              -0.000083103              -0.000347547               0.999999998              -0.000094893              -0.000373185               0.999999998              -0.000106851              -0.000399075               0.999999998              -0.000119093              -0.000425399               0.999999998              -0.000131667              -0.000452417               0.999999998               0.000000068              -0.000198975               0.999999998               0.000007564              -0.000180669               0.999999998               0.000006412              -0.000180957               0.999999998               0.000001629              -0.000190091               0.999999998              -0.000005296              -0.000204395               0.999999998              -0.000013677              -0.000222215               0.999999998              -0.000023098              -0.000242458               0.999999998              -0.000033253              -0.000264510               0.999999998              -0.000043969              -0.000288070               0.999999998              -0.000055133              -0.000313194               0.999999998              -0.000066745              -0.000339799               0.999999998              -0.000078910              -0.000367650               0.999999998              -0.000091462              -0.000396435               0.999999998              -0.000104118              -0.000425852               0.999999998              -0.000116946              -0.000455746               0.999999998              -0.000130128              -0.000486213               0.999999998              -0.000143557              -0.000517138               0.999999998              -0.000000566              -0.000217891               0.999999998               0.000009434              -0.000200956               0.999999998               0.000009481              -0.000199284               0.999999998               0.000005550              -0.000206034               0.999999998              -0.000000531              -0.000217944               0.999999998              -0.000007953              -0.000233473               0.999999998              -0.000016468              -0.000251527               0.999999998              -0.000025557              -0.000271451               0.999999998              -0.000035028              -0.000292891               0.999999998              -0.000044880              -0.000315746               0.999999998              -0.000055086              -0.000340024               0.999999998              -0.000065758              -0.000365581               0.999999998              -0.000076838              -0.000392355               0.999999998              -0.000088059              -0.000420024               0.999999998              -0.000099212              -0.000448389               0.999999998              -0.000110436              -0.000477330               0.999999998              -0.000121809              -0.000506946               0.999999998              -0.000000964              -0.000235020               0.999999998               0.000010405              -0.000220364               0.999999998               0.000011657              -0.000217819               0.999999998               0.000008780              -0.000222671               0.999999998               0.000003732              -0.000232494               0.999999998              -0.000002661              -0.000245848               0.999999998              -0.000010117              -0.000261894               0.999999998              -0.000018081              -0.000279887               0.999999998              -0.000026404              -0.000299410               0.999999998              -0.000034964              -0.000320193               0.999999998              -0.000043919              -0.000342282               0.999999998              -0.000053111              -0.000365635               0.999999998              -0.000062555              -0.000390262               0.999999998              -0.000072141              -0.000416033               0.999999998              -0.000081685              -0.000442681               0.999999998              -0.000091139              -0.000469946               0.999999998              -0.000100594              -0.000497830               0.999999998              -0.000001162              -0.000249986               0.999999998               0.000010444              -0.000238364               0.999999998               0.000012654              -0.000235796               0.999999998               0.000010902              -0.000239399               0.999999998               0.000006990              -0.000247538               0.999999998               0.000001740              -0.000259088               0.999999998              -0.000004487              -0.000273307               0.999999998              -0.000011282              -0.000289583               0.999999998              -0.000018362              -0.000307427               0.999999998              -0.000025810              -0.000326536               0.999999998              -0.000033456              -0.000346755               0.999999998              -0.000041213              -0.000368212               0.999999998              -0.000048965              -0.000390933               0.999999998              -0.000056847              -0.000414817               0.999999998              -0.000064545              -0.000439728               0.999999998              -0.000072029              -0.000465332               0.999999998              -0.000079188              -0.000491575               0.999999998              -0.000001158              -0.000262527               0.999999998               0.000009583              -0.000254303               0.999999998               0.000012346              -0.000252334               0.999999998               0.000011581              -0.000255382               0.999999998               0.000008770              -0.000262315               0.999999998               0.000004759              -0.000272453               0.999999998              -0.000000168              -0.000285091               0.999999998              -0.000005690              -0.000299898               0.999999998              -0.000011587              -0.000316312               0.999999998              -0.000017744              -0.000334003               0.999999998              -0.000024099              -0.000352828               0.999999998              -0.000030437              -0.000372769               0.999999998              -0.000036597              -0.000393844               0.999999998              -0.000042575              -0.000416166               0.999999998              -0.000048354              -0.000439578               0.999999998              -0.000053728              -0.000463791               0.999999998              -0.000058557              -0.000488650               0.999999998              -0.000001000              -0.000272437               0.999999998               0.000007940              -0.000267518               0.999999998               0.000010708              -0.000266523               0.999999998               0.000010602              -0.000269459               0.999999998               0.000008833              -0.000275777               0.999999998               0.000005951              -0.000284855               0.999999998               0.000002343              -0.000296309               0.999999998              -0.000001860              -0.000309845               0.999999998              -0.000006433              -0.000325149               0.999999998              -0.000011167              -0.000341838               0.999999998              -0.000016065              -0.000359641               0.999999998              -0.000020916              -0.000378579               0.999999998              -0.000025524              -0.000398565               0.999999998              -0.000029715              -0.000419729               0.999999998              -0.000033600              -0.000441946               0.999999998              -0.000037047              -0.000465019               0.999999998              -0.000039660              -0.000488780               0.999999998              -0.000000738              -0.000279614               0.999999998               0.000005641              -0.000277357               0.999999998               0.000007879              -0.000277462               0.999999998               0.000008102              -0.000280596               0.999999998               0.000007104              -0.000286572               0.999999998               0.000005278              -0.000295077               0.999999998               0.000002940              -0.000305795               0.999999998               0.000000132              -0.000318473               0.999999998              -0.000002996              -0.000332987               0.999999998              -0.000006260              -0.000348934               0.999999998              -0.000009462              -0.000366119               0.999999998              -0.000012639              -0.000384535               0.999999998              -0.000015762              -0.000403981               0.999999998              -0.000018563              -0.000424397               0.999999998              -0.000020821              -0.000445809               0.999999998              -0.000022649              -0.000468135               0.999999998              -0.000023586              -0.000491198               0.999999998              -0.000000390              -0.000283965               0.999999998               0.000002912              -0.000283458               0.999999998               0.000004170              -0.000284349               0.999999998               0.000004387              -0.000287748               0.999999998               0.000003977              -0.000293671               0.999999998               0.000003121              -0.000301903               0.999999998               0.000001975              -0.000312228               0.999999998               0.000000541              -0.000324413               0.999999998              -0.000001097              -0.000338401               0.999999998              -0.000002750              -0.000353957               0.999999998              -0.000004228              -0.000370871               0.999999998              -0.000005772              -0.000388939               0.999999998              -0.000007547              -0.000408052               0.999999998              -0.000008967              -0.000428144               0.999999998              -0.000009916              -0.000449197               0.999999998              -0.000010589              -0.000471145               0.999999998              -0.000010805              -0.000493880               0.999999998              -0.000000000              -0.000285356               0.999999998               0.000000000              -0.000285485               0.999999998               0.000000000              -0.000286718               0.999999998              -0.000000000              -0.000290229               0.999999998              -0.000000000              -0.000296116               0.999999998              -0.000000000              -0.000304250               0.999999998              -0.000000000              -0.000314519               0.999999998              -0.000000000              -0.000326581               0.999999998              -0.000000000              -0.000340315               0.999999998              -0.000000000              -0.000355758               0.999999998              -0.000000000              -0.000372653               0.999999998               0.000000000              -0.000390579               0.999999998               0.000000000              -0.000409553               0.999999998               0.000000000              -0.000429560               0.999999998               0.000000000              -0.000450526               0.999999998               0.000000000              -0.000472379               0.999999998               0.000000000              -0.000495046               0.999999998              -0.000002398               0.000000000               0.999999998               0.000008837              -0.000000000               0.999999998               0.000014493              -0.000000000               0.999999998               0.000017964               0.000000000               0.999999998               0.000020661               0.000000000               0.999999998               0.000023314               0.000000000               0.999999998               0.000026249               0.000000000               0.999999998               0.000029559              -0.000000000               0.999999998               0.000033282              -0.000000000               0.999999998               0.000037507               0.000000000               0.999999998               0.000042213               0.000000000               0.999999998               0.000047426              -0.000000000               0.999999998               0.000053134               0.000000000               0.999999998               0.000059291               0.000000000               0.999999998               0.000065955              -0.000000000               0.999999998               0.000073150               0.000000000               0.999999998               0.000080885               0.000000000               0.999999998              -0.000002324              -0.000027646               0.999999998               0.000008527              -0.000024903               0.999999998               0.000013958              -0.000024332               0.999999998               0.000017330              -0.000025023               0.999999998               0.000019987              -0.000026504               0.999999998               0.000022670              -0.000028491               0.999999998               0.000025644              -0.000030915               0.999999998               0.000029035              -0.000033607               0.999999998               0.000032939              -0.000036502               0.999999998               0.000037332              -0.000039616               0.999999998               0.000042215              -0.000042877               0.999999998               0.000047588              -0.000046350               0.999999998               0.000053462              -0.000049900               0.999999998               0.000059791              -0.000053565               0.999999998               0.000066595              -0.000057462               0.999999998               0.000073937              -0.000061505               0.999999998               0.000081803              -0.000065524               0.999999998              -0.000002127              -0.000055041               0.999999998               0.000007599              -0.000049498               0.999999998               0.000012376              -0.000048465               0.999999998               0.000015461              -0.000049949               0.999999998               0.000018111              -0.000053006               0.999999998               0.000020906              -0.000057120               0.999999998               0.000024131              -0.000061928               0.999999998               0.000027896              -0.000067338               0.999999998               0.000032199              -0.000073190               0.999999998               0.000037002              -0.000079431               0.999999998               0.000042349              -0.000085945               0.999999998               0.000048209              -0.000092794               0.999999998               0.000054566              -0.000099877               0.999999998               0.000061387              -0.000107165               0.999999998               0.000068662              -0.000114951               0.999999998               0.000076437              -0.000123163               0.999999998               0.000084723              -0.000131369               0.999999998              -0.000001784              -0.000081896               0.999999998               0.000006063              -0.000073540               0.999999998               0.000009896              -0.000072184               0.999999998               0.000012648              -0.000074616               0.999999998               0.000015383              -0.000079369               0.999999998               0.000018550              -0.000085648               0.999999998               0.000022270              -0.000092975               0.999999998               0.000026599              -0.000101070               0.999999998               0.000031588              -0.000109872               0.999999998               0.000037163              -0.000119209               0.999999998               0.000043294              -0.000128967               0.999999998               0.000049920              -0.000139227               0.999999998               0.000057016              -0.000149839               0.999999998               0.000064665              -0.000160854               0.999999998               0.000072835              -0.000172553               0.999999998               0.000081463              -0.000184852               0.999999998               0.000090500              -0.000197333               0.999999998              -0.000001361              -0.000107933               0.999999998               0.000003916              -0.000096831               0.999999998               0.000006729              -0.000095349               0.999999998               0.000009322              -0.000098896               0.999999998               0.000012353              -0.000105496               0.999999998               0.000016090              -0.000113997               0.999999998               0.000020573              -0.000123851               0.999999998               0.000025822              -0.000134779               0.999999998               0.000031815              -0.000146576               0.999999998               0.000038433              -0.000159049               0.999999998               0.000045570              -0.000172044               0.999999998               0.000053198              -0.000185583               0.999999998               0.000061397              -0.000199853               0.999999998               0.000070179              -0.000214661               0.999999998               0.000079444              -0.000230092               0.999999998               0.000089030              -0.000246177               0.999999998               0.000098842              -0.000262429               0.999999998              -0.000000994              -0.000132931               0.999999998               0.000001298              -0.000119218               0.999999998               0.000003201              -0.000117859               0.999999998               0.000005867              -0.000122757               0.999999998               0.000009513              -0.000131250               0.999999998               0.000014124              -0.000142066               0.999999998               0.000019722              -0.000154515               0.999999998               0.000026147              -0.000168218               0.999999998               0.000033297              -0.000182984               0.999999998               0.000041038              -0.000198525               0.999999998               0.000049333              -0.000214798               0.999999998               0.000058201              -0.000231707               0.999999998               0.000067593              -0.000249499               0.999999998               0.000077518              -0.000267971               0.999999998               0.000087810              -0.000286920               0.999999998               0.000098274              -0.000306209               0.999999998               0.000108883              -0.000325840               0.999999998              -0.000000687              -0.000156636               0.999999998              -0.000001610              -0.000140656               0.999999998              -0.000000375              -0.000139701               0.999999998               0.000002708              -0.000146048               0.999999998               0.000007266              -0.000156459               0.999999998               0.000013059              -0.000169570               0.999999998               0.000019907              -0.000184614               0.999999998               0.000027604              -0.000201131               0.999999998               0.000035960              -0.000218764               0.999999998               0.000044950              -0.000237405               0.999999998               0.000054490              -0.000256915               0.999999998               0.000064582              -0.000277243               0.999999998               0.000075171              -0.000298561               0.999999998               0.000086067              -0.000320658               0.999999998               0.000097163              -0.000343017               0.999999998               0.000108424              -0.000365640               0.999999998               0.000119915              -0.000388815               0.999999998              -0.000000406              -0.000178770               0.999999998              -0.000004608              -0.000161136               0.999999998              -0.000003675              -0.000160799               0.999999998               0.000000166              -0.000168564               0.999999998               0.000005860              -0.000180901               0.999999998               0.000012934              -0.000196366               0.999999998               0.000021099              -0.000213997               0.999999998               0.000030073              -0.000233269               0.999999998               0.000039656              -0.000253769               0.999999998               0.000049846              -0.000275558               0.999999998               0.000060457              -0.000298461               0.999999998               0.000071592              -0.000322487               0.999999998               0.000083103              -0.000347547               0.999999998               0.000094893              -0.000373185               0.999999998               0.000106851              -0.000399075               0.999999998               0.000119093              -0.000425399               0.999999998               0.000131667              -0.000452417               0.999999998              -0.000000068              -0.000198975               0.999999998              -0.000007564              -0.000180669               0.999999998              -0.000006412              -0.000180957               0.999999998              -0.000001629              -0.000190091               0.999999998               0.000005296              -0.000204395               0.999999998               0.000013677              -0.000222215               0.999999998               0.000023098              -0.000242458               0.999999998               0.000033253              -0.000264510               0.999999998               0.000043969              -0.000288070               0.999999998               0.000055133              -0.000313194               0.999999998               0.000066745              -0.000339799               0.999999998               0.000078910              -0.000367650               0.999999998               0.000091462              -0.000396435               0.999999998               0.000104118              -0.000425852               0.999999998               0.000116946              -0.000455746               0.999999998               0.000130128              -0.000486213               0.999999998               0.000143557              -0.000517138               0.999999998               0.000000566              -0.000217891               0.999999998              -0.000009434              -0.000200956               0.999999998              -0.000009481              -0.000199284               0.999999998              -0.000005550              -0.000206034               0.999999998               0.000000531              -0.000217944               0.999999998               0.000007953              -0.000233473               0.999999998               0.000016468              -0.000251527               0.999999998               0.000025557              -0.000271451               0.999999998               0.000035028              -0.000292891               0.999999998               0.000044880              -0.000315746               0.999999998               0.000055086              -0.000340024               0.999999998               0.000065758              -0.000365581               0.999999998               0.000076838              -0.000392355               0.999999998               0.000088059              -0.000420024               0.999999998               0.000099212              -0.000448389               0.999999998               0.000110436              -0.000477330               0.999999998               0.000121809              -0.000506946               0.999999998               0.000000964              -0.000235020               0.999999998              -0.000010405              -0.000220364               0.999999998              -0.000011657              -0.000217819               0.999999998              -0.000008780              -0.000222671               0.999999998              -0.000003732              -0.000232494               0.999999998               0.000002661              -0.000245848               0.999999998               0.000010117              -0.000261894               0.999999998               0.000018081              -0.000279887               0.999999998               0.000026404              -0.000299410               0.999999998               0.000034964              -0.000320193               0.999999998               0.000043919              -0.000342282               0.999999998               0.000053111              -0.000365635               0.999999998               0.000062555              -0.000390262               0.999999998               0.000072141              -0.000416033               0.999999998               0.000081685              -0.000442681               0.999999998               0.000091139              -0.000469946               0.999999998               0.000100594              -0.000497830               0.999999998               0.000001162              -0.000249986               0.999999998              -0.000010444              -0.000238364               0.999999998              -0.000012654              -0.000235796               0.999999998              -0.000010902              -0.000239399               0.999999998              -0.000006990              -0.000247538               0.999999998              -0.000001740              -0.000259088               0.999999998               0.000004487              -0.000273307               0.999999998               0.000011282              -0.000289583               0.999999998               0.000018362              -0.000307427               0.999999998               0.000025810              -0.000326536               0.999999998               0.000033456              -0.000346755               0.999999998               0.000041213              -0.000368212               0.999999998               0.000048965              -0.000390933               0.999999998               0.000056847              -0.000414817               0.999999998               0.000064545              -0.000439728               0.999999998               0.000072029              -0.000465332               0.999999998               0.000079188              -0.000491575               0.999999998               0.000001158              -0.000262527               0.999999998              -0.000009583              -0.000254303               0.999999998              -0.000012346              -0.000252334               0.999999998              -0.000011581              -0.000255382               0.999999998              -0.000008770              -0.000262315               0.999999998              -0.000004759              -0.000272453               0.999999998               0.000000168              -0.000285091               0.999999998               0.000005690              -0.000299898               0.999999998               0.000011587              -0.000316312               0.999999998               0.000017744              -0.000334003               0.999999998               0.000024099              -0.000352828               0.999999998               0.000030437              -0.000372769               0.999999998               0.000036597              -0.000393844               0.999999998               0.000042575              -0.000416166               0.999999998               0.000048354              -0.000439578               0.999999998               0.000053728              -0.000463791               0.999999998               0.000058557              -0.000488650               0.999999998               0.000001000              -0.000272437               0.999999998              -0.000007940              -0.000267518               0.999999998              -0.000010708              -0.000266523               0.999999998              -0.000010602              -0.000269459               0.999999998              -0.000008833              -0.000275777               0.999999998              -0.000005951              -0.000284855               0.999999998              -0.000002343              -0.000296309               0.999999998               0.000001860              -0.000309845               0.999999998               0.000006433              -0.000325149               0.999999998               0.000011167              -0.000341838               0.999999998               0.000016065              -0.000359641               0.999999998               0.000020916              -0.000378579               0.999999998               0.000025524              -0.000398565               0.999999998               0.000029715              -0.000419729               0.999999998               0.000033600              -0.000441946               0.999999998               0.000037047              -0.000465019               0.999999998               0.000039660              -0.000488780               0.999999998               0.000000738              -0.000279614               0.999999998              -0.000005641              -0.000277357               0.999999998              -0.000007879              -0.000277462               0.999999998              -0.000008102              -0.000280596               0.999999998              -0.000007104              -0.000286572               0.999999998              -0.000005278              -0.000295077               0.999999998              -0.000002940              -0.000305795               0.999999998              -0.000000132              -0.000318473               0.999999998               0.000002996              -0.000332987               0.999999998               0.000006260              -0.000348934               0.999999998               0.000009462              -0.000366119               0.999999998               0.000012639              -0.000384535               0.999999998               0.000015762              -0.000403981               0.999999998               0.000018563              -0.000424397               0.999999998               0.000020821              -0.000445809               0.999999998               0.000022649              -0.000468135               0.999999998               0.000023586              -0.000491198               0.999999998               0.000000390              -0.000283965               0.999999998              -0.000002912              -0.000283458               0.999999998              -0.000004170              -0.000284349               0.999999998              -0.000004387              -0.000287748               0.999999998              -0.000003977              -0.000293671               0.999999998              -0.000003121              -0.000301903               0.999999998              -0.000001975              -0.000312228               0.999999998              -0.000000541              -0.000324413               0.999999998               0.000001097              -0.000338401               0.999999998               0.000002750              -0.000353957               0.999999998               0.000004228              -0.000370871               0.999999998               0.000005772              -0.000388939               0.999999998               0.000007547              -0.000408052               0.999999998               0.000008967              -0.000428144               0.999999998               0.000009916              -0.000449197               0.999999998               0.000010589              -0.000471145               0.999999998               0.000010805              -0.000493880               0.999999998              -0.000000000              -0.000285356               0.999999998               0.000000000              -0.000285485               0.999999998               0.000000000              -0.000286718               0.999999998              -0.000000000              -0.000290229               0.999999998              -0.000000000              -0.000296116               0.999999998              -0.000000000              -0.000304250               0.999999998              -0.000000000              -0.000314519               0.999999998              -0.000000000              -0.000326581               0.999999998              -0.000000000              -0.000340315               0.999999998              -0.000000000              -0.000355758               0.999999998              -0.000000000              -0.000372653               0.999999998               0.000000000              -0.000390579               0.999999998               0.000000000              -0.000409553               0.999999998               0.000000000              -0.000429560               0.999999998               0.000000000              -0.000450526               0.999999998               0.000000000              -0.000472379               0.999999998               0.000000000              -0.000495046               0.999999998              -0.000002398               0.000000000               0.999999998               0.000008837              -0.000000000               0.999999998               0.000014493              -0.000000000               0.999999998               0.000017964               0.000000000               0.999999998               0.000020661               0.000000000               0.999999998               0.000023314               0.000000000               0.999999998               0.000026249               0.000000000               0.999999998               0.000029559              -0.000000000               0.999999998               0.000033282              -0.000000000               0.999999998               0.000037507               0.000000000               0.999999998               0.000042213               0.000000000               0.999999998               0.000047426              -0.000000000               0.999999998               0.000053134               0.000000000               0.999999998               0.000059291               0.000000000               0.999999998               0.000065955              -0.000000000               0.999999998               0.000073150               0.000000000               0.999999998               0.000080885               0.000000000               0.999999998              -0.000002324               0.000027646               0.999999998               0.000008527               0.000024903               0.999999998               0.000013958               0.000024332               0.999999998               0.000017330               0.000025023               0.999999998               0.000019987               0.000026504               0.999999998               0.000022670               0.000028491               0.999999998               0.000025644               0.000030915               0.999999998               0.000029035               0.000033607               0.999999998               0.000032939               0.000036502               0.999999998               0.000037332               0.000039616               0.999999998               0.000042215               0.000042877               0.999999998               0.000047588               0.000046350               0.999999998               0.000053462               0.000049900               0.999999998               0.000059791               0.000053565               0.999999998               0.000066595               0.000057462               0.999999998               0.000073937               0.000061505               0.999999998               0.000081803               0.000065524               0.999999998              -0.000002127               0.000055041               0.999999998               0.000007599               0.000049498               0.999999998               0.000012376               0.000048465               0.999999998               0.000015461               0.000049949               0.999999998               0.000018111               0.000053006               0.999999998               0.000020906               0.000057120               0.999999998               0.000024131               0.000061928               0.999999998               0.000027896               0.000067338               0.999999998               0.000032199               0.000073190               0.999999998               0.000037002               0.000079431               0.999999998               0.000042349               0.000085945               0.999999998               0.000048209               0.000092794               0.999999998               0.000054566               0.000099877               0.999999998               0.000061387               0.000107165               0.999999998               0.000068662               0.000114951               0.999999998               0.000076437               0.000123163               0.999999998               0.000084723               0.000131369               0.999999998              -0.000001784               0.000081896               0.999999998               0.000006063               0.000073540               0.999999998               0.000009896               0.000072184               0.999999998               0.000012648               0.000074616               0.999999998               0.000015383               0.000079369               0.999999998               0.000018550               0.000085648               0.999999998               0.000022270               0.000092975               0.999999998               0.000026599               0.000101070               0.999999998               0.000031588               0.000109872               0.999999998               0.000037163               0.000119209               0.999999998               0.000043294               0.000128967               0.999999998               0.000049920               0.000139227               0.999999998               0.000057016               0.000149839               0.999999998               0.000064665               0.000160854               0.999999998               0.000072835               0.000172553               0.999999998               0.000081463               0.000184852               0.999999998               0.000090500               0.000197333               0.999999998              -0.000001361               0.000107933               0.999999998               0.000003916               0.000096831               0.999999998               0.000006729               0.000095349               0.999999998               0.000009322               0.000098896               0.999999998               0.000012353               0.000105496               0.999999998               0.000016090               0.000113997               0.999999998               0.000020573               0.000123851               0.999999998               0.000025822               0.000134779               0.999999998               0.000031815               0.000146576               0.999999998               0.000038433               0.000159049               0.999999998               0.000045570               0.000172044               0.999999998               0.000053198               0.000185583               0.999999998               0.000061397               0.000199853               0.999999998               0.000070179               0.000214661               0.999999998               0.000079444               0.000230092               0.999999998               0.000089030               0.000246177               0.999999998               0.000098842               0.000262429               0.999999998              -0.000000994               0.000132931               0.999999998               0.000001298               0.000119218               0.999999998               0.000003201               0.000117859               0.999999998               0.000005867               0.000122757               0.999999998               0.000009513               0.000131250               0.999999998               0.000014124               0.000142066               0.999999998               0.000019722               0.000154515               0.999999998               0.000026147               0.000168218               0.999999998               0.000033297               0.000182984               0.999999998               0.000041038               0.000198525               0.999999998               0.000049333               0.000214798               0.999999998               0.000058201               0.000231707               0.999999998               0.000067593               0.000249499               0.999999998               0.000077518               0.000267971               0.999999998               0.000087810               0.000286920               0.999999998               0.000098274               0.000306209               0.999999998               0.000108883               0.000325840               0.999999998              -0.000000687               0.000156636               0.999999998              -0.000001610               0.000140656               0.999999998              -0.000000375               0.000139701               0.999999998               0.000002708               0.000146048               0.999999998               0.000007266               0.000156459               0.999999998               0.000013059               0.000169570               0.999999998               0.000019907               0.000184614               0.999999998               0.000027604               0.000201131               0.999999998               0.000035960               0.000218764               0.999999998               0.000044950               0.000237405               0.999999998               0.000054490               0.000256915               0.999999998               0.000064582               0.000277243               0.999999998               0.000075171               0.000298561               0.999999998               0.000086067               0.000320658               0.999999998               0.000097163               0.000343017               0.999999998               0.000108424               0.000365640               0.999999998               0.000119915               0.000388815               0.999999998              -0.000000406               0.000178770               0.999999998              -0.000004608               0.000161136               0.999999998              -0.000003675               0.000160799               0.999999998               0.000000166               0.000168564               0.999999998               0.000005860               0.000180901               0.999999998               0.000012934               0.000196366               0.999999998               0.000021099               0.000213997               0.999999998               0.000030073               0.000233269               0.999999998               0.000039656               0.000253769               0.999999998               0.000049846               0.000275558               0.999999998               0.000060457               0.000298461               0.999999998               0.000071592               0.000322487               0.999999998               0.000083103               0.000347547               0.999999998               0.000094893               0.000373185               0.999999998               0.000106851               0.000399075               0.999999998               0.000119093               0.000425399               0.999999998               0.000131667               0.000452417               0.999999998              -0.000000068               0.000198975               0.999999998              -0.000007564               0.000180669               0.999999998              -0.000006412               0.000180957               0.999999998              -0.000001629               0.000190091               0.999999998               0.000005296               0.000204395               0.999999998               0.000013677               0.000222215               0.999999998               0.000023098               0.000242458               0.999999998               0.000033253               0.000264510               0.999999998               0.000043969               0.000288070               0.999999998               0.000055133               0.000313194               0.999999998               0.000066745               0.000339799               0.999999998               0.000078910               0.000367650               0.999999998               0.000091462               0.000396435               0.999999998               0.000104118               0.000425852               0.999999998               0.000116946               0.000455746               0.999999998               0.000130128               0.000486213               0.999999998               0.000143557               0.000517138               0.999999998               0.000000566               0.000217891               0.999999998              -0.000009434               0.000200956               0.999999998              -0.000009481               0.000199284               0.999999998              -0.000005550               0.000206034               0.999999998               0.000000531               0.000217944               0.999999998               0.000007953               0.000233473               0.999999998               0.000016468               0.000251527               0.999999998               0.000025557               0.000271451               0.999999998               0.000035028               0.000292891               0.999999998               0.000044880               0.000315746               0.999999998               0.000055086               0.000340024               0.999999998               0.000065758               0.000365581               0.999999998               0.000076838               0.000392355               0.999999998               0.000088059               0.000420024               0.999999998               0.000099212               0.000448389               0.999999998               0.000110436               0.000477330               0.999999998               0.000121809               0.000506946               0.999999998               0.000000964               0.000235020               0.999999998              -0.000010405               0.000220364               0.999999998              -0.000011657               0.000217819               0.999999998              -0.000008780               0.000222671               0.999999998              -0.000003732               0.000232494               0.999999998               0.000002661               0.000245848               0.999999998               0.000010117               0.000261894               0.999999998               0.000018081               0.000279887               0.999999998               0.000026404               0.000299410               0.999999998               0.000034964               0.000320193               0.999999998               0.000043919               0.000342282               0.999999998               0.000053111               0.000365635               0.999999998               0.000062555               0.000390262               0.999999998               0.000072141               0.000416033               0.999999998               0.000081685               0.000442681               0.999999998               0.000091139               0.000469946               0.999999998               0.000100594               0.000497830               0.999999998               0.000001162               0.000249986               0.999999998              -0.000010444               0.000238364               0.999999998              -0.000012654               0.000235796               0.999999998              -0.000010902               0.000239399               0.999999998              -0.000006990               0.000247538               0.999999998              -0.000001740               0.000259088               0.999999998               0.000004487               0.000273307               0.999999998               0.000011282               0.000289583               0.999999998               0.000018362               0.000307427               0.999999998               0.000025810               0.000326536               0.999999998               0.000033456               0.000346755               0.999999998               0.000041213               0.000368212               0.999999998               0.000048965               0.000390933               0.999999998               0.000056847               0.000414817               0.999999998               0.000064545               0.000439728               0.999999998               0.000072029               0.000465332               0.999999998               0.000079188               0.000491575               0.999999998               0.000001158               0.000262527               0.999999998              -0.000009583               0.000254303               0.999999998              -0.000012346               0.000252334               0.999999998              -0.000011581               0.000255382               0.999999998              -0.000008770               0.000262315               0.999999998              -0.000004759               0.000272453               0.999999998               0.000000168               0.000285091               0.999999998               0.000005690               0.000299898               0.999999998               0.000011587               0.000316312               0.999999998               0.000017744               0.000334003               0.999999998               0.000024099               0.000352828               0.999999998               0.000030437               0.000372769               0.999999998               0.000036597               0.000393844               0.999999998               0.000042575               0.000416166               0.999999998               0.000048354               0.000439578               0.999999998               0.000053728               0.000463791               0.999999998               0.000058557               0.000488650               0.999999998               0.000001000               0.000272437               0.999999998              -0.000007940               0.000267518               0.999999998              -0.000010708               0.000266523               0.999999998              -0.000010602               0.000269459               0.999999998              -0.000008833               0.000275777               0.999999998              -0.000005951               0.000284855               0.999999998              -0.000002343               0.000296309               0.999999998               0.000001860               0.000309845               0.999999998               0.000006433               0.000325149               0.999999998               0.000011167               0.000341838               0.999999998               0.000016065               0.000359641               0.999999998               0.000020916               0.000378579               0.999999998               0.000025524               0.000398565               0.999999998               0.000029715               0.000419729               0.999999998               0.000033600               0.000441946               0.999999998               0.000037047               0.000465019               0.999999998               0.000039660               0.000488780               0.999999998               0.000000738               0.000279614               0.999999998              -0.000005641               0.000277357               0.999999998              -0.000007879               0.000277462               0.999999998              -0.000008102               0.000280596               0.999999998              -0.000007104               0.000286572               0.999999998              -0.000005278               0.000295077               0.999999998              -0.000002940               0.000305795               0.999999998              -0.000000132               0.000318473               0.999999998               0.000002996               0.000332987               0.999999998               0.000006260               0.000348934               0.999999998               0.000009462               0.000366119               0.999999998               0.000012639               0.000384535               0.999999998               0.000015762               0.000403981               0.999999998               0.000018563               0.000424397               0.999999998               0.000020821               0.000445809               0.999999998               0.000022649               0.000468135               0.999999998               0.000023586               0.000491198               0.999999998               0.000000390               0.000283965               0.999999998              -0.000002912               0.000283458               0.999999998              -0.000004170               0.000284349               0.999999998              -0.000004387               0.000287748               0.999999998              -0.000003977               0.000293671               0.999999998              -0.000003121               0.000301903               0.999999998              -0.000001975               0.000312228               0.999999998              -0.000000541               0.000324413               0.999999998               0.000001097               0.000338401               0.999999998               0.000002750               0.000353957               0.999999998               0.000004228               0.000370871               0.999999998               0.000005772               0.000388939               0.999999998               0.000007547               0.000408052               0.999999998               0.000008967               0.000428144               0.999999998               0.000009916               0.000449197               0.999999998               0.000010589               0.000471145               0.999999998               0.000010805               0.000493880               0.999999998               0.000000000               0.000285356               0.999999998               0.000000000               0.000285485               0.999999998               0.000000000               0.000286718               0.999999998              -0.000000000               0.000290229               0.999999998              -0.000000000               0.000296116               0.999999998               0.000000000               0.000304250               0.999999998               0.000000000               0.000314519               0.999999998              -0.000000000               0.000326581               0.999999998               0.000000000               0.000340315               0.999999998              -0.000000000               0.000355758               0.999999998              -0.000000000               0.000372653               0.999999998               0.000000000               0.000390579               0.999999998               0.000000000               0.000409553               0.999999998              -0.000000000               0.000429560               0.999999998              -0.000000000               0.000450526               0.999999998               0.000000000               0.000472379               0.999999998               0.000000000               0.000495046               0.999999998 </DataArray>
<DataArray type="Float64"                                    Name="defo"                                                      NumberOfComponents=" 3" format="ascii">
              0.000002398               0.000000000               0.999999998              -0.000008837              -0.000000000               0.999999998              -0.000014493              -0.000000000               0.999999998              -0.000017964              -0.000000000               0.999999998              -0.000020661              -0.000000000               0.999999998              -0.000023314               0.000000000               0.999999998              -0.000026249              -0.000000000               0.999999998              -0.000029559              -0.000000000               0.999999998              -0.000033282               0.000000000               0.999999998              -0.000037507              -0.000000000               0.999999998              -0.000042213               0.000000000               0.999999998              -0.000047426              -0.000000000               0.999999998              -0.000053134              -0.000000000               0.999999998              -0.000059291               0.000000000               0.999999998              -0.000065955              -0.000000000               0.999999998              -0.000073150              -0.000000000               0.999999998              -0.000080885               0.000000000               0.999999998               0.000002324               0.000027646               0.999999998              -0.000008527               0.000024903               0.999999998              -0.000013958               0.000024332               0.999999998              -0.000017330               0.000025023               0.999999998              -0.000019987               0.000026504               0.999999998              -0.000022670               0.000028491               0.999999998              -0.000025644               0.000030915               0.999999998              -0.000029035               0.000033607               0.999999998              -0.000032939               0.000036502               0.999999998              -0.000037332               0.000039616               0.999999998              -0.000042215               0.000042877               0.999999998              -0.000047588               0.000046350               0.999999998              -0.000053462               0.000049900               0.999999998              -0.000059791               0.000053565               0.999999998              -0.000066595               0.000057462               0.999999998              -0.000073937               0.000061505               0.999999998              -0.000081803               0.000065524               0.999999998               0.000002127               0.000055041               0.999999998              -0.000007599               0.000049498               0.999999998              -0.000012376               0.000048465               0.999999998              -0.000015461               0.000049949               0.999999998              -0.000018111               0.000053006               0.999999998              -0.000020906               0.000057120               0.999999998              -0.000024131               0.000061928               0.999999998              -0.000027896               0.000067338               0.999999998              -0.000032199               0.000073190               0.999999998              -0.000037002               0.000079431               0.999999998              -0.000042349               0.000085945               0.999999998              -0.000048209               0.000092794               0.999999998              -0.000054566               0.000099877               0.999999998              -0.000061387               0.000107165               0.999999998              -0.000068662               0.000114951               0.999999998              -0.000076437               0.000123163               0.999999998              -0.000084723               0.000131369               0.999999998               0.000001784               0.000081896               0.999999998              -0.000006063               0.000073540               0.999999998              -0.000009896               0.000072184               0.999999998              -0.000012648               0.000074616               0.999999998              -0.000015383               0.000079369               0.999999998              -0.000018550               0.000085648               0.999999998              -0.000022270               0.000092975               0.999999998              -0.000026599               0.000101070               0.999999998              -0.000031588               0.000109872               0.999999998              -0.000037163               0.000119209               0.999999998              -0.000043294               0.000128967               0.999999998              -0.000049920               0.000139227               0.999999998              -0.000057016               0.000149839               0.999999998              -0.000064665               0.000160854               0.999999998              -0.000072835               0.000172553               0.999999998              -0.000081463               0.000184852               0.999999998              -0.000090500               0.000197333               0.999999998               0.000001361               0.000107933               0.999999998              -0.000003916               0.000096831               0.999999998              -0.000006729               0.000095349               0.999999998              -0.000009322               0.000098896               0.999999998              -0.000012353               0.000105496               0.999999998              -0.000016090               0.000113997               0.999999998              -0.000020573               0.000123851               0.999999998              -0.000025822               0.000134779               0.999999998              -0.000031815               0.000146576               0.999999998              -0.000038433               0.000159049               0.999999998              -0.000045570               0.000172044               0.999999998              -0.000053198               0.000185583               0.999999998              -0.000061397               0.000199853               0.999999998              -0.000070179               0.000214661               0.999999998              -0.000079444               0.000230092               0.999999998              -0.000089030               0.000246177               0.999999998              -0.000098842               0.000262429               0.999999998               0.000000994               0.000132931               0.999999998              -0.000001298               0.000119218               0.999999998              -0.000003201               0.000117859               0.999999998              -0.000005867               0.000122757               0.999999998              -0.000009513               0.000131250               0.999999998              -0.000014124               0.000142066               0.999999998              -0.000019722               0.000154515               0.999999998              -0.000026147               0.000168218               0.999999998              -0.000033297               0.000182984               0.999999998              -0.000041038               0.000198525               0.999999998              -0.000049333               0.000214798               0.999999998              -0.000058201               0.000231707               0.999999998              -0.000067593               0.000249499               0.999999998              -0.000077518               0.000267971               0.999999998              -0.000087810               0.000286920               0.999999998              -0.000098274               0.000306209               0.999999998              -0.000108883               0.000325840               0.999999998               0.000000687               0.000156636               0.999999998               0.000001610               0.000140656               0.999999998               0.000000375               0.000139701               0.999999998              -0.000002708               0.000146048               0.999999998              -0.000007266               0.000156459               0.999999998              -0.000013059               0.000169570               0.999999998              -0.000019907               0.000184614               0.999999998              -0.000027604               0.000201131               0.999999998              -0.000035960               0.000218764               0.999999998              -0.000044950               0.000237405               0.999999998              -0.000054490               0.000256915               0.999999998              -0.000064582               0.000277243               0.999999998              -0.000075171               0.000298561               0.999999998              -0.000086067               0.000320658               0.999999998              -0.000097163               0.000343017               0.999999998              -0.000108424               0.000365640               0.999999998              -0.000119915               0.000388815               0.999999998               0.000000406               0.000178770               0.999999998               0.000004608               0.000161136               0.999999998               0.000003675               0.000160799               0.999999998              -0.000000166               0.000168564               0.999999998              -0.000005860               0.000180901               0.999999998              -0.000012934               0.000196366               0.999999998              -0.000021099               0.000213997               0.999999998              -0.000030073               0.000233269               0.999999998              -0.000039656               0.000253769               0.999999998              -0.000049846               0.000275558               0.999999998              -0.000060457               0.000298461               0.999999998              -0.000071592               0.000322487               0.999999998              -0.000083103               0.000347547               0.999999998              -0.000094893               0.000373185               0.999999998              -0.000106851               0.000399075               0.999999998              -0.000119093               0.000425399               0.999999998              -0.000131667               0.000452417               0.999999998               0.000000068               0.000198975               0.999999998               0.000007564               0.000180669               0.999999998               0.000006412               0.000180957               0.999999998               0.000001629               0.000190091               0.999999998              -0.000005296               0.000204395               0.999999998              -0.000013677               0.000222215               0.999999998              -0.000023098               0.000242458               0.999999998              -0.000033253               0.000264510               0.999999998              -0.000043969               0.000288070               0.999999998              -0.000055133               0.000313194               0.999999998              -0.000066745               0.000339799               0.999999998              -0.000078910               0.000367650               0.999999998              -0.000091462               0.000396435               0.999999998              -0.000104118               0.000425852               0.999999998              -0.000116946               0.000455746               0.999999998              -0.000130128               0.000486213               0.999999998              -0.000143557               0.000517138               0.999999998              -0.000000566               0.000217891               0.999999998               0.000009434               0.000200956               0.999999998               0.000009481               0.000199284               0.999999998               0.000005550               0.000206034               0.999999998              -0.000000531               0.000217944               0.999999998              -0.000007953               0.000233473               0.999999998              -0.000016468               0.000251527               0.999999998              -0.000025557               0.000271451               0.999999998              -0.000035028               0.000292891               0.999999998              -0.000044880               0.000315746               0.999999998              -0.000055086               0.000340024               0.999999998              -0.000065758               0.000365581               0.999999998              -0.000076838               0.000392355               0.999999998              -0.000088059               0.000420024               0.999999998              -0.000099212               0.000448389               0.999999998              -0.000110436               0.000477330               0.999999998              -0.000121809               0.000506946               0.999999998              -0.000000964               0.000235020               0.999999998               0.000010405               0.000220364               0.999999998               0.000011657               0.000217819               0.999999998               0.000008780               0.000222671               0.999999998               0.000003732               0.000232494               0.999999998              -0.000002661               0.000245848               0.999999998              -0.000010117               0.000261894               0.999999998              -0.000018081               0.000279887               0.999999998              -0.000026404               0.000299410               0.999999998              -0.000034964               0.000320193               0.999999998              -0.000043919               0.000342282               0.999999998              -0.000053111               0.000365635               0.999999998              -0.000062555               0.000390262               0.999999998              -0.000072141               0.000416033               0.999999998              -0.000081685               0.000442681               0.999999998              -0.000091139               0.000469946               0.999999998              -0.000100594               0.000497830               0.999999998              -0.000001162               0.000249986               0.999999998               0.000010444               0.000238364               0.999999998               0.000012654               0.000235796               0.999999998               0.000010902               0.000239399               0.999999998               0.000006990               0.000247538               0.999999998               0.000001740               0.000259088               0.999999998              -0.000004487               0.000273307               0.999999998              -0.000011282               0.000289583               0.999999998              -0.000018362               0.000307427               0.999999998              -0.000025810               0.000326536               0.999999998              -0.000033456               0.000346755               0.999999998              -0.000041213               0.000368212               0.999999998              -0.000048965               0.000390933               0.999999998              -0.000056847               0.000414817               0.999999998              -0.000064545               0.000439728               0.999999998              -0.000072029               0.000465332               0.999999998              -0.000079188               0.000491575               0.999999998              -0.000001158               0.000262527               0.999999998               0.000009583               0.000254303               0.999999998               0.000012346               0.000252334               0.999999998               0.000011581               0.000255382               0.999999998               0.000008770               0.000262315               0.999999998               0.000004759               0.000272453               0.999999998              -0.000000168               0.000285091               0.999999998              -0.000005690               0.000299898               0.999999998              -0.000011587               0.000316312               0.999999998              -0.000017744               0.000334003               0.999999998              -0.000024099               0.000352828               0.999999998              -0.000030437               0.000372769               0.999999998              -0.000036597               0.000393844               0.999999998              -0.000042575               0.000416166               0.999999998              -0.000048354               0.000439578               0.999999998              -0.000053728               0.000463791               0.999999998              -0.000058557               0.000488650               0.999999998              -0.000001000               0.000272437               0.999999998               0.000007940               0.000267518               0.999999998               0.000010708               0.000266523               0.999999998               0.000010602               0.000269459               0.999999998               0.000008833               0.000275777               0.999999998               0.000005951               0.000284855               0.999999998               0.000002343               0.000296309               0.999999998              -0.000001860               0.000309845               0.999999998              -0.000006433               0.000325149               0.999999998              -0.000011167               0.000341838               0.999999998              -0.000016065               0.000359641               0.999999998              -0.000020916               0.000378579               0.999999998              -0.000025524               0.000398565               0.999999998              -0.000029715               0.000419729               0.999999998              -0.000033600               0.000441946               0.999999998              -0.000037047               0.000465019               0.999999998              -0.000039660               0.000488780               0.999999998              -0.000000738               0.000279614               0.999999998               0.000005641               0.000277357               0.999999998               0.000007879               0.000277462               0.999999998               0.000008102               0.000280596               0.999999998               0.000007104               0.000286572               0.999999998               0.000005278               0.000295077               0.999999998               0.000002940               0.000305795               0.999999998               0.000000132               0.000318473               0.999999998              -0.000002996               0.000332987               0.999999998              -0.000006260               0.000348934               0.999999998              -0.000009462               0.000366119               0.999999998              -0.000012639               0.000384535               0.999999998              -0.000015762               0.000403981               0.999999998              -0.000018563               0.000424397               0.999999998              -0.000020821               0.000445809               0.999999998              -0.000022649               0.000468135               0.999999998              -0.000023586               0.000491198               0.999999998              -0.000000390               0.000283965               0.999999998               0.000002912               0.000283458               0.999999998               0.000004170               0.000284349               0.999999998               0.000004387               0.000287748               0.999999998               0.000003977               0.000293671               0.999999998               0.000003121               0.000301903               0.999999998               0.000001975               0.000312228               0.999999998               0.000000541               0.000324413               0.999999998              -0.000001097               0.000338401               0.999999998              -0.000002750               0.000353957               0.999999998              -0.000004228               0.000370871               0.999999998              -0.000005772               0.000388939               0.999999998              -0.000007547               0.000408052               0.999999998              -0.000008967               0.000428144               0.999999998              -0.000009916               0.000449197               0.999999998              -0.000010589               0.000471145               0.999999998              -0.000010805               0.000493880               0.999999998               0.000000000               0.000285356               0.999999998               0.000000000               0.000285485               0.999999998               0.000000000               0.000286718               0.999999998              -0.000000000               0.000290229               0.999999998              -0.000000000               0.000296116               0.999999998               0.000000000               0.000304250               0.999999998               0.000000000               0.000314519               0.999999998              -0.000000000               0.000326581               0.999999998               0.000000000               0.000340315               0.999999998              -0.000000000               0.000355758               0.999999998              -0.000000000               0.000372653               0.999999998               0.000000000               0.000390579               0.999999998               0.000000000               0.000409553               0.999999998              -0.000000000               0.000429560               0.999999998              -0.000000000               0.000450526               0.999999998               0.000000000               0.000472379               0.999999998               0.000000000               0.000495046               0.999999998               0.000002398               0.000000000               0.999999998              -0.000008837              -0.000000000               0.999999998              -0.000014493              -0.000000000               0.999999998              -0.000017964              -0.000000000               0.999999998              -0.000020661              -0.000000000               0.999999998              -0.000023314               0.000000000               0.999999998              -0.000026249              -0.000000000               0.999999998              -0.000029559              -0.000000000               0.999999998              -0.000033282               0.000000000               0.999999998              -0.000037507              -0.000000000               0.999999998              -0.000042213               0.000000000               0.999999998              -0.000047426              -0.000000000               0.999999998              -0.000053134              -0.000000000               0.999999998              -0.000059291               0.000000000               0.999999998              -0.000065955              -0.000000000               0.999999998              -0.000073150              -0.000000000               0.999999998              -0.000080885               0.000000000               0.999999998               0.000002324              -0.000027646               0.999999998              -0.000008527              -0.000024903               0.999999998              -0.000013958              -0.000024332               0.999999998              -0.000017330              -0.000025023               0.999999998              -0.000019987              -0.000026504               0.999999998              -0.000022670              -0.000028491               0.999999998              -0.000025644              -0.000030915               0.999999998              -0.000029035              -0.000033607               0.999999998              -0.000032939              -0.000036502               0.999999998              -0.000037332              -0.000039616               0.999999998              -0.000042215              -0.000042877               0.999999998              -0.000047588              -0.000046350               0.999999998              -0.000053462              -0.000049900               0.999999998              -0.000059791              -0.000053565               0.999999998              -0.000066595              -0.000057462               0.999999998              -0.000073937              -0.000061505               0.999999998              -0.000081803              -0.000065524               0.999999998               0.000002127              -0.000055041               0.999999998              -0.000007599              -0.000049498               0.999999998              -0.000012376              -0.000048465               0.999999998              -0.000015461              -0.000049949               0.999999998              -0.000018111              -0.000053006               0.999999998              -0.000020906              -0.000057120               0.999999998              -0.000024131              -0.000061928               0.999999998              -0.000027896              -0.000067338               0.999999998              -0.000032199              -0.000073190               0.999999998              -0.000037002              -0.000079431               0.999999998              -0.000042349              -0.000085945               0.999999998              -0.000048209              -0.000092794               0.999999998              -0.000054566              -0.000099877               0.999999998              -0.000061387              -0.000107165               0.999999998              -0.000068662              -0.000114951               0.999999998              -0.000076437              -0.000123163               0.999999998              -0.000084723              -0.000131369               0.999999998               0.000001784              -0.000081896               0.999999998              -0.000006063              -0.000073540               0.999999998              -0.000009896              -0.000072184               0.999999998              -0.000012648              -0.000074616               0.999999998              -0.000015383              -0.000079369               0.999999998              -0.000018550              -0.000085648               0.999999998              -0.000022270              -0.000092975               0.999999998              -0.000026599              -0.000101070               0.999999998              -0.000031588              -0.000109872               0.999999998              -0.000037163              -0.000119209               0.999999998              -0.000043294              -0.000128967               0.999999998              -0.000049920              -0.000139227               0.999999998              -0.000057016              -0.000149839               0.999999998              -0.000064665              -0.000160854               0.999999998              -0.000072835              -0.000172553               0.999999998              -0.000081463              -0.000184852               0.999999998              -0.000090500              -0.000197333               0.999999998               0.000001361              -0.000107933               0.999999998              -0.000003916              -0.000096831               0.999999998              -0.000006729              -0.000095349               0.999999998              -0.000009322              -0.000098896               0.999999998              -0.000012353              -0.000105496               0.999999998              -0.000016090              -0.000113997               0.999999998              -0.000020573              -0.000123851               0.999999998              -0.000025822              -0.000134779               0.999999998              -0.000031815              -0.000146576               0.999999998              -0.000038433              -0.000159049               0.999999998              -0.000045570              -0.000172044               0.999999998              -0.000053198              -0.000185583               0.999999998              -0.000061397              -0.000199853               0.999999998              -0.000070179              -0.000214661               0.999999998              -0.000079444              -0.000230092               0.999999998              -0.000089030              -0.000246177               0.999999998              -0.000098842              -0.000262429               0.999999998               0.000000994              -0.000132931               0.999999998              -0.000001298              -0.000119218               0.999999998              -0.000003201              -0.000117859               0.999999998              -0.000005867              -0.000122757               0.999999998              -0.000009513              -0.000131250               0.999999998              -0.000014124              -0.000142066               0.999999998              -0.000019722              -0.000154515               0.999999998              -0.000026147              -0.000168218               0.999999998              -0.000033297              -0.000182984               0.999999998              -0.000041038              -0.000198525               0.999999998              -0.000049333              -0.000214798               0.999999998              -0.000058201              -0.000231707               0.999999998              -0.000067593              -0.000249499               0.999999998              -0.000077518              -0.000267971               0.999999998              -0.000087810              -0.000286920               0.999999998              -0.000098274              -0.000306209               0.999999998              -0.000108883              -0.000325840               0.999999998               0.000000687              -0.000156636               0.999999998               0.000001610              -0.000140656               0.999999998               0.000000375              -0.000139701               0.999999998              -0.000002708              -0.000146048               0.999999998              -0.000007266              -0.000156459               0.999999998              -0.000013059              -0.000169570               0.999999998              -0.000019907              -0.000184614               0.999999998              -0.000027604              -0.000201131               0.999999998              -0.000035960              -0.000218764               0.999999998              -0.000044950              -0.000237405               0.999999998              -0.000054490              -0.000256915               0.999999998              -0.000064582              -0.000277243               0.999999998              -0.000075171              -0.000298561               0.999999998              -0.000086067              -0.000320658               0.999999998              -0.000097163              -0.000343017               0.999999998              -0.000108424              -0.000365640               0.999999998              -0.000119915              -0.000388815               0.999999998               0.000000406              -0.000178770               0.999999998               0.000004608              -0.000161136               0.999999998               0.000003675              -0.000160799               0.999999998              -0.000000166              -0.000168564               0.999999998              -0.000005860              -0.000180901               0.999999998              -0.000012934              -0.000196366               0.999999998              -0.000021099              -0.000213997               0.999999998              -0.000030073              -0.000233269               0.999999998              -0.000039656              -0.000253769               0.999999998              -0.000049846              -0.000275558               0.999999998              -0.000060457              -0.000298461               0.999999998              -0.000071592              -0.000322487               0.999999998              -0.000083103              -0.000347547               0.999999998              -0.000094893              -0.000373185               0.999999998              -0.000106851              -0.000399075               0.999999998              -0.000119093              -0.000425399               0.999999998              -0.000131667              -0.000452417               0.999999998               0.000000068              -0.000198975               0.999999998               0.000007564              -0.000180669               0.999999998               0.000006412              -0.000180957               0.999999998               0.000001629              -0.000190091               0.999999998              -0.000005296              -0.000204395               0.999999998              -0.000013677              -0.000222215               0.999999998              -0.000023098              -0.000242458               0.999999998              -0.000033253              -0.000264510               0.999999998              -0.000043969              -0.000288070               0.999999998              -0.000055133              -0.000313194               0.999999998              -0.000066745              -0.000339799               0.999999998              -0.000078910              -0.000367650               0.999999998              -0.000091462              -0.000396435               0.999999998              -0.000104118              -0.000425852               0.999999998              -0.000116946              -0.000455746               0.999999998              -0.000130128              -0.000486213               0.999999998              -0.000143557              -0.000517138               0.999999998              -0.000000566              -0.000217891               0.999999998               0.000009434              -0.000200956               0.999999998               0.000009481              -0.000199284               0.999999998               0.000005550              -0.000206034               0.999999998              -0.000000531              -0.000217944               0.999999998              -0.000007953              -0.000233473               0.999999998              -0.000016468              -0.000251527               0.999999998              -0.000025557              -0.000271451               0.999999998              -0.000035028              -0.000292891               0.999999998              -0.000044880              -0.000315746               0.999999998              -0.000055086              -0.000340024               0.999999998              -0.000065758              -0.000365581               0.999999998              -0.000076838              -0.000392355               0.999999998              -0.000088059              -0.000420024               0.999999998              -0.000099212              -0.000448389               0.999999998              -0.000110436              -0.000477330               0.999999998              -0.000121809              -0.000506946               0.999999998              -0.000000964              -0.000235020               0.999999998               0.000010405              -0.000220364               0.999999998               0.000011657              -0.000217819               0.999999998               0.000008780              -0.000222671               0.999999998               0.000003732              -0.000232494               0.999999998              -0.000002661              -0.000245848               0.999999998              -0.000010117              -0.000261894               0.999999998              -0.000018081              -0.000279887               0.999999998              -0.000026404              -0.000299410               0.999999998              -0.000034964              -0.000320193               0.999999998              -0.000043919              -0.000342282               0.999999998              -0.000053111              -0.000365635               0.999999998              -0.000062555              -0.000390262               0.999999998              -0.000072141              -0.000416033               0.999999998              -0.000081685              -0.000442681               0.999999998              -0.000091139              -0.000469946               0.999999998              -0.000100594              -0.000497830               0.999999998              -0.000001162              -0.000249986               0.999999998               0.000010444              -0.000238364               0.999999998               0.000012654              -0.000235796               0.999999998               0.000010902              -0.000239399               0.999999998               0.000006990              -0.000247538               0.999999998               0.000001740              -0.000259088               0.999999998              -0.000004487              -0.000273307               0.999999998              -0.000011282              -0.000289583               0.999999998              -0.000018362              -0.000307427               0.999999998              -0.000025810              -0.000326536               0.999999998              -0.000033456              -0.000346755               0.999999998              -0.000041213              -0.000368212               0.999999998              -0.000048965              -0.000390933               0.999999998              -0.000056847              -0.000414817               0.999999998              -0.000064545              -0.000439728               0.999999998              -0.000072029              -0.000465332               0.999999998              -0.000079188              -0.000491575               0.999999998              -0.000001158              -0.000262527               0.999999998               0.000009583              -0.000254303               0.999999998               0.000012346              -0.000252334               0.999999998               0.000011581              -0.000255382               0.999999998               0.000008770              -0.000262315               0.999999998               0.000004759              -0.000272453               0.999999998              -0.000000168              -0.000285091               0.999999998              -0.000005690              -0.000299898               0.999999998              -0.000011587              -0.000316312               0.999999998              -0.000017744              -0.000334003               0.999999998              -0.000024099              -0.000352828               0.999999998              -0.000030437              -0.000372769               0.999999998              -0.000036597              -0.000393844               0.999999998              -0.000042575              -0.000416166               0.999999998              -0.000048354              -0.000439578               0.999999998              -0.000053728              -0.000463791               0.999999998              -0.000058557              -0.000488650               0.999999998              -0.000001000              -0.000272437               0.999999998               0.000007940              -0.000267518               0.999999998               0.000010708              -0.000266523               0.999999998               0.000010602              -0.000269459               0.999999998               0.000008833              -0.000275777               0.999999998               0.000005951              -0.000284855               0.999999998               0.000002343              -0.000296309               0.999999998              -0.000001860              -0.000309845               0.999999998              -0.000006433              -0.000325149               0.999999998              -0.000011167              -0.000341838               0.999999998              -0.000016065              -0.000359641               0.999999998              -0.000020916              -0.000378579               0.999999998              -0.000025524              -0.000398565               0.999999998              -0.000029715              -0.000419729               0.999999998              -0.000033600              -0.000441946               0.999999998              -0.000037047              -0.000465019               0.999999998              -0.000039660              -0.000488780               0.999999998              -0.000000738              -0.000279614               0.999999998               0.000005641              -0.000277357               0.999999998               0.000007879              -0.000277462               0.999999998               0.000008102              -0.000280596               0.999999998               0.000007104              -0.000286572               0.999999998               0.000005278              -0.000295077               0.999999998               0.000002940              -0.000305795               0.999999998               0.000000132              -0.000318473               0.999999998              -0.000002996              -0.000332987               0.999999998              -0.000006260              -0.000348934               0.999999998              -0.000009462              -0.000366119               0.999999998              -0.000012639              -0.000384535               0.999999998              -0.000015762              -0.000403981               0.999999998              -0.000018563              -0.000424397               0.999999998              -0.000020821              -0.000445809               0.999999998              -0.000022649              -0.000468135               0.999999998              -0.000023586              -0.000491198               0.999999998              -0.000000390              -0.000283965               0.999999998               0.000002912              -0.000283458               0.999999998               0.000004170              -0.000284349               0.999999998               0.000004387              -0.000287748               0.999999998               0.000003977              -0.000293671               0.999999998               0.000003121              -0.000301903               0.999999998               0.000001975              -0.000312228               0.999999998               0.000000541              -0.000324413               0.999999998              -0.000001097              -0.000338401               0.999999998              -0.000002750              -0.000353957               0.999999998              -0.000004228              -0.000370871               0.999999998              -0.000005772              -0.000388939               0.999999998              -0.000007547              -0.000408052               0.999999998              -0.000008967              -0.000428144               0.999999998              -0.000009916              -0.000449197               0.999999998              -0.000010589              -0.000471145               0.999999998              -0.000010805              -0.000493880               0.999999998              -0.000000000              -0.000285356               0.999999998               0.000000000              -0.000285485               0.999999998               0.000000000              -0.000286718               0.999999998              -0.000000000              -0.000290229               0.999999998              -0.000000000              -0.000296116               0.999999998              -0.000000000              -0.000304250               0.999999998              -0.000000000              -0.000314519               0.999999998              -0.000000000              -0.000326581               0.999999998              -0.000000000              -0.000340315               0.999999998              -0.000000000              -0.000355758               0.999999998              -0.000000000              -0.000372653               0.999999998               0.000000000              -0.000390579               0.999999998               0.000000000              -0.000409553               0.999999998               0.000000000              -0.000429560               0.999999998               0.000000000              -0.000450526               0.999999998               0.000000000              -0.000472379               0.999999998               0.000000000              -0.000495046               0.999999998              -0.000002398               0.000000000               0.999999998               0.000008837              -0.000000000               0.999999998               0.000014493              -0.000000000               0.999999998               0.000017964               0.000000000               0.999999998               0.000020661               0.000000000               0.999999998               0.000023314               0.000000000               0.999999998               0.000026249               0.000000000               0.999999998               0.000029559              -0.000000000               0.999999998               0.000033282              -0.000000000               0.999999998               0.000037507               0.000000000               0.999999998               0.000042213               0.000000000               0.999999998               0.000047426              -0.000000000               0.999999998               0.000053134               0.000000000               0.999999998               0.000059291               0.000000000               0.999999998               0.000065955              -0.000000000               0.999999998               0.000073150               0.000000000               0.999999998               0.000080885               0.000000000               0.999999998              -0.000002324              -0.000027646               0.999999998               0.000008527              -0.000024903               0.999999998               0.000013958              -0.000024332               0.999999998               0.000017330              -0.000025023               0.999999998               0.000019987              -0.000026504               0.999999998               0.000022670              -0.000028491               0.999999998               0.000025644              -0.000030915               0.999999998               0.000029035              -0.000033607               0.999999998               0.000032939              -0.000036502               0.999999998               0.000037332              -0.000039616               0.999999998               0.000042215              -0.000042877               0.999999998               0.000047588              -0.000046350               0.999999998               0.000053462              -0.000049900               0.999999998               0.000059791              -0.000053565               0.999999998               0.000066595              -0.000057462               0.999999998               0.000073937              -0.000061505               0.999999998               0.000081803              -0.000065524               0.999999998              -0.000002127              -0.000055041               0.999999998               0.000007599              -0.000049498               0.999999998               0.000012376              -0.000048465               0.999999998               0.000015461              -0.000049949               0.999999998               0.000018111              -0.000053006               0.999999998               0.000020906              -0.000057120               0.999999998               0.000024131              -0.000061928               0.999999998               0.000027896              -0.000067338               0.999999998               0.000032199              -0.000073190               0.999999998               0.000037002              -0.000079431               0.999999998               0.000042349              -0.000085945               0.999999998               0.000048209              -0.000092794               0.999999998               0.000054566              -0.000099877               0.999999998               0.000061387              -0.000107165               0.999999998               0.000068662              -0.000114951               0.999999998               0.000076437              -0.000123163               0.999999998               0.000084723              -0.000131369               0.999999998              -0.000001784              -0.000081896               0.999999998               0.000006063              -0.000073540               0.999999998               0.000009896              -0.000072184               0.999999998               0.000012648              -0.000074616               0.999999998               0.000015383              -0.000079369               0.999999998               0.000018550              -0.000085648               0.999999998               0.000022270              -0.000092975               0.999999998               0.000026599              -0.000101070               0.999999998               0.000031588              -0.000109872               0.999999998               0.000037163              -0.000119209               0.999999998               0.000043294              -0.000128967               0.999999998               0.000049920              -0.000139227               0.999999998               0.000057016              -0.000149839               0.999999998               0.000064665              -0.000160854               0.999999998               0.000072835              -0.000172553               0.999999998               0.000081463              -0.000184852               0.999999998               0.000090500              -0.000197333               0.999999998              -0.000001361              -0.000107933               0.999999998               0.000003916              -0.000096831               0.999999998               0.000006729              -0.000095349               0.999999998               0.000009322              -0.000098896               0.999999998               0.000012353              -0.000105496               0.999999998               0.000016090              -0.000113997               0.999999998               0.000020573              -0.000123851               0.999999998               0.000025822              -0.000134779               0.999999998               0.000031815              -0.000146576               0.999999998               0.000038433              -0.000159049               0.999999998               0.000045570              -0.000172044               0.999999998               0.000053198              -0.000185583               0.999999998               0.000061397              -0.000199853               0.999999998               0.000070179              -0.000214661               0.999999998               0.000079444              -0.000230092               0.999999998               0.000089030              -0.000246177               0.999999998               0.000098842              -0.000262429               0.999999998              -0.000000994              -0.000132931               0.999999998               0.000001298              -0.000119218               0.999999998               0.000003201              -0.000117859               0.999999998               0.000005867              -0.000122757               0.999999998               0.000009513              -0.000131250               0.999999998               0.000014124              -0.000142066               0.999999998               0.000019722              -0.000154515               0.999999998               0.000026147              -0.000168218               0.999999998               0.000033297              -0.000182984               0.999999998               0.000041038              -0.000198525               0.999999998               0.000049333              -0.000214798               0.999999998               0.000058201              -0.000231707               0.999999998               0.000067593              -0.000249499               0.999999998               0.000077518              -0.000267971               0.999999998               0.000087810              -0.000286920               0.999999998               0.000098274              -0.000306209               0.999999998               0.000108883              -0.000325840               0.999999998              -0.000000687              -0.000156636               0.999999998              -0.000001610              -0.000140656               0.999999998              -0.000000375              -0.000139701               0.999999998               0.000002708              -0.000146048               0.999999998               0.000007266              -0.000156459               0.999999998               0.000013059              -0.000169570               0.999999998               0.000019907              -0.000184614               0.999999998               0.000027604              -0.000201131               0.999999998               0.000035960              -0.000218764               0.999999998               0.000044950              -0.000237405               0.999999998               0.000054490              -0.000256915               0.999999998               0.000064582              -0.000277243               0.999999998               0.000075171              -0.000298561               0.999999998               0.000086067              -0.000320658               0.999999998               0.000097163              -0.000343017               0.999999998               0.000108424              -0.000365640               0.999999998               0.000119915              -0.000388815               0.999999998              -0.000000406              -0.000178770               0.999999998              -0.000004608              -0.000161136               0.999999998              -0.000003675              -0.000160799               0.999999998               0.000000166              -0.000168564               0.999999998               0.000005860              -0.000180901               0.999999998               0.000012934              -0.000196366               0.999999998               0.000021099              -0.000213997               0.999999998               0.000030073              -0.000233269               0.999999998               0.000039656              -0.000253769               0.999999998               0.000049846              -0.000275558               0.999999998               0.000060457              -0.000298461               0.999999998               0.000071592              -0.000322487               0.999999998               0.000083103              -0.000347547               0.999999998               0.000094893              -0.000373185               0.999999998               0.000106851              -0.000399075               0.999999998               0.000119093              -0.000425399               0.999999998               0.000131667              -0.000452417               0.999999998              -0.000000068              -0.000198975               0.999999998              -0.000007564              -0.000180669               0.999999998              -0.000006412              -0.000180957               0.999999998              -0.000001629              -0.000190091               0.999999998               0.000005296              -0.000204395               0.999999998               0.000013677              -0.000222215               0.999999998               0.000023098              -0.000242458               0.999999998               0.000033253              -0.000264510               0.999999998               0.000043969              -0.000288070               0.999999998               0.000055133              -0.000313194               0.999999998               0.000066745              -0.000339799               0.999999998               0.000078910              -0.000367650               0.999999998               0.000091462              -0.000396435               0.999999998               0.000104118              -0.000425852               0.999999998               0.000116946              -0.000455746               0.999999998               0.000130128              -0.000486213               0.999999998               0.000143557              -0.000517138               0.999999998               0.000000566              -0.000217891               0.999999998              -0.000009434              -0.000200956               0.999999998              -0.000009481              -0.000199284               0.999999998              -0.000005550              -0.000206034               0.999999998               0.000000531              -0.000217944               0.999999998               0.000007953              -0.000233473               0.999999998               0.000016468              -0.000251527               0.999999998               0.000025557              -0.000271451               0.999999998               0.000035028              -0.000292891               0.999999998               0.000044880              -0.000315746               0.999999998               0.000055086              -0.000340024               0.999999998               0.000065758              -0.000365581               0.999999998               0.000076838              -0.000392355               0.999999998               0.000088059              -0.000420024               0.999999998               0.000099212              -0.000448389               0.999999998               0.000110436              -0.000477330               0.999999998               0.000121809              -0.000506946               0.999999998               0.000000964              -0.000235020               0.999999998              -0.000010405              -0.000220364               0.999999998              -0.000011657              -0.000217819               0.999999998              -0.000008780              -0.000222671               0.999999998              -0.000003732              -0.000232494               0.999999998               0.000002661              -0.000245848               0.999999998               0.000010117              -0.000261894               0.999999998               0.000018081              -0.000279887               0.999999998               0.000026404              -0.000299410               0.999999998               0.000034964              -0.000320193               0.999999998               0.000043919              -0.000342282               0.999999998               0.000053111              -0.000365635               0.999999998               0.000062555              -0.000390262               0.999999998               0.000072141              -0.000416033               0.999999998               0.000081685              -0.000442681               0.999999998               0.000091139              -0.000469946               0.999999998               0.000100594              -0.000497830               0.999999998               0.000001162              -0.000249986               0.999999998              -0.000010444              -0.000238364               0.999999998              -0.000012654              -0.000235796               0.999999998              -0.000010902              -0.000239399               0.999999998              -0.000006990              -0.000247538               0.999999998              -0.000001740              -0.000259088               0.999999998               0.000004487              -0.000273307               0.999999998               0.000011282              -0.000289583               0.999999998               0.000018362              -0.000307427               0.999999998               0.000025810              -0.000326536               0.999999998               0.000033456              -0.000346755               0.999999998               0.000041213              -0.000368212               0.999999998               0.000048965              -0.000390933               0.999999998               0.000056847              -0.000414817               0.999999998               0.000064545              -0.000439728               0.999999998               0.000072029              -0.000465332               0.999999998               0.000079188              -0.000491575               0.999999998               0.000001158              -0.000262527               0.999999998              -0.000009583              -0.000254303               0.999999998              -0.000012346              -0.000252334               0.999999998              -0.000011581              -0.000255382               0.999999998              -0.000008770              -0.000262315               0.999999998              -0.000004759              -0.000272453               0.999999998               0.000000168              -0.000285091               0.999999998               0.000005690              -0.000299898               0.999999998               0.000011587              -0.000316312               0.999999998               0.000017744              -0.000334003               0.999999998               0.000024099              -0.000352828               0.999999998               0.000030437              -0.000372769               0.999999998               0.000036597              -0.000393844               0.999999998               0.000042575              -0.000416166               0.999999998               0.000048354              -0.000439578               0.999999998               0.000053728              -0.000463791               0.999999998               0.000058557              -0.000488650               0.999999998               0.000001000              -0.000272437               0.999999998              -0.000007940              -0.000267518               0.999999998              -0.000010708              -0.000266523               0.999999998              -0.000010602              -0.000269459               0.999999998              -0.000008833              -0.000275777               0.999999998              -0.000005951              -0.000284855               0.999999998              -0.000002343              -0.000296309               0.999999998               0.000001860              -0.000309845               0.999999998               0.000006433              -0.000325149               0.999999998               0.000011167              -0.000341838               0.999999998               0.000016065              -0.000359641               0.999999998               0.000020916              -0.000378579               0.999999998               0.000025524              -0.000398565               0.999999998               0.000029715              -0.000419729               0.999999998               0.000033600              -0.000441946               0.999999998               0.000037047              -0.000465019               0.999999998               0.000039660              -0.000488780               0.999999998               0.000000738              -0.000279614               0.999999998              -0.000005641              -0.000277357               0.999999998              -0.000007879              -0.000277462               0.999999998              -0.000008102              -0.000280596               0.999999998              -0.000007104              -0.000286572               0.999999998              -0.000005278              -0.000295077               0.999999998              -0.000002940              -0.000305795               0.999999998              -0.000000132              -0.000318473               0.999999998               0.000002996              -0.000332987               0.999999998               0.000006260              -0.000348934               0.999999998               0.000009462              -0.000366119               0.999999998               0.000012639              -0.000384535               0.999999998               0.000015762              -0.000403981               0.999999998               0.000018563              -0.000424397               0.999999998               0.000020821              -0.000445809               0.999999998               0.000022649              -0.000468135               0.999999998               0.000023586              -0.000491198               0.999999998               0.000000390              -0.000283965               0.999999998              -0.000002912              -0.000283458               0.999999998              -0.000004170              -0.000284349               0.999999998              -0.000004387              -0.000287748               0.999999998              -0.000003977              -0.000293671               0.999999998              -0.000003121              -0.000301903               0.999999998              -0.000001975              -0.000312228               0.999999998              -0.000000541              -0.000324413               0.999999998               0.000001097              -0.000338401               0.999999998               0.000002750              -0.000353957               0.999999998               0.000004228              -0.000370871               0.999999998               0.000005772              -0.000388939               0.999999998               0.000007547              -0.000408052               0.999999998               0.000008967              -0.000428144               0.999999998               0.000009916              -0.000449197               0.999999998               0.000010589              -0.000471145               0.999999998               0.000010805              -0.000493880               0.999999998              -0.000000000              -0.000285356               0.999999998               0.000000000              -0.000285485               0.999999998               0.000000000              -0.000286718               0.999999998              -0.000000000              -0.000290229               0.999999998              -0.000000000              -0.000296116               0.999999998              -0.000000000              -0.000304250               0.999999998              -0.000000000              -0.000314519               0.999999998              -0.000000000              -0.000326581               0.999999998              -0.000000000              -0.000340315               0.999999998              -0.000000000              -0.000355758               0.999999998              -0.000000000              -0.000372653               0.999999998               0.000000000              -0.000390579               0.999999998               0.000000000              -0.000409553               0.999999998               0.000000000              -0.000429560               0.999999998               0.000000000              -0.000450526               0.999999998               0.000000000              -0.000472379               0.999999998               0.000000000              -0.000495046               0.999999998              -0.000002398               0.000000000               0.999999998               0.000008837              -0.000000000               0.999999998               0.000014493              -0.000000000               0.999999998               0.000017964               0.000000000               0.999999998               0.000020661               0.000000000               0.999999998               0.000023314               0.000000000               0.999999998               0.000026249               0.000000000               0.999999998               0.000029559              -0.000000000               0.999999998               0.000033282              -0.000000000               0.999999998               0.000037507               0.000000000               0.999999998               0.000042213               0.000000000               0.999999998               0.000047426              -0.000000000               0.999999998               0.000053134               0.000000000               0.999999998               0.000059291               0.000000000               0.999999998               0.000065955              -0.000000000               0.999999998               0.000073150               0.000000000               0.999999998               0.000080885               0.000000000               0.999999998              -0.000002324               0.000027646               0.999999998               0.000008527               0.000024903               0.999999998               0.000013958               0.000024332               0.999999998               0.000017330               0.000025023               0.999999998               0.000019987               0.000026504               0.999999998               0.000022670               0.000028491               0.999999998               0.000025644               0.000030915               0.999999998               0.000029035               0.000033607               0.999999998               0.000032939               0.000036502               0.999999998               0.000037332               0.000039616               0.999999998               0.000042215               0.000042877               0.999999998               0.000047588               0.000046350               0.999999998               0.000053462               0.000049900               0.999999998               0.000059791               0.000053565               0.999999998               0.000066595               0.000057462               0.999999998               0.000073937               0.000061505               0.999999998               0.000081803               0.000065524               0.999999998              -0.000002127               0.000055041               0.999999998               0.000007599               0.000049498               0.999999998               0.000012376               0.000048465               0.999999998               0.000015461               0.000049949               0.999999998               0.000018111               0.000053006               0.999999998               0.000020906               0.000057120               0.999999998               0.000024131               0.000061928               0.999999998               0.000027896               0.000067338               0.999999998               0.000032199               0.000073190               0.999999998               0.000037002               0.000079431               0.999999998               0.000042349               0.000085945               0.999999998               0.000048209               0.000092794               0.999999998               0.000054566               0.000099877               0.999999998               0.000061387               0.000107165               0.999999998               0.000068662               0.000114951               0.999999998               0.000076437               0.000123163               0.999999998               0.000084723               0.000131369               0.999999998              -0.000001784               0.000081896               0.999999998               0.000006063               0.000073540               0.999999998               0.000009896               0.000072184               0.999999998               0.000012648               0.000074616               0.999999998               0.000015383               0.000079369               0.999999998               0.000018550               0.000085648               0.999999998               0.000022270               0.000092975               0.999999998               0.000026599               0.000101070               0.999999998               0.000031588               0.000109872               0.999999998               0.000037163               0.000119209               0.999999998               0.000043294               0.000128967               0.999999998               0.000049920               0.000139227               0.999999998               0.000057016               0.000149839               0.999999998               0.000064665               0.000160854               0.999999998               0.000072835               0.000172553               0.999999998               0.000081463               0.000184852               0.999999998               0.000090500               0.000197333               0.999999998              -0.000001361               0.000107933               0.999999998               0.000003916               0.000096831               0.999999998               0.000006729               0.000095349               0.999999998               0.000009322               0.000098896               0.999999998               0.000012353               0.000105496               0.999999998               0.000016090               0.000113997               0.999999998               0.000020573               0.000123851               0.999999998               0.000025822               0.000134779               0.999999998               0.000031815               0.000146576               0.999999998               0.000038433               0.000159049               0.999999998               0.000045570               0.000172044               0.999999998               0.000053198               0.000185583               0.999999998               0.000061397               0.000199853               0.999999998               0.000070179               0.000214661               0.999999998               0.000079444               0.000230092               0.999999998               0.000089030               0.000246177               0.999999998               0.000098842               0.000262429               0.999999998              -0.000000994               0.000132931               0.999999998               0.000001298               0.000119218               0.999999998               0.000003201               0.000117859               0.999999998               0.000005867               0.000122757               0.999999998               0.000009513               0.000131250               0.999999998               0.000014124               0.000142066               0.999999998               0.000019722               0.000154515               0.999999998               0.000026147               0.000168218               0.999999998               0.000033297               0.000182984               0.999999998               0.000041038               0.000198525               0.999999998               0.000049333               0.000214798               0.999999998               0.000058201               0.000231707               0.999999998               0.000067593               0.000249499               0.999999998               0.000077518               0.000267971               0.999999998               0.000087810               0.000286920               0.999999998               0.000098274               0.000306209               0.999999998               0.000108883               0.000325840               0.999999998              -0.000000687               0.000156636               0.999999998              -0.000001610               0.000140656               0.999999998              -0.000000375               0.000139701               0.999999998               0.000002708               0.000146048               0.999999998               0.000007266               0.000156459               0.999999998               0.000013059               0.000169570               0.999999998               0.000019907               0.000184614               0.999999998               0.000027604               0.000201131               0.999999998               0.000035960               0.000218764               0.999999998               0.000044950               0.000237405               0.999999998               0.000054490               0.000256915               0.999999998               0.000064582               0.000277243               0.999999998               0.000075171               0.000298561               0.999999998               0.000086067               0.000320658               0.999999998               0.000097163               0.000343017               0.999999998               0.000108424               0.000365640               0.999999998               0.000119915               0.000388815               0.999999998              -0.000000406               0.000178770               0.999999998              -0.000004608               0.000161136               0.999999998              -0.000003675               0.000160799               0.999999998               0.000000166               0.000168564               0.999999998               0.000005860               0.000180901               0.999999998               0.000012934               0.000196366               0.999999998               0.000021099               0.000213997               0.999999998               0.000030073               0.000233269               0.999999998               0.000039656               0.000253769               0.999999998               0.000049846               0.000275558               0.999999998               0.000060457               0.000298461               0.999999998               0.000071592               0.000322487               0.999999998               0.000083103               0.000347547               0.999999998               0.000094893               0.000373185               0.999999998               0.000106851               0.000399075               0.999999998               0.000119093               0.000425399               0.999999998               0.000131667               0.000452417               0.999999998              -0.000000068               0.000198975               0.999999998              -0.000007564               0.000180669               0.999999998              -0.000006412               0.000180957               0.999999998              -0.000001629               0.000190091               0.999999998               0.000005296               0.000204395               0.999999998               0.000013677               0.000222215               0.999999998               0.000023098               0.000242458               0.999999998               0.000033253               0.000264510               0.999999998               0.000043969               0.000288070               0.999999998               0.000055133               0.000313194               0.999999998               0.000066745               0.000339799               0.999999998               0.000078910               0.000367650               0.999999998               0.000091462               0.000396435               0.999999998               0.000104118               0.000425852               0.999999998               0.000116946               0.000455746               0.999999998               0.000130128               0.000486213               0.999999998               0.000143557               0.000517138               0.999999998               0.000000566               0.000217891               0.999999998              -0.000009434               0.000200956               0.999999998              -0.000009481               0.000199284               0.999999998              -0.000005550               0.000206034               0.999999998               0.000000531               0.000217944               0.999999998               0.000007953               0.000233473               0.999999998               0.000016468               0.000251527               0.999999998               0.000025557               0.000271451               0.999999998               0.000035028               0.000292891               0.999999998               0.000044880               0.000315746               0.999999998               0.000055086               0.000340024               0.999999998               0.000065758               0.000365581               0.999999998               0.000076838               0.000392355               0.999999998               0.000088059               0.000420024               0.999999998               0.000099212               0.000448389               0.999999998               0.000110436               0.000477330               0.999999998               0.000121809               0.000506946               0.999999998               0.000000964               0.000235020               0.999999998              -0.000010405               0.000220364               0.999999998              -0.000011657               0.000217819               0.999999998              -0.000008780               0.000222671               0.999999998              -0.000003732               0.000232494               0.999999998               0.000002661               0.000245848               0.999999998               0.000010117               0.000261894               0.999999998               0.000018081               0.000279887               0.999999998               0.000026404               0.000299410               0.999999998               0.000034964               0.000320193               0.999999998               0.000043919               0.000342282               0.999999998               0.000053111               0.000365635               0.999999998               0.000062555               0.000390262               0.999999998               0.000072141               0.000416033               0.999999998               0.000081685               0.000442681               0.999999998               0.000091139               0.000469946               0.999999998               0.000100594               0.000497830               0.999999998               0.000001162               0.000249986               0.999999998              -0.000010444               0.000238364               0.999999998              -0.000012654               0.000235796               0.999999998              -0.000010902               0.000239399               0.999999998              -0.000006990               0.000247538               0.999999998              -0.000001740               0.000259088               0.999999998               0.000004487               0.000273307               0.999999998               0.000011282               0.000289583               0.999999998               0.000018362               0.000307427               0.999999998               0.000025810               0.000326536               0.999999998               0.000033456               0.000346755               0.999999998               0.000041213               0.000368212               0.999999998               0.000048965               0.000390933               0.999999998               0.000056847               0.000414817               0.999999998               0.000064545               0.000439728               0.999999998               0.000072029               0.000465332               0.999999998               0.000079188               0.000491575               0.999999998               0.000001158               0.000262527               0.999999998              -0.000009583               0.000254303               0.999999998              -0.000012346               0.000252334               0.999999998              -0.000011581               0.000255382               0.999999998              -0.000008770               0.000262315               0.999999998              -0.000004759               0.000272453               0.999999998               0.000000168               0.000285091               0.999999998               0.000005690               0.000299898               0.999999998               0.000011587               0.000316312               0.999999998               0.000017744               0.000334003               0.999999998               0.000024099               0.000352828               0.999999998               0.000030437               0.000372769               0.999999998               0.000036597               0.000393844               0.999999998               0.000042575               0.000416166               0.999999998               0.000048354               0.000439578               0.999999998               0.000053728               0.000463791               0.999999998               0.000058557               0.000488650               0.999999998               0.000001000               0.000272437               0.999999998              -0.000007940               0.000267518               0.999999998              -0.000010708               0.000266523               0.999999998              -0.000010602               0.000269459               0.999999998              -0.000008833               0.000275777               0.999999998              -0.000005951               0.000284855               0.999999998              -0.000002343               0.000296309               0.999999998               0.000001860               0.000309845               0.999999998               0.000006433               0.000325149               0.999999998               0.000011167               0.000341838               0.999999998               0.000016065               0.000359641               0.999999998               0.000020916               0.000378579               0.999999998               0.000025524               0.000398565               0.999999998               0.000029715               0.000419729               0.999999998               0.000033600               0.000441946               0.999999998               0.000037047               0.000465019               0.999999998               0.000039660               0.000488780               0.999999998               0.000000738               0.000279614               0.999999998              -0.000005641               0.000277357               0.999999998              -0.000007879               0.000277462               0.999999998              -0.000008102               0.000280596               0.999999998              -0.000007104               0.000286572               0.999999998              -0.000005278               0.000295077               0.999999998              -0.000002940               0.000305795               0.999999998              -0.000000132               0.000318473               0.999999998               0.000002996               0.000332987               0.999999998               0.000006260               0.000348934               0.999999998               0.000009462               0.000366119               0.999999998               0.000012639               0.000384535               0.999999998               0.000015762               0.000403981               0.999999998               0.000018563               0.000424397               0.999999998               0.000020821               0.000445809               0.999999998               0.000022649               0.000468135               0.999999998               0.000023586               0.000491198               0.999999998               0.000000390               0.000283965               0.999999998              -0.000002912               0.000283458               0.999999998              -0.000004170               0.000284349               0.999999998              -0.000004387               0.000287748               0.999999998              -0.000003977               0.000293671               0.999999998              -0.000003121               0.000301903               0.999999998              -0.000001975               0.000312228               0.999999998              -0.000000541               0.000324413               0.999999998               0.000001097               0.000338401               0.999999998               0.000002750               0.000353957               0.999999998               0.000004228               0.000370871               0.999999998               0.000005772               0.000388939               0.999999998               0.000007547               0.000408052               0.999999998               0.000008967               0.000428144               0.999999998               0.000009916               0.000449197               0.999999998               0.000010589               0.000471145               0.999999998               0.000010805               0.000493880               0.999999998               0.000000000               0.000285356               0.999999998               0.000000000               0.000285485               0.999999998               0.000000000               0.000286718               0.999999998              -0.000000000               0.000290229               0.999999998              -0.000000000               0.000296116               0.999999998               0.000000000               0.000304250               0.999999998               0.000000000               0.000314519               0.999999998              -0.000000000               0.000326581               0.999999998               0.000000000               0.000340315               0.999999998              -0.000000000               0.000355758               0.999999998              -0.000000000               0.000372653               0.999999998               0.000000000               0.000390579               0.999999998               0.000000000               0.000409553               0.999999998              -0.000000000               0.000429560               0.999999998              -0.000000000               0.000450526               0.999999998               0.000000000               0.000472379               0.999999998               0.000000000               0.000495046               0.999999998 </DataArray>
<DataArray type="Float64"                                    Name="stress"                                                      NumberOfComponents="10" format="ascii">
              0.000445332               0.005201271              -0.000000000              -0.000483158               0.001894792               0.001411634               0.000000000               0.000000000               0.000000000               0.000000000               0.000494874               0.004333078              -0.000000000              -0.000356056               0.001563030               0.001206974               0.000000000               0.000000000               0.000000000               0.000000000               0.000690522               0.003631022               0.000000000              -0.000194932               0.001275306               0.001080374               0.000000000               0.000000000               0.000000000               0.000000000               0.000725482               0.003246229               0.000000000              -0.000133723               0.001126640               0.000992917               0.000000000               0.000000000               0.000000000               0.000000000               0.000693700               0.003021329              -0.000000000              -0.000117528               0.001046276               0.000928747               0.000000000               0.000000000               0.000000000               0.000000000               0.000632088               0.002883427               0.000000000              -0.000123395               0.001002264               0.000878869               0.000000000               0.000000000               0.000000000               0.000000000               0.000566212               0.002802384               0.000000000              -0.000137968               0.000980108               0.000842140               0.000000000               0.000000000               0.000000000               0.000000000               0.000502112               0.002754315               0.000000000              -0.000155997               0.000970095               0.000814098               0.000000000               0.000000000               0.000000000               0.000000000               0.000438492               0.002726044              -0.000000000              -0.000176320               0.000967446               0.000791125               0.000000000               0.000000000               0.000000000               0.000000000               0.000377825               0.002713130              -0.000000000              -0.000197456               0.000970186               0.000772730               0.000000000               0.000000000               0.000000000               0.000000000               0.000320169               0.002710461              -0.000000000              -0.000218744               0.000976392               0.000757649               0.000000000               0.000000000               0.000000000               0.000000000               0.000264623               0.002716451              -0.000000000              -0.000240322               0.000985582               0.000745260               0.000000000               0.000000000               0.000000000               0.000000000               0.000213275               0.002726413              -0.000000000              -0.000260823               0.000995736               0.000734913               0.000000000               0.000000000               0.000000000               0.000000000               0.000163104               0.002740059              -0.000000000              -0.000281343               0.001007125               0.000725782               0.000000000               0.000000000               0.000000000               0.000000000               0.000109745               0.002758681              -0.000000000              -0.000303680               0.001020778               0.000717098               0.000000000               0.000000000               0.000000000               0.000000000               0.000054565               0.002778816              -0.000000000              -0.000326889               0.001035226               0.000708336               0.000000000               0.000000000               0.000000000               0.000000000               0.000029253               0.002794214               0.000000000              -0.000338306               0.001044164               0.000705858               0.000000000               0.000000000               0.000000000               0.000000000               0.000475979               0.005119948              -0.000401876              -0.000461500               0.001860466               0.001398965               0.000000000               0.000000000               0.000000000               0.000000000               0.000507546               0.004273787              -0.000266246              -0.000343893               0.001539212               0.001195319               0.000000000               0.000000000               0.000000000               0.000000000               0.000683807               0.003598702              -0.000123216              -0.000193410               0.001264025               0.001070616               0.000000000               0.000000000               0.000000000               0.000000000               0.000709799               0.003229229              -0.000053610              -0.000137479               0.001122225               0.000984746               0.000000000               0.000000000               0.000000000               0.000000000               0.000675162               0.003014149              -0.000019008              -0.000123583               0.001045900               0.000922318               0.000000000               0.000000000               0.000000000               0.000000000               0.000613859               0.002883261              -0.000000773              -0.000130210               0.001004481               0.000874270               0.000000000               0.000000000               0.000000000               0.000000000               0.000547300               0.002802511               0.000008561              -0.000145076               0.000982519               0.000837444               0.000000000               0.000000000               0.000000000               0.000000000               0.000481130               0.002754468               0.000011259              -0.000163884               0.000972775               0.000808891               0.000000000               0.000000000               0.000000000               0.000000000               0.000418414               0.002727805               0.000011593              -0.000184070               0.000970616               0.000786546               0.000000000               0.000000000               0.000000000               0.000000000               0.000360249               0.002715671               0.000010892              -0.000204365               0.000973336               0.000768971               0.000000000               0.000000000               0.000000000               0.000000000               0.000304500               0.002712384               0.000010311              -0.000224860               0.000979072               0.000754212               0.000000000               0.000000000               0.000000000               0.000000000               0.000250804               0.002716406               0.000009045              -0.000245499               0.000987292               0.000741794               0.000000000               0.000000000               0.000000000               0.000000000               0.000200831               0.002725425               0.000006566              -0.000265366               0.000996921               0.000731555               0.000000000               0.000000000               0.000000000               0.000000000               0.000153251               0.002738730               0.000007858              -0.000284872               0.001007858               0.000722987               0.000000000               0.000000000               0.000000000               0.000000000               0.000103014               0.002758258               0.000010855              -0.000306151               0.001021461               0.000715309               0.000000000               0.000000000               0.000000000               0.000000000               0.000050934               0.002781536               0.000008781              -0.000328591               0.001036700               0.000708109               0.000000000               0.000000000               0.000000000               0.000000000               0.000027846               0.002799614               0.000005281              -0.000339509               0.001046365               0.000706856               0.000000000               0.000000000               0.000000000               0.000000000               0.000560752               0.004883555              -0.000765223              -0.000400162               0.001761223               0.001361061               0.000000000               0.000000000               0.000000000               0.000000000               0.000541828               0.004104315              -0.000506232              -0.000309853               0.001471376               0.001161522               0.000000000               0.000000000               0.000000000               0.000000000               0.000663390               0.003504625              -0.000235498              -0.000189306               0.001231299               0.001041992               0.000000000               0.000000000               0.000000000               0.000000000               0.000662413               0.003175829              -0.000106628              -0.000148573               0.001108123               0.000959550               0.000000000               0.000000000               0.000000000               0.000000000               0.000618699               0.002984728              -0.000043273              -0.000141079               0.001041926               0.000900847               0.000000000               0.000000000               0.000000000               0.000000000               0.000557265               0.002868362              -0.000012700              -0.000149571               0.001005968               0.000856397               0.000000000               0.000000000               0.000000000               0.000000000               0.000490351               0.002793776               0.000002173              -0.000165340               0.000986363               0.000821023               0.000000000               0.000000000               0.000000000               0.000000000               0.000425296               0.002747462               0.000009105              -0.000183946               0.000977127               0.000793181               0.000000000               0.000000000               0.000000000               0.000000000               0.000368047               0.002723371               0.000011145              -0.000202403               0.000975249               0.000772846               0.000000000               0.000000000               0.000000000               0.000000000               0.000314844               0.002711749               0.000009785              -0.000220902               0.000977541               0.000756640               0.000000000               0.000000000               0.000000000               0.000000000               0.000263479               0.002708134               0.000008425              -0.000239712               0.000982606               0.000742894               0.000000000               0.000000000               0.000000000               0.000000000               0.000215641               0.002711699               0.000007134              -0.000258097               0.000989923               0.000731826               0.000000000               0.000000000               0.000000000               0.000000000               0.000170096               0.002720760               0.000004410              -0.000276308               0.000999014               0.000722706               0.000000000               0.000000000               0.000000000               0.000000000               0.000127506               0.002735810               0.000007481              -0.000294161               0.001009981               0.000715820               0.000000000               0.000000000               0.000000000               0.000000000               0.000085398               0.002757745               0.000014617              -0.000312693               0.001023470               0.000710777               0.000000000               0.000000000               0.000000000               0.000000000               0.000042189               0.002784510               0.000012660              -0.000332242               0.001038908               0.000706666               0.000000000               0.000000000               0.000000000               0.000000000               0.000024198               0.002806408               0.000006519              -0.000341726               0.001049368               0.000707643               0.000000000               0.000000000               0.000000000               0.000000000               0.000682849               0.004517458              -0.001055598              -0.000308614               0.001608675               0.001300062               0.000000000               0.000000000               0.000000000               0.000000000               0.000586111               0.003845781              -0.000699294              -0.000260931               0.001368891               0.001107960               0.000000000               0.000000000               0.000000000               0.000000000               0.000625548               0.003360570              -0.000331656              -0.000185490               0.001182009               0.000996519               0.000000000               0.000000000               0.000000000               0.000000000               0.000590732               0.003091590              -0.000161946              -0.000164924               0.001085494               0.000920570               0.000000000               0.000000000               0.000000000               0.000000000               0.000534168               0.002932934              -0.000079461              -0.000166303               0.001033069               0.000866766               0.000000000               0.000000000               0.000000000               0.000000000               0.000472227               0.002833255              -0.000039651              -0.000177071               0.001003432               0.000826361               0.000000000               0.000000000               0.000000000               0.000000000               0.000412252               0.002771115              -0.000020848              -0.000191794               0.000987627               0.000795833               0.000000000               0.000000000               0.000000000               0.000000000               0.000353717               0.002732817              -0.000011532              -0.000208958               0.000980583               0.000771625               0.000000000               0.000000000               0.000000000               0.000000000               0.000301840               0.002712204              -0.000008233              -0.000225835               0.000979337               0.000753502               0.000000000               0.000000000               0.000000000               0.000000000               0.000256835               0.002702734              -0.000009684              -0.000241528               0.000981412               0.000739884               0.000000000               0.000000000               0.000000000               0.000000000               0.000215424               0.002700483              -0.000009862              -0.000256776               0.000985744               0.000728968               0.000000000               0.000000000               0.000000000               0.000000000               0.000176530               0.002704497              -0.000008705              -0.000271863               0.000992111               0.000720248               0.000000000               0.000000000               0.000000000               0.000000000               0.000136237               0.002716578              -0.000009423              -0.000288483               0.001001678               0.000713195               0.000000000               0.000000000               0.000000000               0.000000000               0.000096069               0.002733685              -0.000004586              -0.000305684               0.001013114               0.000707430               0.000000000               0.000000000               0.000000000               0.000000000               0.000060659               0.002752880               0.000005656              -0.000321362               0.001024738               0.000703376               0.000000000               0.000000000               0.000000000               0.000000000               0.000029059               0.002774037               0.000007785              -0.000335857               0.001036622               0.000700765               0.000000000               0.000000000               0.000000000               0.000000000               0.000016915               0.002791181               0.000003655              -0.000342554               0.001044569               0.000702015               0.000000000               0.000000000               0.000000000               0.000000000               0.000812067               0.004059724              -0.001251398              -0.000202941               0.001420874               0.001217933               0.000000000               0.000000000               0.000000000               0.000000000               0.000625159               0.003526258              -0.000836274              -0.000206348               0.001244190               0.001037842               0.000000000               0.000000000               0.000000000               0.000000000               0.000569985               0.003186378              -0.000411670              -0.000184553               0.001123633               0.000939080               0.000000000               0.000000000               0.000000000               0.000000000               0.000505576               0.002991956              -0.000220835              -0.000184403               0.001058776               0.000874373               0.000000000               0.000000000               0.000000000               0.000000000               0.000443844               0.002870938              -0.000128848              -0.000192425               0.001021111               0.000828686               0.000000000               0.000000000               0.000000000               0.000000000               0.000385055               0.002791950              -0.000083700              -0.000204598               0.000998840               0.000794242               0.000000000               0.000000000               0.000000000               0.000000000               0.000332590               0.002742330              -0.000061193              -0.000218070               0.000986791               0.000768721               0.000000000               0.000000000               0.000000000               0.000000000               0.000283636               0.002712702              -0.000049093              -0.000232724               0.000981800               0.000749076               0.000000000               0.000000000               0.000000000               0.000000000               0.000240470               0.002696254              -0.000042862              -0.000246855               0.000981027               0.000734172               0.000000000               0.000000000               0.000000000               0.000000000               0.000205135               0.002689103              -0.000040647              -0.000259211               0.000982762               0.000723551               0.000000000               0.000000000               0.000000000               0.000000000               0.000173716               0.002689443              -0.000038775              -0.000271036               0.000986817               0.000715781               0.000000000               0.000000000               0.000000000               0.000000000               0.000139781               0.002693485              -0.000032460              -0.000284267               0.000992575               0.000708308               0.000000000               0.000000000               0.000000000               0.000000000               0.000101887               0.002704661              -0.000026372              -0.000299874               0.001001503               0.000701628               0.000000000               0.000000000               0.000000000               0.000000000               0.000066142               0.002718888              -0.000020112              -0.000315057               0.001011306               0.000696249               0.000000000               0.000000000               0.000000000               0.000000000               0.000039012               0.002729335              -0.000008366              -0.000326537               0.001018615               0.000692078               0.000000000               0.000000000               0.000000000               0.000000000               0.000018327               0.002735107              -0.000000637              -0.000335015               0.001023365               0.000688350               0.000000000               0.000000000               0.000000000               0.000000000               0.000010687               0.002740758              -0.000000875              -0.000338586               0.001026439               0.000687853               0.000000000               0.000000000               0.000000000               0.000000000               0.000916057               0.003549222              -0.001353130              -0.000100133               0.001216439               0.001116307               0.000000000               0.000000000               0.000000000               0.000000000               0.000648846               0.003179127              -0.000920669              -0.000154074               0.001111056               0.000956982               0.000000000               0.000000000               0.000000000               0.000000000               0.000507194               0.003004583              -0.000478559              -0.000185375               0.001063309               0.000877934               0.000000000               0.000000000               0.000000000               0.000000000               0.000420737               0.002885906              -0.000283711              -0.000202961               0.001029613               0.000826651               0.000000000               0.000000000               0.000000000               0.000000000               0.000359320               0.002800051              -0.000188632              -0.000215261               0.001005095               0.000789834               0.000000000               0.000000000               0.000000000               0.000000000               0.000307856               0.002741636              -0.000139525              -0.000227258               0.000989622               0.000762364               0.000000000               0.000000000               0.000000000               0.000000000               0.000264166               0.002704692              -0.000112528              -0.000239024               0.000981230               0.000742206               0.000000000               0.000000000               0.000000000               0.000000000               0.000227442               0.002681895              -0.000094424              -0.000249946               0.000977271               0.000727326               0.000000000               0.000000000               0.000000000               0.000000000               0.000194315               0.002667125              -0.000081220              -0.000260522               0.000975873               0.000715351               0.000000000               0.000000000               0.000000000               0.000000000               0.000165911               0.002661605              -0.000072104              -0.000270483               0.000977354               0.000706871               0.000000000               0.000000000               0.000000000               0.000000000               0.000137480               0.002663561              -0.000064923              -0.000281389               0.000981641               0.000700252               0.000000000               0.000000000               0.000000000               0.000000000               0.000107867               0.002670663              -0.000053415              -0.000293382               0.000988006               0.000694624               0.000000000               0.000000000               0.000000000               0.000000000               0.000076691               0.002680877              -0.000039410              -0.000306350               0.000995733               0.000689383               0.000000000               0.000000000               0.000000000               0.000000000               0.000047964               0.002691493              -0.000029737              -0.000318449               0.001003305               0.000684856               0.000000000               0.000000000               0.000000000               0.000000000               0.000027947               0.002695562              -0.000020237              -0.000326464               0.001007333               0.000680869               0.000000000               0.000000000               0.000000000               0.000000000               0.000012880               0.002693861              -0.000009442              -0.000331902               0.001008579               0.000676677               0.000000000               0.000000000               0.000000000               0.000000000               0.000007686               0.002696212              -0.000005330              -0.000334144               0.001010110               0.000675966               0.000000000               0.000000000               0.000000000               0.000000000               0.000982566               0.003025445              -0.001369865              -0.000009720               0.001011711               0.001001991               0.000000000               0.000000000               0.000000000               0.000000000               0.000656919               0.002835523              -0.000959633              -0.000108097               0.000981197               0.000873100               0.000000000               0.000000000               0.000000000               0.000000000               0.000446529               0.002826931              -0.000537132              -0.000185918               0.001004274               0.000818356               0.000000000               0.000000000               0.000000000               0.000000000               0.000348022               0.002773299              -0.000349446              -0.000216154               0.000996475               0.000780321               0.000000000               0.000000000               0.000000000               0.000000000               0.000290387               0.002720407              -0.000252858              -0.000231155               0.000983845               0.000752690               0.000000000               0.000000000               0.000000000               0.000000000               0.000248459               0.002682953              -0.000197291              -0.000242196               0.000975041               0.000732844               0.000000000               0.000000000               0.000000000               0.000000000               0.000214510               0.002658008              -0.000161711              -0.000251809               0.000969930               0.000718121               0.000000000               0.000000000               0.000000000               0.000000000               0.000188160               0.002641872              -0.000136191              -0.000259673               0.000967173               0.000707500               0.000000000               0.000000000               0.000000000               0.000000000               0.000161600               0.002629952              -0.000114548              -0.000268144               0.000966023               0.000697880               0.000000000               0.000000000               0.000000000               0.000000000               0.000137200               0.002629366              -0.000096636              -0.000277220               0.000968853               0.000691633               0.000000000               0.000000000               0.000000000               0.000000000               0.000110913               0.002636920              -0.000080901              -0.000288022               0.000974972               0.000686950               0.000000000               0.000000000               0.000000000               0.000000000               0.000083604               0.002652075              -0.000062454              -0.000300157               0.000984068               0.000683911               0.000000000               0.000000000               0.000000000               0.000000000               0.000061436               0.002668573              -0.000042937              -0.000310532               0.000993026               0.000682494               0.000000000               0.000000000               0.000000000               0.000000000               0.000044794               0.002679845              -0.000031953              -0.000318182               0.000999333               0.000681151               0.000000000               0.000000000               0.000000000               0.000000000               0.000030355               0.002685272              -0.000025534              -0.000324275               0.001003173               0.000678898               0.000000000               0.000000000               0.000000000               0.000000000               0.000015863               0.002691171              -0.000014427              -0.000330447               0.001007197               0.000676750               0.000000000               0.000000000               0.000000000               0.000000000               0.000011329               0.002699170              -0.000008867              -0.000333147               0.001010763               0.000677616               0.000000000               0.000000000               0.000000000               0.000000000               0.001011552               0.002523157              -0.001311430               0.000063935               0.000819732               0.000883667               0.000000000               0.000000000               0.000000000               0.000000000               0.000649843               0.002514182              -0.000961001              -0.000070583               0.000861580               0.000790997               0.000000000               0.000000000               0.000000000               0.000000000               0.000394120               0.002651589              -0.000589765              -0.000183653               0.000945072               0.000761418               0.000000000               0.000000000               0.000000000               0.000000000               0.000293796               0.002654132              -0.000412182              -0.000221593               0.000958566               0.000736973               0.000000000               0.000000000               0.000000000               0.000000000               0.000243825               0.002635929              -0.000311479              -0.000238056               0.000957986               0.000719930               0.000000000               0.000000000               0.000000000               0.000000000               0.000210249               0.002620534              -0.000247496              -0.000248723               0.000956410               0.000707687               0.000000000               0.000000000               0.000000000               0.000000000               0.000183450               0.002607533              -0.000202779              -0.000257147               0.000954885               0.000697737               0.000000000               0.000000000               0.000000000               0.000000000               0.000162708               0.002598606              -0.000168530              -0.000263810               0.000954130               0.000690320               0.000000000               0.000000000               0.000000000               0.000000000               0.000141520               0.002597428              -0.000137723              -0.000271608               0.000956337               0.000684729               0.000000000               0.000000000               0.000000000               0.000000000               0.000121122               0.002608698              -0.000108406              -0.000280666               0.000963112               0.000682447               0.000000000               0.000000000               0.000000000               0.000000000               0.000099055               0.002630193              -0.000083300              -0.000291628               0.000973932               0.000682304               0.000000000               0.000000000               0.000000000               0.000000000               0.000076667               0.002655706              -0.000060042              -0.000303213               0.000986297               0.000683085               0.000000000               0.000000000               0.000000000               0.000000000               0.000061913               0.002677103              -0.000041638              -0.000311420               0.000996165               0.000684745               0.000000000               0.000000000               0.000000000               0.000000000               0.000051380               0.002692635              -0.000032878              -0.000317311               0.001003306               0.000685995               0.000000000               0.000000000               0.000000000               0.000000000               0.000038014               0.002708215              -0.000027546              -0.000324271               0.001010820               0.000686549               0.000000000               0.000000000               0.000000000               0.000000000               0.000019787               0.002724818              -0.000016883              -0.000333181               0.001019324               0.000686143               0.000000000               0.000000000               0.000000000               0.000000000               0.000012223               0.002735764              -0.000010898              -0.000337386               0.001024374               0.000686988               0.000000000               0.000000000               0.000000000               0.000000000               0.001018309               0.002079864              -0.001201198               0.000121880               0.000652654               0.000774534               0.000000000               0.000000000               0.000000000               0.000000000               0.000647840               0.002223338              -0.000943593              -0.000034978               0.000752764               0.000717786               0.000000000               0.000000000               0.000000000               0.000000000               0.000367405               0.002485587              -0.000648509              -0.000172922               0.000886161               0.000713240               0.000000000               0.000000000               0.000000000               0.000000000               0.000270041               0.002547377              -0.000478933              -0.000217157               0.000921502               0.000704346               0.000000000               0.000000000               0.000000000               0.000000000               0.000224186               0.002565834              -0.000371630              -0.000236659               0.000934156               0.000697497               0.000000000               0.000000000               0.000000000               0.000000000               0.000195322               0.002572871              -0.000298412              -0.000248363               0.000940403               0.000692040               0.000000000               0.000000000               0.000000000               0.000000000               0.000175488               0.002574171              -0.000245279              -0.000255963               0.000943369               0.000687406               0.000000000               0.000000000               0.000000000               0.000000000               0.000157941               0.002576156              -0.000201257              -0.000262791               0.000946307               0.000683516               0.000000000               0.000000000               0.000000000               0.000000000               0.000141193               0.002589804              -0.000161073              -0.000270777               0.000953518               0.000682741               0.000000000               0.000000000               0.000000000               0.000000000               0.000125037               0.002615933              -0.000123002              -0.000280102               0.000965336               0.000685234               0.000000000               0.000000000               0.000000000               0.000000000               0.000106684               0.002647556              -0.000092462              -0.000290937               0.000979489               0.000688552               0.000000000               0.000000000               0.000000000               0.000000000               0.000088146               0.002676658              -0.000068676              -0.000301527               0.000992719               0.000691193               0.000000000               0.000000000               0.000000000               0.000000000               0.000078669               0.002702152              -0.000049826              -0.000308267               0.001003464               0.000695197               0.000000000               0.000000000               0.000000000               0.000000000               0.000071327               0.002725088              -0.000036220              -0.000313888               0.001012983               0.000699095               0.000000000               0.000000000               0.000000000               0.000000000               0.000056006               0.002751084              -0.000026851              -0.000322883               0.001024646               0.000701764               0.000000000               0.000000000               0.000000000               0.000000000               0.000034494               0.002778097              -0.000017370              -0.000334326               0.001037465               0.000703139               0.000000000               0.000000000               0.000000000               0.000000000               0.000020432               0.002790424              -0.000011311              -0.000341140               0.001043845               0.000702705               0.000000000               0.000000000               0.000000000               0.000000000               0.000991296               0.001644044              -0.001064834               0.000166228               0.000492599               0.000658827               0.000000000               0.000000000               0.000000000               0.000000000               0.000660997               0.001879466              -0.000918054               0.000012939               0.000622169               0.000635108               0.000000000               0.000000000               0.000000000               0.000000000               0.000382394               0.002234760              -0.000719559              -0.000135947               0.000790228               0.000654281               0.000000000               0.000000000               0.000000000               0.000000000               0.000283112               0.002368909              -0.000562744              -0.000189947               0.000852944               0.000662997               0.000000000               0.000000000               0.000000000               0.000000000               0.000235533               0.002435797              -0.000448921              -0.000216149               0.000883974               0.000667824               0.000000000               0.000000000               0.000000000               0.000000000               0.000205522               0.002476154              -0.000366978              -0.000232448               0.000902859               0.000670411               0.000000000               0.000000000               0.000000000               0.000000000               0.000186582               0.002502662              -0.000305686              -0.000242864               0.000915167               0.000672303               0.000000000               0.000000000               0.000000000               0.000000000               0.000170401               0.002523209              -0.000252531              -0.000251500               0.000924894               0.000673394               0.000000000               0.000000000               0.000000000               0.000000000               0.000154457               0.002547598              -0.000206372              -0.000260528               0.000936033               0.000675506               0.000000000               0.000000000               0.000000000               0.000000000               0.000140309               0.002581439              -0.000165171              -0.000270063               0.000950492               0.000680429               0.000000000               0.000000000               0.000000000               0.000000000               0.000128411               0.002621512              -0.000131114              -0.000279534               0.000967007               0.000687472               0.000000000               0.000000000               0.000000000               0.000000000               0.000114698               0.002664526              -0.000102866              -0.000290053               0.000984851               0.000694798               0.000000000               0.000000000               0.000000000               0.000000000               0.000101960               0.002707145              -0.000077071              -0.000300157               0.001002425               0.000702268               0.000000000               0.000000000               0.000000000               0.000000000               0.000090248               0.002743407              -0.000052474              -0.000309082               0.001017487               0.000708405               0.000000000               0.000000000               0.000000000               0.000000000               0.000074710               0.002775414              -0.000031952              -0.000318910               0.001031432               0.000712522               0.000000000               0.000000000               0.000000000               0.000000000               0.000053839               0.002809107              -0.000015430              -0.000330948               0.001046676               0.000715728               0.000000000               0.000000000               0.000000000               0.000000000               0.000035696               0.002823143              -0.000004876              -0.000339506               0.001054207               0.000714701               0.000000000               0.000000000               0.000000000               0.000000000               0.000911486               0.001227999              -0.000903243               0.000188305               0.000346560               0.000534865               0.000000000               0.000000000               0.000000000               0.000000000               0.000675809               0.001531694              -0.000868246               0.000061965               0.000489904               0.000551869               0.000000000               0.000000000               0.000000000               0.000000000               0.000434250               0.001951313              -0.000773093              -0.000081071               0.000677454               0.000596384               0.000000000               0.000000000               0.000000000               0.000000000               0.000331624               0.002152989              -0.000642412              -0.000144765               0.000765911               0.000621146               0.000000000               0.000000000               0.000000000               0.000000000               0.000276823               0.002271355              -0.000530492              -0.000180111               0.000817148               0.000637037               0.000000000               0.000000000               0.000000000               0.000000000               0.000242118               0.002353096              -0.000443869              -0.000203343               0.000852138               0.000648796               0.000000000               0.000000000               0.000000000               0.000000000               0.000217153               0.002413215              -0.000374604              -0.000220219               0.000877803               0.000657584               0.000000000               0.000000000               0.000000000               0.000000000               0.000199218               0.002458040              -0.000315600              -0.000232548               0.000896855               0.000664307               0.000000000               0.000000000               0.000000000               0.000000000               0.000183429               0.002494767              -0.000266258              -0.000243059               0.000912601               0.000669541               0.000000000               0.000000000               0.000000000               0.000000000               0.000171752               0.002534992              -0.000225153              -0.000252467               0.000929145               0.000676678               0.000000000               0.000000000               0.000000000               0.000000000               0.000161959               0.002583633              -0.000187564              -0.000262219               0.000948609               0.000686390               0.000000000               0.000000000               0.000000000               0.000000000               0.000149960               0.002641022              -0.000151438              -0.000273892               0.000971629               0.000697737               0.000000000               0.000000000               0.000000000               0.000000000               0.000134172               0.002700780              -0.000117521              -0.000287282               0.000996012               0.000708729               0.000000000               0.000000000               0.000000000               0.000000000               0.000117994               0.002752722              -0.000084558              -0.000299842               0.001017512               0.000717670               0.000000000               0.000000000               0.000000000               0.000000000               0.000097227               0.002788738              -0.000053156              -0.000312131               0.001033614               0.000721482               0.000000000               0.000000000               0.000000000               0.000000000               0.000070393               0.002816836              -0.000025007              -0.000325706               0.001047505               0.000721798               0.000000000               0.000000000               0.000000000               0.000000000               0.000045646               0.002823491              -0.000007349              -0.000335818               0.001053094               0.000717275               0.000000000               0.000000000               0.000000000               0.000000000               0.000781399               0.000853716              -0.000720671               0.000186308               0.000222466               0.000408774               0.000000000               0.000000000               0.000000000               0.000000000               0.000669765               0.001191841              -0.000779276               0.000102180               0.000363216               0.000465396               0.000000000               0.000000000               0.000000000               0.000000000               0.000500591               0.001633444              -0.000775511              -0.000016460               0.000549962               0.000533502               0.000000000               0.000000000               0.000000000               0.000000000               0.000408937               0.001887437              -0.000682993              -0.000082579               0.000656666               0.000574087               0.000000000               0.000000000               0.000000000               0.000000000               0.000351276               0.002056875              -0.000584893              -0.000125381               0.000727412               0.000602031               0.000000000               0.000000000               0.000000000               0.000000000               0.000308975               0.002182344              -0.000500560              -0.000156927               0.000779750               0.000622822               0.000000000               0.000000000               0.000000000               0.000000000               0.000275314               0.002278508              -0.000428759              -0.000181571               0.000820019               0.000638448               0.000000000               0.000000000               0.000000000               0.000000000               0.000252311               0.002354188              -0.000367728              -0.000199657               0.000851274               0.000651617               0.000000000               0.000000000               0.000000000               0.000000000               0.000233708               0.002412244              -0.000318555              -0.000213890               0.000875370               0.000661480               0.000000000               0.000000000               0.000000000               0.000000000               0.000218806               0.002464143              -0.000278127              -0.000225965               0.000896694               0.000670729               0.000000000               0.000000000               0.000000000               0.000000000               0.000206788               0.002523756              -0.000238363              -0.000237923               0.000920551               0.000682628               0.000000000               0.000000000               0.000000000               0.000000000               0.000196070               0.002596061              -0.000197167              -0.000250981               0.000949005               0.000698024               0.000000000               0.000000000               0.000000000               0.000000000               0.000180314               0.002670848              -0.000157855              -0.000266238               0.000979020               0.000712782               0.000000000               0.000000000               0.000000000               0.000000000               0.000159517               0.002739717              -0.000119141              -0.000282645               0.001007445               0.000724800               0.000000000               0.000000000               0.000000000               0.000000000               0.000131835               0.002788634              -0.000079198              -0.000299140               0.001029249               0.000730109               0.000000000               0.000000000               0.000000000               0.000000000               0.000095390               0.002820884              -0.000039393              -0.000316839               0.001045898               0.000729060               0.000000000               0.000000000               0.000000000               0.000000000               0.000063082               0.002827442              -0.000014557              -0.000329774               0.001052396               0.000722622               0.000000000               0.000000000               0.000000000               0.000000000               0.000618525               0.000547754              -0.000534941               0.000163476               0.000128091               0.000291566               0.000000000               0.000000000               0.000000000               0.000000000               0.000642223               0.000878415              -0.000655821               0.000131030               0.000249125               0.000380155               0.000000000               0.000000000               0.000000000               0.000000000               0.000571317               0.001305923              -0.000719388               0.000051002               0.000418302               0.000469304               0.000000000               0.000000000               0.000000000               0.000000000               0.000507570               0.001593558              -0.000667366              -0.000008857               0.000534133               0.000525276               0.000000000               0.000000000               0.000000000               0.000000000               0.000452311               0.001804677              -0.000591779              -0.000055969               0.000620209               0.000564240               0.000000000               0.000000000               0.000000000               0.000000000               0.000405096               0.001967363              -0.000517147              -0.000094009               0.000687118               0.000593108               0.000000000               0.000000000               0.000000000               0.000000000               0.000364027               0.002100396              -0.000450643              -0.000126039               0.000742138               0.000616099               0.000000000               0.000000000               0.000000000               0.000000000               0.000333424               0.002211146              -0.000393226              -0.000151359               0.000787494               0.000636135               0.000000000               0.000000000               0.000000000               0.000000000               0.000307830               0.002296565              -0.000346043              -0.000171634               0.000822725               0.000651091               0.000000000               0.000000000               0.000000000               0.000000000               0.000282247               0.002368097              -0.000306265              -0.000190169               0.000852747               0.000662578               0.000000000               0.000000000               0.000000000               0.000000000               0.000262583               0.002442078              -0.000268113              -0.000206791               0.000882948               0.000676157               0.000000000               0.000000000               0.000000000               0.000000000               0.000247542               0.002523564              -0.000226589              -0.000222617               0.000915385               0.000692769               0.000000000               0.000000000               0.000000000               0.000000000               0.000233201               0.002613644              -0.000183609              -0.000239254               0.000950957               0.000711703               0.000000000               0.000000000               0.000000000               0.000000000               0.000212689               0.002702574              -0.000141733              -0.000258063               0.000986870               0.000728807               0.000000000               0.000000000               0.000000000               0.000000000               0.000185226               0.002769936              -0.000099005              -0.000276782               0.001015563               0.000738782               0.000000000               0.000000000               0.000000000               0.000000000               0.000149712               0.002815956              -0.000052310              -0.000295852               0.001037260               0.000741408               0.000000000               0.000000000               0.000000000               0.000000000               0.000117359               0.002827585              -0.000023727              -0.000309438               0.001045665               0.000736227               0.000000000               0.000000000               0.000000000               0.000000000               0.000451143               0.000322231              -0.000363786               0.000128898               0.000064443               0.000193341               0.000000000               0.000000000               0.000000000               0.000000000               0.000602598               0.000613053              -0.000506227               0.000149341               0.000154568               0.000303909               0.000000000               0.000000000               0.000000000               0.000000000               0.000637010               0.000999156              -0.000604728               0.000113983               0.000295054               0.000409037               0.000000000               0.000000000               0.000000000               0.000000000               0.000611689               0.001303347              -0.000584641               0.000066464               0.000412290               0.000478754               0.000000000               0.000000000               0.000000000               0.000000000               0.000565646               0.001541560              -0.000534085               0.000019422               0.000507374               0.000526796               0.000000000               0.000000000               0.000000000               0.000000000               0.000517254               0.001734358              -0.000477150              -0.000022825               0.000585722               0.000562897               0.000000000               0.000000000               0.000000000               0.000000000               0.000470298               0.001900388              -0.000423481              -0.000061187               0.000653852               0.000592665               0.000000000               0.000000000               0.000000000               0.000000000               0.000430392               0.002046056              -0.000375569              -0.000094360               0.000713465               0.000619105               0.000000000               0.000000000               0.000000000               0.000000000               0.000395211               0.002166639              -0.000333364              -0.000122626               0.000763081               0.000640455               0.000000000               0.000000000               0.000000000               0.000000000               0.000359335               0.002262390              -0.000296904              -0.000148048               0.000803472               0.000655424               0.000000000               0.000000000               0.000000000               0.000000000               0.000325795               0.002353215              -0.000262994              -0.000171978               0.000841723               0.000669745               0.000000000               0.000000000               0.000000000               0.000000000               0.000301321               0.002447452              -0.000227823              -0.000192936               0.000880121               0.000687185               0.000000000               0.000000000               0.000000000               0.000000000               0.000287467               0.002548143              -0.000188983              -0.000210717               0.000919612               0.000708894               0.000000000               0.000000000               0.000000000               0.000000000               0.000275774               0.002649545              -0.000148282              -0.000227778               0.000959099               0.000731321               0.000000000               0.000000000               0.000000000               0.000000000               0.000256698               0.002733272              -0.000107550              -0.000245397               0.000992880               0.000747484               0.000000000               0.000000000               0.000000000               0.000000000               0.000232796               0.002797784              -0.000059665              -0.000262424               0.001020060               0.000757636               0.000000000               0.000000000               0.000000000               0.000000000               0.000209086               0.002819582              -0.000029775              -0.000274040               0.001031198               0.000757158               0.000000000               0.000000000               0.000000000               0.000000000               0.000302299               0.000169614              -0.000219876               0.000092159               0.000025818               0.000117977               0.000000000               0.000000000               0.000000000               0.000000000               0.000560873               0.000413801              -0.000341935               0.000158601               0.000085065               0.000243666               0.000000000               0.000000000               0.000000000               0.000000000               0.000689494               0.000750540              -0.000436097               0.000164741               0.000195264               0.000360005               0.000000000               0.000000000               0.000000000               0.000000000               0.000701354               0.001053217              -0.000436092               0.000131354               0.000307284               0.000438638               0.000000000               0.000000000               0.000000000               0.000000000               0.000668946               0.001308424              -0.000407812               0.000087301               0.000407037               0.000494337               0.000000000               0.000000000               0.000000000               0.000000000               0.000620754               0.001525717              -0.000370971               0.000042067               0.000494545               0.000536612               0.000000000               0.000000000               0.000000000               0.000000000               0.000569343               0.001714944              -0.000334522              -0.000000865               0.000571931               0.000571066               0.000000000               0.000000000               0.000000000               0.000000000               0.000521841               0.001887613              -0.000301164              -0.000040262               0.000642619               0.000602357               0.000000000               0.000000000               0.000000000               0.000000000               0.000478100               0.002037209              -0.000269262              -0.000075363               0.000704184               0.000628821               0.000000000               0.000000000               0.000000000               0.000000000               0.000433909               0.002158994              -0.000238378              -0.000107158               0.000755377               0.000648219               0.000000000               0.000000000               0.000000000               0.000000000               0.000391830               0.002272133              -0.000211247              -0.000137080               0.000803064               0.000665983               0.000000000               0.000000000               0.000000000               0.000000000               0.000361112               0.002379932              -0.000188799              -0.000162074               0.000847327               0.000685253               0.000000000               0.000000000               0.000000000               0.000000000               0.000346354               0.002483189              -0.000162650              -0.000180515               0.000887893               0.000707378               0.000000000               0.000000000               0.000000000               0.000000000               0.000339945               0.002587305              -0.000127916              -0.000195933               0.000927737               0.000731804               0.000000000               0.000000000               0.000000000               0.000000000               0.000334293               0.002686216              -0.000092949              -0.000210417               0.000965535               0.000755119               0.000000000               0.000000000               0.000000000               0.000000000               0.000331229               0.002772058              -0.000053227              -0.000222296               0.000998109               0.000775813               0.000000000               0.000000000               0.000000000               0.000000000               0.000327378               0.002808345              -0.000028597              -0.000228276               0.001012198               0.000783922               0.000000000               0.000000000               0.000000000               0.000000000               0.000196816               0.000083105              -0.000100451               0.000063417               0.000006562               0.000069979               0.000000000               0.000000000               0.000000000               0.000000000               0.000525043               0.000289752              -0.000170978               0.000160671               0.000043026               0.000203697               0.000000000               0.000000000               0.000000000               0.000000000               0.000721401               0.000587752              -0.000228070               0.000197054               0.000130231               0.000327285               0.000000000               0.000000000               0.000000000               0.000000000               0.000764073               0.000885740              -0.000233122               0.000175808               0.000236641               0.000412449               0.000000000               0.000000000               0.000000000               0.000000000               0.000743773               0.001148991              -0.000221121               0.000135290               0.000337897               0.000473186               0.000000000               0.000000000               0.000000000               0.000000000               0.000697853               0.001379774              -0.000203421               0.000089222               0.000430179               0.000519402               0.000000000               0.000000000               0.000000000               0.000000000               0.000643413               0.001582130              -0.000186330               0.000043513               0.000512867               0.000556380               0.000000000               0.000000000               0.000000000               0.000000000               0.000587506               0.001766302              -0.000169959              -0.000000473               0.000588919               0.000588446               0.000000000               0.000000000               0.000000000               0.000000000               0.000535042               0.001935490              -0.000151436              -0.000041295               0.000658922               0.000617626               0.000000000               0.000000000               0.000000000               0.000000000               0.000487911               0.002083533              -0.000132066              -0.000077475               0.000720329               0.000642854               0.000000000               0.000000000               0.000000000               0.000000000               0.000448176               0.002211201              -0.000117478              -0.000108334               0.000773171               0.000664837               0.000000000               0.000000000               0.000000000               0.000000000               0.000414973               0.002323512              -0.000109788              -0.000134824               0.000819437               0.000684614               0.000000000               0.000000000               0.000000000               0.000000000               0.000391219               0.002430211              -0.000096440              -0.000157069               0.000862418               0.000705350               0.000000000               0.000000000               0.000000000               0.000000000               0.000382723               0.002538073              -0.000073258              -0.000173737               0.000903928               0.000730191               0.000000000               0.000000000               0.000000000               0.000000000               0.000390679               0.002646464              -0.000052218              -0.000184303               0.000943580               0.000759277               0.000000000               0.000000000               0.000000000               0.000000000               0.000411118               0.002748549              -0.000031253              -0.000189399               0.000979307               0.000789908               0.000000000               0.000000000               0.000000000               0.000000000               0.000427633               0.002797522              -0.000018903              -0.000189327               0.000995607               0.000806280               0.000000000               0.000000000               0.000000000               0.000000000               0.000159165               0.000057001               0.000000000               0.000052561               0.000001480               0.000054041               0.000000000               0.000000000               0.000000000               0.000000000               0.000510881               0.000249469               0.000000000               0.000160395               0.000029690               0.000190085               0.000000000               0.000000000               0.000000000               0.000000000               0.000732024               0.000532268               0.000000000               0.000207973               0.000108096               0.000316070               0.000000000               0.000000000               0.000000000               0.000000000               0.000786479               0.000825780               0.000000000               0.000191705               0.000211356               0.000403061               0.000000000               0.000000000               0.000000000               0.000000000               0.000772465               0.001090808               0.000000000               0.000153322               0.000312492               0.000465814               0.000000000               0.000000000               0.000000000               0.000000000               0.000729755               0.001328946               0.000000000               0.000107539               0.000407131               0.000514670               0.000000000               0.000000000               0.000000000               0.000000000               0.000674239               0.001536853              -0.000000000               0.000060732               0.000492035               0.000552767               0.000000000               0.000000000               0.000000000               0.000000000               0.000611501               0.001719453               0.000000000               0.000014381               0.000568352               0.000582733               0.000000000               0.000000000               0.000000000               0.000000000               0.000553458               0.001894779               0.000000000              -0.000029301               0.000641353               0.000612053               0.000000000               0.000000000               0.000000000               0.000000000               0.000507860               0.002057346              -0.000000000              -0.000066721               0.000708015               0.000641295               0.000000000               0.000000000               0.000000000               0.000000000               0.000472331               0.002189287              -0.000000000              -0.000096537               0.000761934               0.000665397               0.000000000               0.000000000               0.000000000               0.000000000               0.000437088               0.002299998              -0.000000000              -0.000123591               0.000807856               0.000684264               0.000000000               0.000000000               0.000000000               0.000000000               0.000404322               0.002408251              -0.000000000              -0.000149410               0.000852546               0.000703135               0.000000000               0.000000000               0.000000000               0.000000000               0.000394321               0.002519127              -0.000000000              -0.000167020               0.000895374               0.000728354               0.000000000               0.000000000               0.000000000               0.000000000               0.000409750               0.002631312              -0.000000000              -0.000175257               0.000935514               0.000760257               0.000000000               0.000000000               0.000000000               0.000000000               0.000441445               0.002739950               0.000000000              -0.000176952               0.000972291               0.000795340               0.000000000               0.000000000               0.000000000               0.000000000               0.000465657               0.002793797              -0.000000000              -0.000174603               0.000989457               0.000814855               0.000000000               0.000000000               0.000000000               0.000000000               0.000000000               0.000000000               0.000000000               0.000000000               0.000000000               0.000000000               0.000000000               0.000000000               0.000000000               0.000000000               0.000000000               0.000000000               0.000000000               0.000000000               0.000000000               0.000000000               0.000000000               0.000000000               0.000000000               0.000000000               0.000000000               0.000000000               0.000000000               0.000000000               0.000000000               0.000000000               0.000000000               0.000000000               0.000000000               0.000000000               0.000000000               0.000000000               0.000000000               0.000000000               0.000000000               0.000000000               0.000000000               0.000000000               0.000000000               0.000000000               0.000000000               0.000000000               0.000000000               0.000000000               0.000000000               0.000000000               0.000000000               0.000000000               0.000000000               0.000000000               0.000000000               0.000000000               0.000000000               0.000000000               0.000000000               0.000000000               0.000000000               0.000000000               0.000000000               0.000000000               0.000000000               0.000000000               0.000000000               0.000000000               0.000000000               0.000000000               0.000000000               0.000000000               0.000000000               0.000000000               0.000000000               0.000000000               0.000000000               0.000000000               0.000000000               0.000000000               0.000000000               0.000000000               0.000000000               0.000000000               0.000000000               0.000000000               0.000000000               0.000000000               0.000000000               0.000000000               0.000000000               0.000000000               0.000000000               0.000000000               0.000000000               0.000000000               0.000000000               0.000000000               0.000000000               0.000000000               0.000000000               0.000000000               0.000000000               0.000000000               0.000000000               0.000000000               0.000000000               0.000000000               0.000000000               0.000000000               0.000000000               0.000000000               0.000000000               0.000000000               0.000000000               0.000000000               0.000000000               0.000000000               0.000000000               0.000000000               0.000000000               0.000000000               0.000000000               0.000000000               0.000000000               0.000000000               0.000000000               0.000000000               0.000000000               0.000000000               0.000000000               0.000000000               0.000000000               0.000000000               0.000000000               0.000000000               0.000000000               0.000000000               0.000000000               0.000000000               0.000000000               0.000000000               0.000000000               0.000000000               0.000000000               0.000000000               0.000000000               0.000000000               0.000000000               0.000000000               0.000000000               0.000000000               0.000000000               0.000000000               0.000000000               0.000000000               0.000000000               0.000000000               0.000000000               0.000000000               0.000000000               0.000000000               0.000000000               0.000000000               0.000000000               0.000000000               0.000000000               0.000000000               0.000000000               0.000000000               0.000000000               0.000000000               0.000000000               0.000000000               0.000475979               0.005119948               0.000401876              -0.000461500               0.001860466               0.001398965               0.000000000               0.000000000               0.000000000               0.000000000               0.000507546               0.004273787               0.000266246              -0.000343893               0.001539212               0.001195319               0.000000000               0.000000000               0.000000000               0.000000000               0.000683807               0.003598702               0.000123216              -0.000193410               0.001264025               0.001070616               0.000000000               0.000000000               0.000000000               0.000000000               0.000709799               0.003229229               0.000053610              -0.000137479               0.001122225               0.000984746               0.000000000               0.000000000               0.000000000               0.000000000               0.000675162               0.003014149               0.000019008              -0.000123583               0.001045900               0.000922318               0.000000000               0.000000000               0.000000000               0.000000000               0.000613859               0.002883261               0.000000773              -0.000130210               0.001004481               0.000874270               0.000000000               0.000000000               0.000000000               0.000000000               0.000547300               0.002802511              -0.000008561              -0.000145076               0.000982519               0.000837444               0.000000000               0.000000000               0.000000000               0.000000000               0.000481130               0.002754468              -0.000011259              -0.000163884               0.000972775               0.000808891               0.000000000               0.000000000               0.000000000               0.000000000               0.000418414               0.002727805              -0.000011593              -0.000184070               0.000970616               0.000786546               0.000000000               0.000000000               0.000000000               0.000000000               0.000360249               0.002715671              -0.000010892              -0.000204365               0.000973336               0.000768971               0.000000000               0.000000000               0.000000000               0.000000000               0.000304500               0.002712384              -0.000010311              -0.000224860               0.000979072               0.000754212               0.000000000               0.000000000               0.000000000               0.000000000               0.000250804               0.002716406              -0.000009045              -0.000245499               0.000987292               0.000741794               0.000000000               0.000000000               0.000000000               0.000000000               0.000200831               0.002725425              -0.000006566              -0.000265366               0.000996921               0.000731555               0.000000000               0.000000000               0.000000000               0.000000000               0.000153251               0.002738730              -0.000007858              -0.000284872               0.001007858               0.000722987               0.000000000               0.000000000               0.000000000               0.000000000               0.000103014               0.002758258              -0.000010855              -0.000306151               0.001021461               0.000715309               0.000000000               0.000000000               0.000000000               0.000000000               0.000050934               0.002781536              -0.000008781              -0.000328591               0.001036700               0.000708109               0.000000000               0.000000000               0.000000000               0.000000000               0.000027846               0.002799614              -0.000005281              -0.000339509               0.001046365               0.000706856               0.000000000               0.000000000               0.000000000               0.000000000               0.000560752               0.004883555               0.000765223              -0.000400162               0.001761223               0.001361061               0.000000000               0.000000000               0.000000000               0.000000000               0.000541828               0.004104315               0.000506232              -0.000309853               0.001471376               0.001161522               0.000000000               0.000000000               0.000000000               0.000000000               0.000663390               0.003504625               0.000235498              -0.000189306               0.001231299               0.001041992               0.000000000               0.000000000               0.000000000               0.000000000               0.000662413               0.003175829               0.000106628              -0.000148573               0.001108123               0.000959550               0.000000000               0.000000000               0.000000000               0.000000000               0.000618699               0.002984728               0.000043273              -0.000141079               0.001041926               0.000900847               0.000000000               0.000000000               0.000000000               0.000000000               0.000557265               0.002868362               0.000012700              -0.000149571               0.001005968               0.000856397               0.000000000               0.000000000               0.000000000               0.000000000               0.000490351               0.002793776              -0.000002173              -0.000165340               0.000986363               0.000821023               0.000000000               0.000000000               0.000000000               0.000000000               0.000425296               0.002747462              -0.000009105              -0.000183946               0.000977127               0.000793181               0.000000000               0.000000000               0.000000000               0.000000000               0.000368047               0.002723371              -0.000011145              -0.000202403               0.000975249               0.000772846               0.000000000               0.000000000               0.000000000               0.000000000               0.000314844               0.002711749              -0.000009785              -0.000220902               0.000977541               0.000756640               0.000000000               0.000000000               0.000000000               0.000000000               0.000263479               0.002708134              -0.000008425              -0.000239712               0.000982606               0.000742894               0.000000000               0.000000000               0.000000000               0.000000000               0.000215641               0.002711699              -0.000007134              -0.000258097               0.000989923               0.000731826               0.000000000               0.000000000               0.000000000               0.000000000               0.000170096               0.002720760              -0.000004410              -0.000276308               0.000999014               0.000722706               0.000000000               0.000000000               0.000000000               0.000000000               0.000127506               0.002735810              -0.000007481              -0.000294161               0.001009981               0.000715820               0.000000000               0.000000000               0.000000000               0.000000000               0.000085398               0.002757745              -0.000014617              -0.000312693               0.001023470               0.000710777               0.000000000               0.000000000               0.000000000               0.000000000               0.000042189               0.002784510              -0.000012660              -0.000332242               0.001038908               0.000706666               0.000000000               0.000000000               0.000000000               0.000000000               0.000024198               0.002806408              -0.000006519              -0.000341726               0.001049368               0.000707643               0.000000000               0.000000000               0.000000000               0.000000000               0.000682849               0.004517458               0.001055598              -0.000308614               0.001608675               0.001300062               0.000000000               0.000000000               0.000000000               0.000000000               0.000586111               0.003845781               0.000699294              -0.000260931               0.001368891               0.001107960               0.000000000               0.000000000               0.000000000               0.000000000               0.000625548               0.003360570               0.000331656              -0.000185490               0.001182009               0.000996519               0.000000000               0.000000000               0.000000000               0.000000000               0.000590732               0.003091590               0.000161946              -0.000164924               0.001085494               0.000920570               0.000000000               0.000000000               0.000000000               0.000000000               0.000534168               0.002932934               0.000079461              -0.000166303               0.001033069               0.000866766               0.000000000               0.000000000               0.000000000               0.000000000               0.000472227               0.002833255               0.000039651              -0.000177071               0.001003432               0.000826361               0.000000000               0.000000000               0.000000000               0.000000000               0.000412252               0.002771115               0.000020848              -0.000191794               0.000987627               0.000795833               0.000000000               0.000000000               0.000000000               0.000000000               0.000353717               0.002732817               0.000011532              -0.000208958               0.000980583               0.000771625               0.000000000               0.000000000               0.000000000               0.000000000               0.000301840               0.002712204               0.000008233              -0.000225835               0.000979337               0.000753502               0.000000000               0.000000000               0.000000000               0.000000000               0.000256835               0.002702734               0.000009684              -0.000241528               0.000981412               0.000739884               0.000000000               0.000000000               0.000000000               0.000000000               0.000215424               0.002700483               0.000009862              -0.000256776               0.000985744               0.000728968               0.000000000               0.000000000               0.000000000               0.000000000               0.000176530               0.002704497               0.000008705              -0.000271863               0.000992111               0.000720248               0.000000000               0.000000000               0.000000000               0.000000000               0.000136237               0.002716578               0.000009423              -0.000288483               0.001001678               0.000713195               0.000000000               0.000000000               0.000000000               0.000000000               0.000096069               0.002733685               0.000004586              -0.000305684               0.001013114               0.000707430               0.000000000               0.000000000               0.000000000               0.000000000               0.000060659               0.002752880              -0.000005656              -0.000321362               0.001024738               0.000703376               0.000000000               0.000000000               0.000000000               0.000000000               0.000029059               0.002774037              -0.000007785              -0.000335857               0.001036622               0.000700765               0.000000000               0.000000000               0.000000000               0.000000000               0.000016915               0.002791181              -0.000003655              -0.000342554               0.001044569               0.000702015               0.000000000               0.000000000               0.000000000               0.000000000               0.000812067               0.004059724               0.001251398              -0.000202941               0.001420874               0.001217933               0.000000000               0.000000000               0.000000000               0.000000000               0.000625159               0.003526258               0.000836274              -0.000206348               0.001244190               0.001037842               0.000000000               0.000000000               0.000000000               0.000000000               0.000569985               0.003186378               0.000411670              -0.000184553               0.001123633               0.000939080               0.000000000               0.000000000               0.000000000               0.000000000               0.000505576               0.002991956               0.000220835              -0.000184403               0.001058776               0.000874373               0.000000000               0.000000000               0.000000000               0.000000000               0.000443844               0.002870938               0.000128848              -0.000192425               0.001021111               0.000828686               0.000000000               0.000000000               0.000000000               0.000000000               0.000385055               0.002791950               0.000083700              -0.000204598               0.000998840               0.000794242               0.000000000               0.000000000               0.000000000               0.000000000               0.000332590               0.002742330               0.000061193              -0.000218070               0.000986791               0.000768721               0.000000000               0.000000000               0.000000000               0.000000000               0.000283636               0.002712702               0.000049093              -0.000232724               0.000981800               0.000749076               0.000000000               0.000000000               0.000000000               0.000000000               0.000240470               0.002696254               0.000042862              -0.000246855               0.000981027               0.000734172               0.000000000               0.000000000               0.000000000               0.000000000               0.000205135               0.002689103               0.000040647              -0.000259211               0.000982762               0.000723551               0.000000000               0.000000000               0.000000000               0.000000000               0.000173716               0.002689443               0.000038775              -0.000271036               0.000986817               0.000715781               0.000000000               0.000000000               0.000000000               0.000000000               0.000139781               0.002693485               0.000032460              -0.000284267               0.000992575               0.000708308               0.000000000               0.000000000               0.000000000               0.000000000               0.000101887               0.002704661               0.000026372              -0.000299874               0.001001503               0.000701628               0.000000000               0.000000000               0.000000000               0.000000000               0.000066142               0.002718888               0.000020112              -0.000315057               0.001011306               0.000696249               0.000000000               0.000000000               0.000000000               0.000000000               0.000039012               0.002729335               0.000008366              -0.000326537               0.001018615               0.000692078               0.000000000               0.000000000               0.000000000               0.000000000               0.000018327               0.002735107               0.000000637              -0.000335015               0.001023365               0.000688350               0.000000000               0.000000000               0.000000000               0.000000000               0.000010687               0.002740758               0.000000875              -0.000338586               0.001026439               0.000687853               0.000000000               0.000000000               0.000000000               0.000000000               0.000916057               0.003549222               0.001353130              -0.000100133               0.001216439               0.001116307               0.000000000               0.000000000               0.000000000               0.000000000               0.000648846               0.003179127               0.000920669              -0.000154074               0.001111056               0.000956982               0.000000000               0.000000000               0.000000000               0.000000000               0.000507194               0.003004583               0.000478559              -0.000185375               0.001063309               0.000877934               0.000000000               0.000000000               0.000000000               0.000000000               0.000420737               0.002885906               0.000283711              -0.000202961               0.001029613               0.000826651               0.000000000               0.000000000               0.000000000               0.000000000               0.000359320               0.002800051               0.000188632              -0.000215261               0.001005095               0.000789834               0.000000000               0.000000000               0.000000000               0.000000000               0.000307856               0.002741636               0.000139525              -0.000227258               0.000989622               0.000762364               0.000000000               0.000000000               0.000000000               0.000000000               0.000264166               0.002704692               0.000112528              -0.000239024               0.000981230               0.000742206               0.000000000               0.000000000               0.000000000               0.000000000               0.000227442               0.002681895               0.000094424              -0.000249946               0.000977271               0.000727326               0.000000000               0.000000000               0.000000000               0.000000000               0.000194315               0.002667125               0.000081220              -0.000260522               0.000975873               0.000715351               0.000000000               0.000000000               0.000000000               0.000000000               0.000165911               0.002661605               0.000072104              -0.000270483               0.000977354               0.000706871               0.000000000               0.000000000               0.000000000               0.000000000               0.000137480               0.002663561               0.000064923              -0.000281389               0.000981641               0.000700252               0.000000000               0.000000000               0.000000000               0.000000000               0.000107867               0.002670663               0.000053415              -0.000293382               0.000988006               0.000694624               0.000000000               0.000000000               0.000000000               0.000000000               0.000076691               0.002680877               0.000039410              -0.000306350               0.000995733               0.000689383               0.000000000               0.000000000               0.000000000               0.000000000               0.000047964               0.002691493               0.000029737              -0.000318449               0.001003305               0.000684856               0.000000000               0.000000000               0.000000000               0.000000000               0.000027947               0.002695562               0.000020237              -0.000326464               0.001007333               0.000680869               0.000000000               0.000000000               0.000000000               0.000000000               0.000012880               0.002693861               0.000009442              -0.000331902               0.001008579               0.000676677               0.000000000               0.000000000               0.000000000               0.000000000               0.000007686               0.002696212               0.000005330              -0.000334144               0.001010110               0.000675966               0.000000000               0.000000000               0.000000000               0.000000000               0.000982566               0.003025445               0.001369865              -0.000009720               0.001011711               0.001001991               0.000000000               0.000000000               0.000000000               0.000000000               0.000656919               0.002835523               0.000959633              -0.000108097               0.000981197               0.000873100               0.000000000               0.000000000               0.000000000               0.000000000               0.000446529               0.002826931               0.000537132              -0.000185918               0.001004274               0.000818356               0.000000000               0.000000000               0.000000000               0.000000000               0.000348022               0.002773299               0.000349446              -0.000216154               0.000996475               0.000780321               0.000000000               0.000000000               0.000000000               0.000000000               0.000290387               0.002720407               0.000252858              -0.000231155               0.000983845               0.000752690               0.000000000               0.000000000               0.000000000               0.000000000               0.000248459               0.002682953               0.000197291              -0.000242196               0.000975041               0.000732844               0.000000000               0.000000000               0.000000000               0.000000000               0.000214510               0.002658008               0.000161711              -0.000251809               0.000969930               0.000718121               0.000000000               0.000000000               0.000000000               0.000000000               0.000188160               0.002641872               0.000136191              -0.000259673               0.000967173               0.000707500               0.000000000               0.000000000               0.000000000               0.000000000               0.000161600               0.002629952               0.000114548              -0.000268144               0.000966023               0.000697880               0.000000000               0.000000000               0.000000000               0.000000000               0.000137200               0.002629366               0.000096636              -0.000277220               0.000968853               0.000691633               0.000000000               0.000000000               0.000000000               0.000000000               0.000110913               0.002636920               0.000080901              -0.000288022               0.000974972               0.000686950               0.000000000               0.000000000               0.000000000               0.000000000               0.000083604               0.002652075               0.000062454              -0.000300157               0.000984068               0.000683911               0.000000000               0.000000000               0.000000000               0.000000000               0.000061436               0.002668573               0.000042937              -0.000310532               0.000993026               0.000682494               0.000000000               0.000000000               0.000000000               0.000000000               0.000044794               0.002679845               0.000031953              -0.000318182               0.000999333               0.000681151               0.000000000               0.000000000               0.000000000               0.000000000               0.000030355               0.002685272               0.000025534              -0.000324275               0.001003173               0.000678898               0.000000000               0.000000000               0.000000000               0.000000000               0.000015863               0.002691171               0.000014427              -0.000330447               0.001007197               0.000676750               0.000000000               0.000000000               0.000000000               0.000000000               0.000011329               0.002699170               0.000008867              -0.000333147               0.001010763               0.000677616               0.000000000               0.000000000               0.000000000               0.000000000               0.001011552               0.002523157               0.001311430               0.000063935               0.000819732               0.000883667               0.000000000               0.000000000               0.000000000               0.000000000               0.000649843               0.002514182               0.000961001              -0.000070583               0.000861580               0.000790997               0.000000000               0.000000000               0.000000000               0.000000000               0.000394120               0.002651589               0.000589765              -0.000183653               0.000945072               0.000761418               0.000000000               0.000000000               0.000000000               0.000000000               0.000293796               0.002654132               0.000412182              -0.000221593               0.000958566               0.000736973               0.000000000               0.000000000               0.000000000               0.000000000               0.000243825               0.002635929               0.000311479              -0.000238056               0.000957986               0.000719930               0.000000000               0.000000000               0.000000000               0.000000000               0.000210249               0.002620534               0.000247496              -0.000248723               0.000956410               0.000707687               0.000000000               0.000000000               0.000000000               0.000000000               0.000183450               0.002607533               0.000202779              -0.000257147               0.000954885               0.000697737               0.000000000               0.000000000               0.000000000               0.000000000               0.000162708               0.002598606               0.000168530              -0.000263810               0.000954130               0.000690320               0.000000000               0.000000000               0.000000000               0.000000000               0.000141520               0.002597428               0.000137723              -0.000271608               0.000956337               0.000684729               0.000000000               0.000000000               0.000000000               0.000000000               0.000121122               0.002608698               0.000108406              -0.000280666               0.000963112               0.000682447               0.000000000               0.000000000               0.000000000               0.000000000               0.000099055               0.002630193               0.000083300              -0.000291628               0.000973932               0.000682304               0.000000000               0.000000000               0.000000000               0.000000000               0.000076667               0.002655706               0.000060042              -0.000303213               0.000986297               0.000683085               0.000000000               0.000000000               0.000000000               0.000000000               0.000061913               0.002677103               0.000041638              -0.000311420               0.000996165               0.000684745               0.000000000               0.000000000               0.000000000               0.000000000               0.000051380               0.002692635               0.000032878              -0.000317311               0.001003306               0.000685995               0.000000000               0.000000000               0.000000000               0.000000000               0.000038014               0.002708215               0.000027546              -0.000324271               0.001010820               0.000686549               0.000000000               0.000000000               0.000000000               0.000000000               0.000019787               0.002724818               0.000016883              -0.000333181               0.001019324               0.000686143               0.000000000               0.000000000               0.000000000               0.000000000               0.000012223               0.002735764               0.000010898              -0.000337386               0.001024374               0.000686988               0.000000000               0.000000000               0.000000000               0.000000000               0.001018309               0.002079864               0.001201198               0.000121880               0.000652654               0.000774534               0.000000000               0.000000000               0.000000000               0.000000000               0.000647840               0.002223338               0.000943593              -0.000034978               0.000752764               0.000717786               0.000000000               0.000000000               0.000000000               0.000000000               0.000367405               0.002485587               0.000648509              -0.000172922               0.000886161               0.000713240               0.000000000               0.000000000               0.000000000               0.000000000               0.000270041               0.002547377               0.000478933              -0.000217157               0.000921502               0.000704346               0.000000000               0.000000000               0.000000000               0.000000000               0.000224186               0.002565834               0.000371630              -0.000236659               0.000934156               0.000697497               0.000000000               0.000000000               0.000000000               0.000000000               0.000195322               0.002572871               0.000298412              -0.000248363               0.000940403               0.000692040               0.000000000               0.000000000               0.000000000               0.000000000               0.000175488               0.002574171               0.000245279              -0.000255963               0.000943369               0.000687406               0.000000000               0.000000000               0.000000000               0.000000000               0.000157941               0.002576156               0.000201257              -0.000262791               0.000946307               0.000683516               0.000000000               0.000000000               0.000000000               0.000000000               0.000141193               0.002589804               0.000161073              -0.000270777               0.000953518               0.000682741               0.000000000               0.000000000               0.000000000               0.000000000               0.000125037               0.002615933               0.000123002              -0.000280102               0.000965336               0.000685234               0.000000000               0.000000000               0.000000000               0.000000000               0.000106684               0.002647556               0.000092462              -0.000290937               0.000979489               0.000688552               0.000000000               0.000000000               0.000000000               0.000000000               0.000088146               0.002676658               0.000068676              -0.000301527               0.000992719               0.000691193               0.000000000               0.000000000               0.000000000               0.000000000               0.000078669               0.002702152               0.000049826              -0.000308267               0.001003464               0.000695197               0.000000000               0.000000000               0.000000000               0.000000000               0.000071327               0.002725088               0.000036220              -0.000313888               0.001012983               0.000699095               0.000000000               0.000000000               0.000000000               0.000000000               0.000056006               0.002751084               0.000026851              -0.000322883               0.001024646               0.000701764               0.000000000               0.000000000               0.000000000               0.000000000               0.000034494               0.002778097               0.000017370              -0.000334326               0.001037465               0.000703139               0.000000000               0.000000000               0.000000000               0.000000000               0.000020432               0.002790424               0.000011311              -0.000341140               0.001043845               0.000702705               0.000000000               0.000000000               0.000000000               0.000000000               0.000991296               0.001644044               0.001064834               0.000166228               0.000492599               0.000658827               0.000000000               0.000000000               0.000000000               0.000000000               0.000660997               0.001879466               0.000918054               0.000012939               0.000622169               0.000635108               0.000000000               0.000000000               0.000000000               0.000000000               0.000382394               0.002234760               0.000719559              -0.000135947               0.000790228               0.000654281               0.000000000               0.000000000               0.000000000               0.000000000               0.000283112               0.002368909               0.000562744              -0.000189947               0.000852944               0.000662997               0.000000000               0.000000000               0.000000000               0.000000000               0.000235533               0.002435797               0.000448921              -0.000216149               0.000883974               0.000667824               0.000000000               0.000000000               0.000000000               0.000000000               0.000205522               0.002476154               0.000366978              -0.000232448               0.000902859               0.000670411               0.000000000               0.000000000               0.000000000               0.000000000               0.000186582               0.002502662               0.000305686              -0.000242864               0.000915167               0.000672303               0.000000000               0.000000000               0.000000000               0.000000000               0.000170401               0.002523209               0.000252531              -0.000251500               0.000924894               0.000673394               0.000000000               0.000000000               0.000000000               0.000000000               0.000154457               0.002547598               0.000206372              -0.000260528               0.000936033               0.000675506               0.000000000               0.000000000               0.000000000               0.000000000               0.000140309               0.002581439               0.000165171              -0.000270063               0.000950492               0.000680429               0.000000000               0.000000000               0.000000000               0.000000000               0.000128411               0.002621512               0.000131114              -0.000279534               0.000967007               0.000687472               0.000000000               0.000000000               0.000000000               0.000000000               0.000114698               0.002664526               0.000102866              -0.000290053               0.000984851               0.000694798               0.000000000               0.000000000               0.000000000               0.000000000               0.000101960               0.002707145               0.000077071              -0.000300157               0.001002425               0.000702268               0.000000000               0.000000000               0.000000000               0.000000000               0.000090248               0.002743407               0.000052474              -0.000309082               0.001017487               0.000708405               0.000000000               0.000000000               0.000000000               0.000000000               0.000074710               0.002775414               0.000031952              -0.000318910               0.001031432               0.000712522               0.000000000               0.000000000               0.000000000               0.000000000               0.000053839               0.002809107               0.000015430              -0.000330948               0.001046676               0.000715728               0.000000000               0.000000000               0.000000000               0.000000000               0.000035696               0.002823143               0.000004876              -0.000339506               0.001054207               0.000714701               0.000000000               0.000000000               0.000000000               0.000000000               0.000911486               0.001227999               0.000903243               0.000188305               0.000346560               0.000534865               0.000000000               0.000000000               0.000000000               0.000000000               0.000675809               0.001531694               0.000868246               0.000061965               0.000489904               0.000551869               0.000000000               0.000000000               0.000000000               0.000000000               0.000434250               0.001951313               0.000773093              -0.000081071               0.000677454               0.000596384               0.000000000               0.000000000               0.000000000               0.000000000               0.000331624               0.002152989               0.000642412              -0.000144765               0.000765911               0.000621146               0.000000000               0.000000000               0.000000000               0.000000000               0.000276823               0.002271355               0.000530492              -0.000180111               0.000817148               0.000637037               0.000000000               0.000000000               0.000000000               0.000000000               0.000242118               0.002353096               0.000443869              -0.000203343               0.000852138               0.000648796               0.000000000               0.000000000               0.000000000               0.000000000               0.000217153               0.002413215               0.000374604              -0.000220219               0.000877803               0.000657584               0.000000000               0.000000000               0.000000000               0.000000000               0.000199218               0.002458040               0.000315600              -0.000232548               0.000896855               0.000664307               0.000000000               0.000000000               0.000000000               0.000000000               0.000183429               0.002494767               0.000266258              -0.000243059               0.000912601               0.000669541               0.000000000               0.000000000               0.000000000               0.000000000               0.000171752               0.002534992               0.000225153              -0.000252467               0.000929145               0.000676678               0.000000000               0.000000000               0.000000000               0.000000000               0.000161959               0.002583633               0.000187564              -0.000262219               0.000948609               0.000686390               0.000000000               0.000000000               0.000000000               0.000000000               0.000149960               0.002641022               0.000151438              -0.000273892               0.000971629               0.000697737               0.000000000               0.000000000               0.000000000               0.000000000               0.000134172               0.002700780               0.000117521              -0.000287282               0.000996012               0.000708729               0.000000000               0.000000000               0.000000000               0.000000000               0.000117994               0.002752722               0.000084558              -0.000299842               0.001017512               0.000717670               0.000000000               0.000000000               0.000000000               0.000000000               0.000097227               0.002788738               0.000053156              -0.000312131               0.001033614               0.000721482               0.000000000               0.000000000               0.000000000               0.000000000               0.000070393               0.002816836               0.000025007              -0.000325706               0.001047505               0.000721798               0.000000000               0.000000000               0.000000000               0.000000000               0.000045646               0.002823491               0.000007349              -0.000335818               0.001053094               0.000717275               0.000000000               0.000000000               0.000000000               0.000000000               0.000781399               0.000853716               0.000720671               0.000186308               0.000222466               0.000408774               0.000000000               0.000000000               0.000000000               0.000000000               0.000669765               0.001191841               0.000779276               0.000102180               0.000363216               0.000465396               0.000000000               0.000000000               0.000000000               0.000000000               0.000500591               0.001633444               0.000775511              -0.000016460               0.000549962               0.000533502               0.000000000               0.000000000               0.000000000               0.000000000               0.000408937               0.001887437               0.000682993              -0.000082579               0.000656666               0.000574087               0.000000000               0.000000000               0.000000000               0.000000000               0.000351276               0.002056875               0.000584893              -0.000125381               0.000727412               0.000602031               0.000000000               0.000000000               0.000000000               0.000000000               0.000308975               0.002182344               0.000500560              -0.000156927               0.000779750               0.000622822               0.000000000               0.000000000               0.000000000               0.000000000               0.000275314               0.002278508               0.000428759              -0.000181571               0.000820019               0.000638448               0.000000000               0.000000000               0.000000000               0.000000000               0.000252311               0.002354188               0.000367728              -0.000199657               0.000851274               0.000651617               0.000000000               0.000000000               0.000000000               0.000000000               0.000233708               0.002412244               0.000318555              -0.000213890               0.000875370               0.000661480               0.000000000               0.000000000               0.000000000               0.000000000               0.000218806               0.002464143               0.000278127              -0.000225965               0.000896694               0.000670729               0.000000000               0.000000000               0.000000000               0.000000000               0.000206788               0.002523756               0.000238363              -0.000237923               0.000920551               0.000682628               0.000000000               0.000000000               0.000000000               0.000000000               0.000196070               0.002596061               0.000197167              -0.000250981               0.000949005               0.000698024               0.000000000               0.000000000               0.000000000               0.000000000               0.000180314               0.002670848               0.000157855              -0.000266238               0.000979020               0.000712782               0.000000000               0.000000000               0.000000000               0.000000000               0.000159517               0.002739717               0.000119141              -0.000282645               0.001007445               0.000724800               0.000000000               0.000000000               0.000000000               0.000000000               0.000131835               0.002788634               0.000079198              -0.000299140               0.001029249               0.000730109               0.000000000               0.000000000               0.000000000               0.000000000               0.000095390               0.002820884               0.000039393              -0.000316839               0.001045898               0.000729060               0.000000000               0.000000000               0.000000000               0.000000000               0.000063082               0.002827442               0.000014557              -0.000329774               0.001052396               0.000722622               0.000000000               0.000000000               0.000000000               0.000000000               0.000618525               0.000547754               0.000534941               0.000163476               0.000128091               0.000291566               0.000000000               0.000000000               0.000000000               0.000000000               0.000642223               0.000878415               0.000655821               0.000131030               0.000249125               0.000380155               0.000000000               0.000000000               0.000000000               0.000000000               0.000571317               0.001305923               0.000719388               0.000051002               0.000418302               0.000469304               0.000000000               0.000000000               0.000000000               0.000000000               0.000507570               0.001593558               0.000667366              -0.000008857               0.000534133               0.000525276               0.000000000               0.000000000               0.000000000               0.000000000               0.000452311               0.001804677               0.000591779              -0.000055969               0.000620209               0.000564240               0.000000000               0.000000000               0.000000000               0.000000000               0.000405096               0.001967363               0.000517147              -0.000094009               0.000687118               0.000593108               0.000000000               0.000000000               0.000000000               0.000000000               0.000364027               0.002100396               0.000450643              -0.000126039               0.000742138               0.000616099               0.000000000               0.000000000               0.000000000               0.000000000               0.000333424               0.002211146               0.000393226              -0.000151359               0.000787494               0.000636135               0.000000000               0.000000000               0.000000000               0.000000000               0.000307830               0.002296565               0.000346043              -0.000171634               0.000822725               0.000651091               0.000000000               0.000000000               0.000000000               0.000000000               0.000282247               0.002368097               0.000306265              -0.000190169               0.000852747               0.000662578               0.000000000               0.000000000               0.000000000               0.000000000               0.000262583               0.002442078               0.000268113              -0.000206791               0.000882948               0.000676157               0.000000000               0.000000000               0.000000000               0.000000000               0.000247542               0.002523564               0.000226589              -0.000222617               0.000915385               0.000692769               0.000000000               0.000000000               0.000000000               0.000000000               0.000233201               0.002613644               0.000183609              -0.000239254               0.000950957               0.000711703               0.000000000               0.000000000               0.000000000               0.000000000               0.000212689               0.002702574               0.000141733              -0.000258063               0.000986870               0.000728807               0.000000000               0.000000000               0.000000000               0.000000000               0.000185226               0.002769936               0.000099005              -0.000276782               0.001015563               0.000738782               0.000000000               0.000000000               0.000000000               0.000000000               0.000149712               0.002815956               0.000052310              -0.000295852               0.001037260               0.000741408               0.000000000               0.000000000               0.000000000               0.000000000               0.000117359               0.002827585               0.000023727              -0.000309438               0.001045665               0.000736227               0.000000000               0.000000000               0.000000000               0.000000000               0.000451143               0.000322231               0.000363786               0.000128898               0.000064443               0.000193341               0.000000000               0.000000000               0.000000000               0.000000000               0.000602598               0.000613053               0.000506227               0.000149341               0.000154568               0.000303909               0.000000000               0.000000000               0.000000000               0.000000000               0.000637010               0.000999156               0.000604728               0.000113983               0.000295054               0.000409037               0.000000000               0.000000000               0.000000000               0.000000000               0.000611689               0.001303347               0.000584641               0.000066464               0.000412290               0.000478754               0.000000000               0.000000000               0.000000000               0.000000000               0.000565646               0.001541560               0.000534085               0.000019422               0.000507374               0.000526796               0.000000000               0.000000000               0.000000000               0.000000000               0.000517254               0.001734358               0.000477150              -0.000022825               0.000585722               0.000562897               0.000000000               0.000000000               0.000000000               0.000000000               0.000470298               0.001900388               0.000423481              -0.000061187               0.000653852               0.000592665               0.000000000               0.000000000               0.000000000               0.000000000               0.000430392               0.002046056               0.000375569              -0.000094360               0.000713465               0.000619105               0.000000000               0.000000000               0.000000000               0.000000000               0.000395211               0.002166639               0.000333364              -0.000122626               0.000763081               0.000640455               0.000000000               0.000000000               0.000000000               0.000000000               0.000359335               0.002262390               0.000296904              -0.000148048               0.000803472               0.000655424               0.000000000               0.000000000               0.000000000               0.000000000               0.000325795               0.002353215               0.000262994              -0.000171978               0.000841723               0.000669745               0.000000000               0.000000000               0.000000000               0.000000000               0.000301321               0.002447452               0.000227823              -0.000192936               0.000880121               0.000687185               0.000000000               0.000000000               0.000000000               0.000000000               0.000287467               0.002548143               0.000188983              -0.000210717               0.000919612               0.000708894               0.000000000               0.000000000               0.000000000               0.000000000               0.000275774               0.002649545               0.000148282              -0.000227778               0.000959099               0.000731321               0.000000000               0.000000000               0.000000000               0.000000000               0.000256698               0.002733272               0.000107550              -0.000245397               0.000992880               0.000747484               0.000000000               0.000000000               0.000000000               0.000000000               0.000232796               0.002797784               0.000059665              -0.000262424               0.001020060               0.000757636               0.000000000               0.000000000               0.000000000               0.000000000               0.000209086               0.002819582               0.000029775              -0.000274040               0.001031198               0.000757158               0.000000000               0.000000000               0.000000000               0.000000000               0.000302299               0.000169614               0.000219876               0.000092159               0.000025818               0.000117977               0.000000000               0.000000000               0.000000000               0.000000000               0.000560873               0.000413801               0.000341935               0.000158601               0.000085065               0.000243666               0.000000000               0.000000000               0.000000000               0.000000000               0.000689494               0.000750540               0.000436097               0.000164741               0.000195264               0.000360005               0.000000000               0.000000000               0.000000000               0.000000000               0.000701354               0.001053217               0.000436092               0.000131354               0.000307284               0.000438638               0.000000000               0.000000000               0.000000000               0.000000000               0.000668946               0.001308424               0.000407812               0.000087301               0.000407037               0.000494337               0.000000000               0.000000000               0.000000000               0.000000000               0.000620754               0.001525717               0.000370971               0.000042067               0.000494545               0.000536612               0.000000000               0.000000000               0.000000000               0.000000000               0.000569343               0.001714944               0.000334522              -0.000000865               0.000571931               0.000571066               0.000000000               0.000000000               0.000000000               0.000000000               0.000521841               0.001887613               0.000301164              -0.000040262               0.000642619               0.000602357               0.000000000               0.000000000               0.000000000               0.000000000               0.000478100               0.002037209               0.000269262              -0.000075363               0.000704184               0.000628821               0.000000000               0.000000000               0.000000000               0.000000000               0.000433909               0.002158994               0.000238378              -0.000107158               0.000755377               0.000648219               0.000000000               0.000000000               0.000000000               0.000000000               0.000391830               0.002272133               0.000211247              -0.000137080               0.000803064               0.000665983               0.000000000               0.000000000               0.000000000               0.000000000               0.000361112               0.002379932               0.000188799              -0.000162074               0.000847327               0.000685253               0.000000000               0.000000000               0.000000000               0.000000000               0.000346354               0.002483189               0.000162650              -0.000180515               0.000887893               0.000707378               0.000000000               0.000000000               0.000000000               0.000000000               0.000339945               0.002587305               0.000127916              -0.000195933               0.000927737               0.000731804               0.000000000               0.000000000               0.000000000               0.000000000               0.000334293               0.002686216               0.000092949              -0.000210417               0.000965535               0.000755119               0.000000000               0.000000000               0.000000000               0.000000000               0.000331229               0.002772058               0.000053227              -0.000222296               0.000998109               0.000775813               0.000000000               0.000000000               0.000000000               0.000000000               0.000327378               0.002808345               0.000028597              -0.000228276               0.001012198               0.000783922               0.000000000               0.000000000               0.000000000               0.000000000               0.000196816               0.000083105               0.000100451               0.000063417               0.000006562               0.000069979               0.000000000               0.000000000               0.000000000               0.000000000               0.000525043               0.000289752               0.000170978               0.000160671               0.000043026               0.000203697               0.000000000               0.000000000               0.000000000               0.000000000               0.000721401               0.000587752               0.000228070               0.000197054               0.000130231               0.000327285               0.000000000               0.000000000               0.000000000               0.000000000               0.000764073               0.000885740               0.000233122               0.000175808               0.000236641               0.000412449               0.000000000               0.000000000               0.000000000               0.000000000               0.000743773               0.001148991               0.000221121               0.000135290               0.000337897               0.000473186               0.000000000               0.000000000               0.000000000               0.000000000               0.000697853               0.001379774               0.000203421               0.000089222               0.000430179               0.000519402               0.000000000               0.000000000               0.000000000               0.000000000               0.000643413               0.001582130               0.000186330               0.000043513               0.000512867               0.000556380               0.000000000               0.000000000               0.000000000               0.000000000               0.000587506               0.001766302               0.000169959              -0.000000473               0.000588919               0.000588446               0.000000000               0.000000000               0.000000000               0.000000000               0.000535042               0.001935490               0.000151436              -0.000041295               0.000658922               0.000617626               0.000000000               0.000000000               0.000000000               0.000000000               0.000487911               0.002083533               0.000132066              -0.000077475               0.000720329               0.000642854               0.000000000               0.000000000               0.000000000               0.000000000               0.000448176               0.002211201               0.000117478              -0.000108334               0.000773171               0.000664837               0.000000000               0.000000000               0.000000000               0.000000000               0.000414973               0.002323512               0.000109788              -0.000134824               0.000819437               0.000684614               0.000000000               0.000000000               0.000000000               0.000000000               0.000391219               0.002430211               0.000096440              -0.000157069               0.000862418               0.000705350               0.000000000               0.000000000               0.000000000               0.000000000               0.000382723               0.002538073               0.000073258              -0.000173737               0.000903928               0.000730191               0.000000000               0.000000000               0.000000000               0.000000000               0.000390679               0.002646464               0.000052218              -0.000184303               0.000943580               0.000759277               0.000000000               0.000000000               0.000000000               0.000000000               0.000411118               0.002748549               0.000031253              -0.000189399               0.000979307               0.000789908               0.000000000               0.000000000               0.000000000               0.000000000               0.000427633               0.002797522               0.000018903              -0.000189327               0.000995607               0.000806280               0.000000000               0.000000000               0.000000000               0.000000000               0.000159165               0.000057001              -0.000000000               0.000052561               0.000001480               0.000054041               0.000000000               0.000000000               0.000000000               0.000000000               0.000510881               0.000249469              -0.000000000               0.000160395               0.000029690               0.000190085               0.000000000               0.000000000               0.000000000               0.000000000               0.000732024               0.000532268               0.000000000               0.000207973               0.000108096               0.000316070               0.000000000               0.000000000               0.000000000               0.000000000               0.000786479               0.000825780               0.000000000               0.000191705               0.000211356               0.000403061               0.000000000               0.000000000               0.000000000               0.000000000               0.000772465               0.001090808               0.000000000               0.000153322               0.000312492               0.000465814               0.000000000               0.000000000               0.000000000               0.000000000               0.000729755               0.001328946               0.000000000               0.000107539               0.000407131               0.000514670               0.000000000               0.000000000               0.000000000               0.000000000               0.000674239               0.001536853               0.000000000               0.000060732               0.000492035               0.000552767               0.000000000               0.000000000               0.000000000               0.000000000               0.000611501               0.001719453              -0.000000000               0.000014381               0.000568352               0.000582733               0.000000000               0.000000000               0.000000000               0.000000000               0.000553458               0.001894779               0.000000000              -0.000029301               0.000641353               0.000612053               0.000000000               0.000000000               0.000000000               0.000000000               0.000507860               0.002057346               0.000000000              -0.000066721               0.000708015               0.000641295               0.000000000               0.000000000               0.000000000               0.000000000               0.000472331               0.002189287               0.000000000              -0.000096537               0.000761934               0.000665397               0.000000000               0.000000000               0.000000000               0.000000000               0.000437088               0.002299998               0.000000000              -0.000123591               0.000807856               0.000684264               0.000000000               0.000000000               0.000000000               0.000000000               0.000404322               0.002408251               0.000000000              -0.000149410               0.000852546               0.000703135               0.000000000               0.000000000               0.000000000               0.000000000               0.000394321               0.002519127              -0.000000000              -0.000167020               0.000895374               0.000728354               0.000000000               0.000000000               0.000000000               0.000000000               0.000409750               0.002631312               0.000000000              -0.000175257               0.000935514               0.000760257               0.000000000               0.000000000               0.000000000               0.000000000               0.000441445               0.002739950               0.000000000              -0.000176952               0.000972291               0.000795340               0.000000000               0.000000000               0.000000000               0.000000000               0.000465657               0.002793797               0.000000000              -0.000174603               0.000989457               0.000814855               0.000000000               0.000000000               0.000000000               0.000000000               0.000445332               0.005201271               0.000000000              -0.000483158               0.001894792               0.001411634               0.000000000               0.000000000               0.000000000               0.000000000               0.000494874               0.004333078               0.000000000              -0.000356056               0.001563030               0.001206974               0.000000000               0.000000000               0.000000000               0.000000000               0.000690522               0.003631022              -0.000000000              -0.000194932               0.001275306               0.001080374               0.000000000               0.000000000               0.000000000               0.000000000               0.000725482               0.003246229              -0.000000000              -0.000133723               0.001126640               0.000992917               0.000000000               0.000000000               0.000000000               0.000000000               0.000693700               0.003021329               0.000000000              -0.000117528               0.001046276               0.000928747               0.000000000               0.000000000               0.000000000               0.000000000               0.000632088               0.002883427               0.000000000              -0.000123395               0.001002264               0.000878869               0.000000000               0.000000000               0.000000000               0.000000000               0.000566212               0.002802384               0.000000000              -0.000137968               0.000980108               0.000842140               0.000000000               0.000000000               0.000000000               0.000000000               0.000502112               0.002754315               0.000000000              -0.000155997               0.000970095               0.000814098               0.000000000               0.000000000               0.000000000               0.000000000               0.000438492               0.002726044              -0.000000000              -0.000176320               0.000967446               0.000791125               0.000000000               0.000000000               0.000000000               0.000000000               0.000377825               0.002713130               0.000000000              -0.000197456               0.000970186               0.000772730               0.000000000               0.000000000               0.000000000               0.000000000               0.000320169               0.002710461               0.000000000              -0.000218744               0.000976392               0.000757649               0.000000000               0.000000000               0.000000000               0.000000000               0.000264623               0.002716451               0.000000000              -0.000240322               0.000985582               0.000745260               0.000000000               0.000000000               0.000000000               0.000000000               0.000213275               0.002726413              -0.000000000              -0.000260823               0.000995736               0.000734913               0.000000000               0.000000000               0.000000000               0.000000000               0.000163104               0.002740059               0.000000000              -0.000281343               0.001007125               0.000725782               0.000000000               0.000000000               0.000000000               0.000000000               0.000109745               0.002758681               0.000000000              -0.000303680               0.001020778               0.000717098               0.000000000               0.000000000               0.000000000               0.000000000               0.000054565               0.002778816              -0.000000000              -0.000326889               0.001035226               0.000708336               0.000000000               0.000000000               0.000000000               0.000000000               0.000029253               0.002794214              -0.000000000              -0.000338306               0.001044164               0.000705858               0.000000000               0.000000000               0.000000000               0.000000000               0.000475979               0.005119948              -0.000401876              -0.000461500               0.001860466               0.001398965               0.000000000               0.000000000               0.000000000               0.000000000               0.000507546               0.004273787              -0.000266246              -0.000343893               0.001539212               0.001195319               0.000000000               0.000000000               0.000000000               0.000000000               0.000683807               0.003598702              -0.000123216              -0.000193410               0.001264025               0.001070616               0.000000000               0.000000000               0.000000000               0.000000000               0.000709799               0.003229229              -0.000053610              -0.000137479               0.001122225               0.000984746               0.000000000               0.000000000               0.000000000               0.000000000               0.000675162               0.003014149              -0.000019008              -0.000123583               0.001045900               0.000922318               0.000000000               0.000000000               0.000000000               0.000000000               0.000613859               0.002883261              -0.000000773              -0.000130210               0.001004481               0.000874270               0.000000000               0.000000000               0.000000000               0.000000000               0.000547300               0.002802511               0.000008561              -0.000145076               0.000982519               0.000837444               0.000000000               0.000000000               0.000000000               0.000000000               0.000481130               0.002754468               0.000011259              -0.000163884               0.000972775               0.000808891               0.000000000               0.000000000               0.000000000               0.000000000               0.000418414               0.002727805               0.000011593              -0.000184070               0.000970616               0.000786546               0.000000000               0.000000000               0.000000000               0.000000000               0.000360249               0.002715671               0.000010892              -0.000204365               0.000973336               0.000768971               0.000000000               0.000000000               0.000000000               0.000000000               0.000304500               0.002712384               0.000010311              -0.000224860               0.000979072               0.000754212               0.000000000               0.000000000               0.000000000               0.000000000               0.000250804               0.002716406               0.000009045              -0.000245499               0.000987292               0.000741794               0.000000000               0.000000000               0.000000000               0.000000000               0.000200831               0.002725425               0.000006566              -0.000265366               0.000996921               0.000731555               0.000000000               0.000000000               0.000000000               0.000000000               0.000153251               0.002738730               0.000007858              -0.000284872               0.001007858               0.000722987               0.000000000               0.000000000               0.000000000               0.000000000               0.000103014               0.002758258               0.000010855              -0.000306151               0.001021461               0.000715309               0.000000000               0.000000000               0.000000000               0.000000000               0.000050934               0.002781536               0.000008781              -0.000328591               0.001036700               0.000708109               0.000000000               0.000000000               0.000000000               0.000000000               0.000027846               0.002799614               0.000005281              -0.000339509               0.001046365               0.000706856               0.000000000               0.000000000               0.000000000               0.000000000               0.000560752               0.004883555              -0.000765223              -0.000400162               0.001761223               0.001361061               0.000000000               0.000000000               0.000000000               0.000000000               0.000541828               0.004104315              -0.000506232              -0.000309853               0.001471376               0.001161522               0.000000000               0.000000000               0.000000000               0.000000000               0.000663390               0.003504625              -0.000235498              -0.000189306               0.001231299               0.001041992               0.000000000               0.000000000               0.000000000               0.000000000               0.000662413               0.003175829              -0.000106628              -0.000148573               0.001108123               0.000959550               0.000000000               0.000000000               0.000000000               0.000000000               0.000618699               0.002984728              -0.000043273              -0.000141079               0.001041926               0.000900847               0.000000000               0.000000000               0.000000000               0.000000000               0.000557265               0.002868362              -0.000012700              -0.000149571               0.001005968               0.000856397               0.000000000               0.000000000               0.000000000               0.000000000               0.000490351               0.002793776               0.000002173              -0.000165340               0.000986363               0.000821023               0.000000000               0.000000000               0.000000000               0.000000000               0.000425296               0.002747462               0.000009105              -0.000183946               0.000977127               0.000793181               0.000000000               0.000000000               0.000000000               0.000000000               0.000368047               0.002723371               0.000011145              -0.000202403               0.000975249               0.000772846               0.000000000               0.000000000               0.000000000               0.000000000               0.000314844               0.002711749               0.000009785              -0.000220902               0.000977541               0.000756640               0.000000000               0.000000000               0.000000000               0.000000000               0.000263479               0.002708134               0.000008425              -0.000239712               0.000982606               0.000742894               0.000000000               0.000000000               0.000000000               0.000000000               0.000215641               0.002711699               0.000007134              -0.000258097               0.000989923               0.000731826               0.000000000               0.000000000               0.000000000               0.000000000               0.000170096               0.002720760               0.000004410              -0.000276308               0.000999014               0.000722706               0.000000000               0.000000000               0.000000000               0.000000000               0.000127506               0.002735810               0.000007481              -0.000294161               0.001009981               0.000715820               0.000000000               0.000000000               0.000000000               0.000000000               0.000085398               0.002757745               0.000014617              -0.000312693               0.001023470               0.000710777               0.000000000               0.000000000               0.000000000               0.000000000               0.000042189               0.002784510               0.000012660              -0.000332242               0.001038908               0.000706666               0.000000000               0.000000000               0.000000000               0.000000000               0.000024198               0.002806408               0.000006519              -0.000341726               0.001049368               0.000707643               0.000000000               0.000000000               0.000000000               0.000000000               0.000682849               0.004517458              -0.001055598              -0.000308614               0.001608675               0.001300062               0.000000000               0.000000000               0.000000000               0.000000000               0.000586111               0.003845781              -0.000699294              -0.000260931               0.001368891               0.001107960               0.000000000               0.000000000               0.000000000               0.000000000               0.000625548               0.003360570              -0.000331656              -0.000185490               0.001182009               0.000996519               0.000000000               0.000000000               0.000000000               0.000000000               0.000590732               0.003091590              -0.000161946              -0.000164924               0.001085494               0.000920570               0.000000000               0.000000000               0.000000000               0.000000000               0.000534168               0.002932934              -0.000079461              -0.000166303               0.001033069               0.000866766               0.000000000               0.000000000               0.000000000               0.000000000               0.000472227               0.002833255              -0.000039651              -0.000177071               0.001003432               0.000826361               0.000000000               0.000000000               0.000000000               0.000000000               0.000412252               0.002771115              -0.000020848              -0.000191794               0.000987627               0.000795833               0.000000000               0.000000000               0.000000000               0.000000000               0.000353717               0.002732817              -0.000011532              -0.000208958               0.000980583               0.000771625               0.000000000               0.000000000               0.000000000               0.000000000               0.000301840               0.002712204              -0.000008233              -0.000225835               0.000979337               0.000753502               0.000000000               0.000000000               0.000000000               0.000000000               0.000256835               0.002702734              -0.000009684              -0.000241528               0.000981412               0.000739884               0.000000000               0.000000000               0.000000000               0.000000000               0.000215424               0.002700483              -0.000009862              -0.000256776               0.000985744               0.000728968               0.000000000               0.000000000               0.000000000               0.000000000               0.000176530               0.002704497              -0.000008705              -0.000271863               0.000992111               0.000720248               0.000000000               0.000000000               0.000000000               0.000000000               0.000136237               0.002716578              -0.000009423              -0.000288483               0.001001678               0.000713195               0.000000000               0.000000000               0.000000000               0.000000000               0.000096069               0.002733685              -0.000004586              -0.000305684               0.001013114               0.000707430               0.000000000               0.000000000               0.000000000               0.000000000               0.000060659               0.002752880               0.000005656              -0.000321362               0.001024738               0.000703376               0.000000000               0.000000000               0.000000000               0.000000000               0.000029059               0.002774037               0.000007785              -0.000335857               0.001036622               0.000700765               0.000000000               0.000000000               0.000000000               0.000000000               0.000016915               0.002791181               0.000003655              -0.000342554               0.001044569               0.000702015               0.000000000               0.000000000               0.000000000               0.000000000               0.000812067               0.004059724              -0.001251398              -0.000202941               0.001420874               0.001217933               0.000000000               0.000000000               0.000000000               0.000000000               0.000625159               0.003526258              -0.000836274              -0.000206348               0.001244190               0.001037842               0.000000000               0.000000000               0.000000000               0.000000000               0.000569985               0.003186378              -0.000411670              -0.000184553               0.001123633               0.000939080               0.000000000               0.000000000               0.000000000               0.000000000               0.000505576               0.002991956              -0.000220835              -0.000184403               0.001058776               0.000874373               0.000000000               0.000000000               0.000000000               0.000000000               0.000443844               0.002870938              -0.000128848              -0.000192425               0.001021111               0.000828686               0.000000000               0.000000000               0.000000000               0.000000000               0.000385055               0.002791950              -0.000083700              -0.000204598               0.000998840               0.000794242               0.000000000               0.000000000               0.000000000               0.000000000               0.000332590               0.002742330              -0.000061193              -0.000218070               0.000986791               0.000768721               0.000000000               0.000000000               0.000000000               0.000000000               0.000283636               0.002712702              -0.000049093              -0.000232724               0.000981800               0.000749076               0.000000000               0.000000000               0.000000000               0.000000000               0.000240470               0.002696254              -0.000042862              -0.000246855               0.000981027               0.000734172               0.000000000               0.000000000               0.000000000               0.000000000               0.000205135               0.002689103              -0.000040647              -0.000259211               0.000982762               0.000723551               0.000000000               0.000000000               0.000000000               0.000000000               0.000173716               0.002689443              -0.000038775              -0.000271036               0.000986817               0.000715781               0.000000000               0.000000000               0.000000000               0.000000000               0.000139781               0.002693485              -0.000032460              -0.000284267               0.000992575               0.000708308               0.000000000               0.000000000               0.000000000               0.000000000               0.000101887               0.002704661              -0.000026372              -0.000299874               0.001001503               0.000701628               0.000000000               0.000000000               0.000000000               0.000000000               0.000066142               0.002718888              -0.000020112              -0.000315057               0.001011306               0.000696249               0.000000000               0.000000000               0.000000000               0.000000000               0.000039012               0.002729335              -0.000008366              -0.000326537               0.001018615               0.000692078               0.000000000               0.000000000               0.000000000               0.000000000               0.000018327               0.002735107              -0.000000637              -0.000335015               0.001023365               0.000688350               0.000000000               0.000000000               0.000000000               0.000000000               0.000010687               0.002740758              -0.000000875              -0.000338586               0.001026439               0.000687853               0.000000000               0.000000000               0.000000000               0.000000000               0.000916057               0.003549222              -0.001353130              -0.000100133               0.001216439               0.001116307               0.000000000               0.000000000               0.000000000               0.000000000               0.000648846               0.003179127              -0.000920669              -0.000154074               0.001111056               0.000956982               0.000000000               0.000000000               0.000000000               0.000000000               0.000507194               0.003004583              -0.000478559              -0.000185375               0.001063309               0.000877934               0.000000000               0.000000000               0.000000000               0.000000000               0.000420737               0.002885906              -0.000283711              -0.000202961               0.001029613               0.000826651               0.000000000               0.000000000               0.000000000               0.000000000               0.000359320               0.002800051              -0.000188632              -0.000215261               0.001005095               0.000789834               0.000000000               0.000000000               0.000000000               0.000000000               0.000307856               0.002741636              -0.000139525              -0.000227258               0.000989622               0.000762364               0.000000000               0.000000000               0.000000000               0.000000000               0.000264166               0.002704692              -0.000112528              -0.000239024               0.000981230               0.000742206               0.000000000               0.000000000               0.000000000               0.000000000               0.000227442               0.002681895              -0.000094424              -0.000249946               0.000977271               0.000727326               0.000000000               0.000000000               0.000000000               0.000000000               0.000194315               0.002667125              -0.000081220              -0.000260522               0.000975873               0.000715351               0.000000000               0.000000000               0.000000000               0.000000000               0.000165911               0.002661605              -0.000072104              -0.000270483               0.000977354               0.000706871               0.000000000               0.000000000               0.000000000               0.000000000               0.000137480               0.002663561              -0.000064923              -0.000281389               0.000981641               0.000700252               0.000000000               0.000000000               0.000000000               0.000000000               0.000107867               0.002670663              -0.000053415              -0.000293382               0.000988006               0.000694624               0.000000000               0.000000000               0.000000000               0.000000000               0.000076691               0.002680877              -0.000039410              -0.000306350               0.000995733               0.000689383               0.000000000               0.000000000               0.000000000               0.000000000               0.000047964               0.002691493              -0.000029737              -0.000318449               0.001003305               0.000684856               0.000000000               0.000000000               0.000000000               0.000000000               0.000027947               0.002695562              -0.000020237              -0.000326464               0.001007333               0.000680869               0.000000000               0.000000000               0.000000000               0.000000000               0.000012880               0.002693861              -0.000009442              -0.000331902               0.001008579               0.000676677               0.000000000               0.000000000               0.000000000               0.000000000               0.000007686               0.002696212              -0.000005330              -0.000334144               0.001010110               0.000675966               0.000000000               0.000000000               0.000000000               0.000000000               0.000982566               0.003025445              -0.001369865              -0.000009720               0.001011711               0.001001991               0.000000000               0.000000000               0.000000000               0.000000000               0.000656919               0.002835523              -0.000959633              -0.000108097               0.000981197               0.000873100               0.000000000               0.000000000               0.000000000               0.000000000               0.000446529               0.002826931              -0.000537132              -0.000185918               0.001004274               0.000818356               0.000000000               0.000000000               0.000000000               0.000000000               0.000348022               0.002773299              -0.000349446              -0.000216154               0.000996475               0.000780321               0.000000000               0.000000000               0.000000000               0.000000000               0.000290387               0.002720407              -0.000252858              -0.000231155               0.000983845               0.000752690               0.000000000               0.000000000               0.000000000               0.000000000               0.000248459               0.002682953              -0.000197291              -0.000242196               0.000975041               0.000732844               0.000000000               0.000000000               0.000000000               0.000000000               0.000214510               0.002658008              -0.000161711              -0.000251809               0.000969930               0.000718121               0.000000000               0.000000000               0.000000000               0.000000000               0.000188160               0.002641872              -0.000136191              -0.000259673               0.000967173               0.000707500               0.000000000               0.000000000               0.000000000               0.000000000               0.000161600               0.002629952              -0.000114548              -0.000268144               0.000966023               0.000697880               0.000000000               0.000000000               0.000000000               0.000000000               0.000137200               0.002629366              -0.000096636              -0.000277220               0.000968853               0.000691633               0.000000000               0.000000000               0.000000000               0.000000000               0.000110913               0.002636920              -0.000080901              -0.000288022               0.000974972               0.000686950               0.000000000               0.000000000               0.000000000               0.000000000               0.000083604               0.002652075              -0.000062454              -0.000300157               0.000984068               0.000683911               0.000000000               0.000000000               0.000000000               0.000000000               0.000061436               0.002668573              -0.000042937              -0.000310532               0.000993026               0.000682494               0.000000000               0.000000000               0.000000000               0.000000000               0.000044794               0.002679845              -0.000031953              -0.000318182               0.000999333               0.000681151               0.000000000               0.000000000               0.000000000               0.000000000               0.000030355               0.002685272              -0.000025534              -0.000324275               0.001003173               0.000678898               0.000000000               0.000000000               0.000000000               0.000000000               0.000015863               0.002691171              -0.000014427              -0.000330447               0.001007197               0.000676750               0.000000000               0.000000000               0.000000000               0.000000000               0.000011329               0.002699170              -0.000008867              -0.000333147               0.001010763               0.000677616               0.000000000               0.000000000               0.000000000               0.000000000               0.001011552               0.002523157              -0.001311430               0.000063935               0.000819732               0.000883667               0.000000000               0.000000000               0.000000000               0.000000000               0.000649843               0.002514182              -0.000961001              -0.000070583               0.000861580               0.000790997               0.000000000               0.000000000               0.000000000               0.000000000               0.000394120               0.002651589              -0.000589765              -0.000183653               0.000945072               0.000761418               0.000000000               0.000000000               0.000000000               0.000000000               0.000293796               0.002654132              -0.000412182              -0.000221593               0.000958566               0.000736973               0.000000000               0.000000000               0.000000000               0.000000000               0.000243825               0.002635929              -0.000311479              -0.000238056               0.000957986               0.000719930               0.000000000               0.000000000               0.000000000               0.000000000               0.000210249               0.002620534              -0.000247496              -0.000248723               0.000956410               0.000707687               0.000000000               0.000000000               0.000000000               0.000000000               0.000183450               0.002607533              -0.000202779              -0.000257147               0.000954885               0.000697737               0.000000000               0.000000000               0.000000000               0.000000000               0.000162708               0.002598606              -0.000168530              -0.000263810               0.000954130               0.000690320               0.000000000               0.000000000               0.000000000               0.000000000               0.000141520               0.002597428              -0.000137723              -0.000271608               0.000956337               0.000684729               0.000000000               0.000000000               0.000000000               0.000000000               0.000121122               0.002608698              -0.000108406              -0.000280666               0.000963112               0.000682447               0.000000000               0.000000000               0.000000000               0.000000000               0.000099055               0.002630193              -0.000083300              -0.000291628               0.000973932               0.000682304               0.000000000               0.000000000               0.000000000               0.000000000               0.000076667               0.002655706              -0.000060042              -0.000303213               0.000986297               0.000683085               0.000000000               0.000000000               0.000000000               0.000000000               0.000061913               0.002677103              -0.000041638              -0.000311420               0.000996165               0.000684745               0.000000000               0.000000000               0.000000000               0.000000000               0.000051380               0.002692635              -0.000032878              -0.000317311               0.001003306               0.000685995               0.000000000               0.000000000               0.000000000               0.000000000               0.000038014               0.002708215              -0.000027546              -0.000324271               0.001010820               0.000686549               0.000000000               0.000000000               0.000000000               0.000000000               0.000019787               0.002724818              -0.000016883              -0.000333181               0.001019324               0.000686143               0.000000000               0.000000000               0.000000000               0.000000000               0.000012223               0.002735764              -0.000010898              -0.000337386               0.001024374               0.000686988               0.000000000               0.000000000               0.000000000               0.000000000               0.001018309               0.002079864              -0.001201198               0.000121880               0.000652654               0.000774534               0.000000000               0.000000000               0.000000000               0.000000000               0.000647840               0.002223338              -0.000943593              -0.000034978               0.000752764               0.000717786               0.000000000               0.000000000               0.000000000               0.000000000               0.000367405               0.002485587              -0.000648509              -0.000172922               0.000886161               0.000713240               0.000000000               0.000000000               0.000000000               0.000000000               0.000270041               0.002547377              -0.000478933              -0.000217157               0.000921502               0.000704346               0.000000000               0.000000000               0.000000000               0.000000000               0.000224186               0.002565834              -0.000371630              -0.000236659               0.000934156               0.000697497               0.000000000               0.000000000               0.000000000               0.000000000               0.000195322               0.002572871              -0.000298412              -0.000248363               0.000940403               0.000692040               0.000000000               0.000000000               0.000000000               0.000000000               0.000175488               0.002574171              -0.000245279              -0.000255963               0.000943369               0.000687406               0.000000000               0.000000000               0.000000000               0.000000000               0.000157941               0.002576156              -0.000201257              -0.000262791               0.000946307               0.000683516               0.000000000               0.000000000               0.000000000               0.000000000               0.000141193               0.002589804              -0.000161073              -0.000270777               0.000953518               0.000682741               0.000000000               0.000000000               0.000000000               0.000000000               0.000125037               0.002615933              -0.000123002              -0.000280102               0.000965336               0.000685234               0.000000000               0.000000000               0.000000000               0.000000000               0.000106684               0.002647556              -0.000092462              -0.000290937               0.000979489               0.000688552               0.000000000               0.000000000               0.000000000               0.000000000               0.000088146               0.002676658              -0.000068676              -0.000301527               0.000992719               0.000691193               0.000000000               0.000000000               0.000000000               0.000000000               0.000078669               0.002702152              -0.000049826              -0.000308267               0.001003464               0.000695197               0.000000000               0.000000000               0.000000000               0.000000000               0.000071327               0.002725088              -0.000036220              -0.000313888               0.001012983               0.000699095               0.000000000               0.000000000               0.000000000               0.000000000               0.000056006               0.002751084              -0.000026851              -0.000322883               0.001024646               0.000701764               0.000000000               0.000000000               0.000000000               0.000000000               0.000034494               0.002778097              -0.000017370              -0.000334326               0.001037465               0.000703139               0.000000000               0.000000000               0.000000000               0.000000000               0.000020432               0.002790424              -0.000011311              -0.000341140               0.001043845               0.000702705               0.000000000               0.000000000               0.000000000               0.000000000               0.000991296               0.001644044              -0.001064834               0.000166228               0.000492599               0.000658827               0.000000000               0.000000000               0.000000000               0.000000000               0.000660997               0.001879466              -0.000918054               0.000012939               0.000622169               0.000635108               0.000000000               0.000000000               0.000000000               0.000000000               0.000382394               0.002234760              -0.000719559              -0.000135947               0.000790228               0.000654281               0.000000000               0.000000000               0.000000000               0.000000000               0.000283112               0.002368909              -0.000562744              -0.000189947               0.000852944               0.000662997               0.000000000               0.000000000               0.000000000               0.000000000               0.000235533               0.002435797              -0.000448921              -0.000216149               0.000883974               0.000667824               0.000000000               0.000000000               0.000000000               0.000000000               0.000205522               0.002476154              -0.000366978              -0.000232448               0.000902859               0.000670411               0.000000000               0.000000000               0.000000000               0.000000000               0.000186582               0.002502662              -0.000305686              -0.000242864               0.000915167               0.000672303               0.000000000               0.000000000               0.000000000               0.000000000               0.000170401               0.002523209              -0.000252531              -0.000251500               0.000924894               0.000673394               0.000000000               0.000000000               0.000000000               0.000000000               0.000154457               0.002547598              -0.000206372              -0.000260528               0.000936033               0.000675506               0.000000000               0.000000000               0.000000000               0.000000000               0.000140309               0.002581439              -0.000165171              -0.000270063               0.000950492               0.000680429               0.000000000               0.000000000               0.000000000               0.000000000               0.000128411               0.002621512              -0.000131114              -0.000279534               0.000967007               0.000687472               0.000000000               0.000000000               0.000000000               0.000000000               0.000114698               0.002664526              -0.000102866              -0.000290053               0.000984851               0.000694798               0.000000000               0.000000000               0.000000000               0.000000000               0.000101960               0.002707145              -0.000077071              -0.000300157               0.001002425               0.000702268               0.000000000               0.000000000               0.000000000               0.000000000               0.000090248               0.002743407              -0.000052474              -0.000309082               0.001017487               0.000708405               0.000000000               0.000000000               0.000000000               0.000000000               0.000074710               0.002775414              -0.000031952              -0.000318910               0.001031432               0.000712522               0.000000000               0.000000000               0.000000000               0.000000000               0.000053839               0.002809107              -0.000015430              -0.000330948               0.001046676               0.000715728               0.000000000               0.000000000               0.000000000               0.000000000               0.000035696               0.002823143              -0.000004876              -0.000339506               0.001054207               0.000714701               0.000000000               0.000000000               0.000000000               0.000000000               0.000911486               0.001227999              -0.000903243               0.000188305               0.000346560               0.000534865               0.000000000               0.000000000               0.000000000               0.000000000               0.000675809               0.001531694              -0.000868246               0.000061965               0.000489904               0.000551869               0.000000000               0.000000000               0.000000000               0.000000000               0.000434250               0.001951313              -0.000773093              -0.000081071               0.000677454               0.000596384               0.000000000               0.000000000               0.000000000               0.000000000               0.000331624               0.002152989              -0.000642412              -0.000144765               0.000765911               0.000621146               0.000000000               0.000000000               0.000000000               0.000000000               0.000276823               0.002271355              -0.000530492              -0.000180111               0.000817148               0.000637037               0.000000000               0.000000000               0.000000000               0.000000000               0.000242118               0.002353096              -0.000443869              -0.000203343               0.000852138               0.000648796               0.000000000               0.000000000               0.000000000               0.000000000               0.000217153               0.002413215              -0.000374604              -0.000220219               0.000877803               0.000657584               0.000000000               0.000000000               0.000000000               0.000000000               0.000199218               0.002458040              -0.000315600              -0.000232548               0.000896855               0.000664307               0.000000000               0.000000000               0.000000000               0.000000000               0.000183429               0.002494767              -0.000266258              -0.000243059               0.000912601               0.000669541               0.000000000               0.000000000               0.000000000               0.000000000               0.000171752               0.002534992              -0.000225153              -0.000252467               0.000929145               0.000676678               0.000000000               0.000000000               0.000000000               0.000000000               0.000161959               0.002583633              -0.000187564              -0.000262219               0.000948609               0.000686390               0.000000000               0.000000000               0.000000000               0.000000000               0.000149960               0.002641022              -0.000151438              -0.000273892               0.000971629               0.000697737               0.000000000               0.000000000               0.000000000               0.000000000               0.000134172               0.002700780              -0.000117521              -0.000287282               0.000996012               0.000708729               0.000000000               0.000000000               0.000000000               0.000000000               0.000117994               0.002752722              -0.000084558              -0.000299842               0.001017512               0.000717670               0.000000000               0.000000000               0.000000000               0.000000000               0.000097227               0.002788738              -0.000053156              -0.000312131               0.001033614               0.000721482               0.000000000               0.000000000               0.000000000               0.000000000               0.000070393               0.002816836              -0.000025007              -0.000325706               0.001047505               0.000721798               0.000000000               0.000000000               0.000000000               0.000000000               0.000045646               0.002823491              -0.000007349              -0.000335818               0.001053094               0.000717275               0.000000000               0.000000000               0.000000000               0.000000000               0.000781399               0.000853716              -0.000720671               0.000186308               0.000222466               0.000408774               0.000000000               0.000000000               0.000000000               0.000000000               0.000669765               0.001191841              -0.000779276               0.000102180               0.000363216               0.000465396               0.000000000               0.000000000               0.000000000               0.000000000               0.000500591               0.001633444              -0.000775511              -0.000016460               0.000549962               0.000533502               0.000000000               0.000000000               0.000000000               0.000000000               0.000408937               0.001887437              -0.000682993              -0.000082579               0.000656666               0.000574087               0.000000000               0.000000000               0.000000000               0.000000000               0.000351276               0.002056875              -0.000584893              -0.000125381               0.000727412               0.000602031               0.000000000               0.000000000               0.000000000               0.000000000               0.000308975               0.002182344              -0.000500560              -0.000156927               0.000779750               0.000622822               0.000000000               0.000000000               0.000000000               0.000000000               0.000275314               0.002278508              -0.000428759              -0.000181571               0.000820019               0.000638448               0.000000000               0.000000000               0.000000000               0.000000000               0.000252311               0.002354188              -0.000367728              -0.000199657               0.000851274               0.000651617               0.000000000               0.000000000               0.000000000               0.000000000               0.000233708               0.002412244              -0.000318555              -0.000213890               0.000875370               0.000661480               0.000000000               0.000000000               0.000000000               0.000000000               0.000218806               0.002464143              -0.000278127              -0.000225965               0.000896694               0.000670729               0.000000000               0.000000000               0.000000000               0.000000000               0.000206788               0.002523756              -0.000238363              -0.000237923               0.000920551               0.000682628               0.000000000               0.000000000               0.000000000               0.000000000               0.000196070               0.002596061              -0.000197167              -0.000250981               0.000949005               0.000698024               0.000000000               0.000000000               0.000000000               0.000000000               0.000180314               0.002670848              -0.000157855              -0.000266238               0.000979020               0.000712782               0.000000000               0.000000000               0.000000000               0.000000000               0.000159517               0.002739717              -0.000119141              -0.000282645               0.001007445               0.000724800               0.000000000               0.000000000               0.000000000               0.000000000               0.000131835               0.002788634              -0.000079198              -0.000299140               0.001029249               0.000730109               0.000000000               0.000000000               0.000000000               0.000000000               0.000095390               0.002820884              -0.000039393              -0.000316839               0.001045898               0.000729060               0.000000000               0.000000000               0.000000000               0.000000000               0.000063082               0.002827442              -0.000014557              -0.000329774               0.001052396               0.000722622               0.000000000               0.000000000               0.000000000               0.000000000               0.000618525               0.000547754              -0.000534941               0.000163476               0.000128091               0.000291566               0.000000000               0.000000000               0.000000000               0.000000000               0.000642223               0.000878415              -0.000655821               0.000131030               0.000249125               0.000380155               0.000000000               0.000000000               0.000000000               0.000000000               0.000571317               0.001305923              -0.000719388               0.000051002               0.000418302               0.000469304               0.000000000               0.000000000               0.000000000               0.000000000               0.000507570               0.001593558              -0.000667366              -0.000008857               0.000534133               0.000525276               0.000000000               0.000000000               0.000000000               0.000000000               0.000452311               0.001804677              -0.000591779              -0.000055969               0.000620209               0.000564240               0.000000000               0.000000000               0.000000000               0.000000000               0.000405096               0.001967363              -0.000517147              -0.000094009               0.000687118               0.000593108               0.000000000               0.000000000               0.000000000               0.000000000               0.000364027               0.002100396              -0.000450643              -0.000126039               0.000742138               0.000616099               0.000000000               0.000000000               0.000000000               0.000000000               0.000333424               0.002211146              -0.000393226              -0.000151359               0.000787494               0.000636135               0.000000000               0.000000000               0.000000000               0.000000000               0.000307830               0.002296565              -0.000346043              -0.000171634               0.000822725               0.000651091               0.000000000               0.000000000               0.000000000               0.000000000               0.000282247               0.002368097              -0.000306265              -0.000190169               0.000852747               0.000662578               0.000000000               0.000000000               0.000000000               0.000000000               0.000262583               0.002442078              -0.000268113              -0.000206791               0.000882948               0.000676157               0.000000000               0.000000000               0.000000000               0.000000000               0.000247542               0.002523564              -0.000226589              -0.000222617               0.000915385               0.000692769               0.000000000               0.000000000               0.000000000               0.000000000               0.000233201               0.002613644              -0.000183609              -0.000239254               0.000950957               0.000711703               0.000000000               0.000000000               0.000000000               0.000000000               0.000212689               0.002702574              -0.000141733              -0.000258063               0.000986870               0.000728807               0.000000000               0.000000000               0.000000000               0.000000000               0.000185226               0.002769936              -0.000099005              -0.000276782               0.001015563               0.000738782               0.000000000               0.000000000               0.000000000               0.000000000               0.000149712               0.002815956              -0.000052310              -0.000295852               0.001037260               0.000741408               0.000000000               0.000000000               0.000000000               0.000000000               0.000117359               0.002827585              -0.000023727              -0.000309438               0.001045665               0.000736227               0.000000000               0.000000000               0.000000000               0.000000000               0.000451143               0.000322231              -0.000363786               0.000128898               0.000064443               0.000193341               0.000000000               0.000000000               0.000000000               0.000000000               0.000602598               0.000613053              -0.000506227               0.000149341               0.000154568               0.000303909               0.000000000               0.000000000               0.000000000               0.000000000               0.000637010               0.000999156              -0.000604728               0.000113983               0.000295054               0.000409037               0.000000000               0.000000000               0.000000000               0.000000000               0.000611689               0.001303347              -0.000584641               0.000066464               0.000412290               0.000478754               0.000000000               0.000000000               0.000000000               0.000000000               0.000565646               0.001541560              -0.000534085               0.000019422               0.000507374               0.000526796               0.000000000               0.000000000               0.000000000               0.000000000               0.000517254               0.001734358              -0.000477150              -0.000022825               0.000585722               0.000562897               0.000000000               0.000000000               0.000000000               0.000000000               0.000470298               0.001900388              -0.000423481              -0.000061187               0.000653852               0.000592665               0.000000000               0.000000000               0.000000000               0.000000000               0.000430392               0.002046056              -0.000375569              -0.000094360               0.000713465               0.000619105               0.000000000               0.000000000               0.000000000               0.000000000               0.000395211               0.002166639              -0.000333364              -0.000122626               0.000763081               0.000640455               0.000000000               0.000000000               0.000000000               0.000000000               0.000359335               0.002262390              -0.000296904              -0.000148048               0.000803472               0.000655424               0.000000000               0.000000000               0.000000000               0.000000000               0.000325795               0.002353215              -0.000262994              -0.000171978               0.000841723               0.000669745               0.000000000               0.000000000               0.000000000               0.000000000               0.000301321               0.002447452              -0.000227823              -0.000192936               0.000880121               0.000687185               0.000000000               0.000000000               0.000000000               0.000000000               0.000287467               0.002548143              -0.000188983              -0.000210717               0.000919612               0.000708894               0.000000000               0.000000000               0.000000000               0.000000000               0.000275774               0.002649545              -0.000148282              -0.000227778               0.000959099               0.000731321               0.000000000               0.000000000               0.000000000               0.000000000               0.000256698               0.002733272              -0.000107550              -0.000245397               0.000992880               0.000747484               0.000000000               0.000000000               0.000000000               0.000000000               0.000232796               0.002797784              -0.000059665              -0.000262424               0.001020060               0.000757636               0.000000000               0.000000000               0.000000000               0.000000000               0.000209086               0.002819582              -0.000029775              -0.000274040               0.001031198               0.000757158               0.000000000               0.000000000               0.000000000               0.000000000               0.000302299               0.000169614              -0.000219876               0.000092159               0.000025818               0.000117977               0.000000000               0.000000000               0.000000000               0.000000000               0.000560873               0.000413801              -0.000341935               0.000158601               0.000085065               0.000243666               0.000000000               0.000000000               0.000000000               0.000000000               0.000689494               0.000750540              -0.000436097               0.000164741               0.000195264               0.000360005               0.000000000               0.000000000               0.000000000               0.000000000               0.000701354               0.001053217              -0.000436092               0.000131354               0.000307284               0.000438638               0.000000000               0.000000000               0.000000000               0.000000000               0.000668946               0.001308424              -0.000407812               0.000087301               0.000407037               0.000494337               0.000000000               0.000000000               0.000000000               0.000000000               0.000620754               0.001525717              -0.000370971               0.000042067               0.000494545               0.000536612               0.000000000               0.000000000               0.000000000               0.000000000               0.000569343               0.001714944              -0.000334522              -0.000000865               0.000571931               0.000571066               0.000000000               0.000000000               0.000000000               0.000000000               0.000521841               0.001887613              -0.000301164              -0.000040262               0.000642619               0.000602357               0.000000000               0.000000000               0.000000000               0.000000000               0.000478100               0.002037209              -0.000269262              -0.000075363               0.000704184               0.000628821               0.000000000               0.000000000               0.000000000               0.000000000               0.000433909               0.002158994              -0.000238378              -0.000107158               0.000755377               0.000648219               0.000000000               0.000000000               0.000000000               0.000000000               0.000391830               0.002272133              -0.000211247              -0.000137080               0.000803064               0.000665983               0.000000000               0.000000000               0.000000000               0.000000000               0.000361112               0.002379932              -0.000188799              -0.000162074               0.000847327               0.000685253               0.000000000               0.000000000               0.000000000               0.000000000               0.000346354               0.002483189              -0.000162650              -0.000180515               0.000887893               0.000707378               0.000000000               0.000000000               0.000000000               0.000000000               0.000339945               0.002587305              -0.000127916              -0.000195933               0.000927737               0.000731804               0.000000000               0.000000000               0.000000000               0.000000000               0.000334293               0.002686216              -0.000092949              -0.000210417               0.000965535               0.000755119               0.000000000               0.000000000               0.000000000               0.000000000               0.000331229               0.002772058              -0.000053227              -0.000222296               0.000998109               0.000775813               0.000000000               0.000000000               0.000000000               0.000000000               0.000327378               0.002808345              -0.000028597              -0.000228276               0.001012198               0.000783922               0.000000000               0.000000000               0.000000000               0.000000000               0.000196816               0.000083105              -0.000100451               0.000063417               0.000006562               0.000069979               0.000000000               0.000000000               0.000000000               0.000000000               0.000525043               0.000289752              -0.000170978               0.000160671               0.000043026               0.000203697               0.000000000               0.000000000               0.000000000               0.000000000               0.000721401               0.000587752              -0.000228070               0.000197054               0.000130231               0.000327285               0.000000000               0.000000000               0.000000000               0.000000000               0.000764073               0.000885740              -0.000233122               0.000175808               0.000236641               0.000412449               0.000000000               0.000000000               0.000000000               0.000000000               0.000743773               0.001148991              -0.000221121               0.000135290               0.000337897               0.000473186               0.000000000               0.000000000               0.000000000               0.000000000               0.000697853               0.001379774              -0.000203421               0.000089222               0.000430179               0.000519402               0.000000000               0.000000000               0.000000000               0.000000000               0.000643413               0.001582130              -0.000186330               0.000043513               0.000512867               0.000556380               0.000000000               0.000000000               0.000000000               0.000000000               0.000587506               0.001766302              -0.000169959              -0.000000473               0.000588919               0.000588446               0.000000000               0.000000000               0.000000000               0.000000000               0.000535042               0.001935490              -0.000151436              -0.000041295               0.000658922               0.000617626               0.000000000               0.000000000               0.000000000               0.000000000               0.000487911               0.002083533              -0.000132066              -0.000077475               0.000720329               0.000642854               0.000000000               0.000000000               0.000000000               0.000000000               0.000448176               0.002211201              -0.000117478              -0.000108334               0.000773171               0.000664837               0.000000000               0.000000000               0.000000000               0.000000000               0.000414973               0.002323512              -0.000109788              -0.000134824               0.000819437               0.000684614               0.000000000               0.000000000               0.000000000               0.000000000               0.000391219               0.002430211              -0.000096440              -0.000157069               0.000862418               0.000705350               0.000000000               0.000000000               0.000000000               0.000000000               0.000382723               0.002538073              -0.000073258              -0.000173737               0.000903928               0.000730191               0.000000000               0.000000000               0.000000000               0.000000000               0.000390679               0.002646464              -0.000052218              -0.000184303               0.000943580               0.000759277               0.000000000               0.000000000               0.000000000               0.000000000               0.000411118               0.002748549              -0.000031253              -0.000189399               0.000979307               0.000789908               0.000000000               0.000000000               0.000000000               0.000000000               0.000427633               0.002797522              -0.000018903              -0.000189327               0.000995607               0.000806280               0.000000000               0.000000000               0.000000000               0.000000000               0.000000000               0.000000000               0.000000000               0.000000000               0.000000000               0.000000000               0.000000000               0.000000000               0.000000000               0.000000000               0.000000000               0.000000000               0.000000000               0.000000000               0.000000000               0.000000000               0.000000000               0.000000000               0.000000000               0.000000000               0.000000000               0.000000000               0.000000000               0.000000000               0.000000000               0.000000000               0.000000000               0.000000000               0.000000000               0.000000000               0.000000000               0.000000000               0.000000000               0.000000000               0.000000000               0.000000000               0.000000000               0.000000000               0.000000000               0.000000000               0.000000000               0.000000000               0.000000000               0.000000000               0.000000000               0.000000000               0.000000000               0.000000000               0.000000000               0.000000000               0.000000000               0.000000000               0.000000000               0.000000000               0.000000000               0.000000000               0.000000000               0.000000000               0.000000000               0.000000000               0.000000000               0.000000000               0.000000000               0.000000000               0.000000000               0.000000000               0.000000000               0.000000000               0.000000000               0.000000000               0.000000000               0.000000000               0.000000000               0.000000000               0.000000000               0.000000000               0.000000000               0.000000000               0.000000000               0.000000000               0.000000000               0.000000000               0.000000000               0.000000000               0.000000000               0.000000000               0.000000000               0.000000000               0.000000000               0.000000000               0.000000000               0.000000000               0.000000000               0.000000000               0.000000000               0.000000000               0.000000000               0.000000000               0.000000000               0.000000000               0.000000000               0.000000000               0.000000000               0.000000000               0.000000000               0.000000000               0.000000000               0.000000000               0.000000000               0.000000000               0.000000000               0.000000000               0.000000000               0.000000000               0.000000000               0.000000000               0.000000000               0.000000000               0.000000000               0.000000000               0.000000000               0.000000000               0.000000000               0.000000000               0.000000000               0.000000000               0.000000000               0.000000000               0.000000000               0.000000000               0.000000000               0.000000000               0.000000000               0.000000000               0.000000000               0.000000000               0.000000000               0.000000000               0.000000000               0.000000000               0.000000000               0.000000000               0.000000000               0.000000000               0.000000000               0.000000000               0.000000000               0.000000000               0.000000000               0.000000000               0.000000000               0.000000000               0.000000000               0.000000000               0.000000000               0.000000000               0.000000000               0.000000000               0.000000000               0.000000000               0.000000000               0.000000000               0.000000000               0.000000000               0.000000000               0.000000000               0.000000000               0.000000000               0.000000000               0.000000000               0.000000000               0.000000000               0.000000000               0.000000000               0.000000000               0.000000000               0.000000000               0.000000000               0.000000000               0.000000000               0.000000000               0.000000000               0.000000000               0.000000000               0.000000000               0.000000000               0.000000000               0.000000000               0.000000000               0.000000000               0.000000000               0.000000000               0.000000000               0.000000000               0.000000000               0.000000000               0.000000000               0.000000000               0.000000000               0.000000000               0.000000000               0.000000000               0.000000000               0.000000000               0.000000000               0.000000000               0.000000000               0.000000000               0.000000000               0.000000000               0.000000000               0.000000000               0.000000000               0.000000000               0.000000000               0.000000000               0.000000000               0.000000000               0.000000000               0.000000000               0.000000000               0.000000000               0.000000000               0.000000000               0.000000000               0.000000000               0.000000000               0.000000000               0.000000000               0.000000000               0.000000000               0.000000000               0.000000000               0.000000000               0.000000000               0.000000000               0.000000000               0.000000000               0.000000000               0.000000000               0.000000000               0.000000000               0.000000000               0.000000000               0.000000000               0.000000000               0.000000000               0.000000000               0.000000000               0.000000000               0.000000000               0.000000000               0.000000000               0.000000000               0.000000000               0.000000000               0.000000000               0.000000000               0.000000000               0.000000000               0.000000000               0.000000000               0.000000000               0.000000000               0.000000000               0.000000000               0.000000000               0.000000000               0.000000000               0.000000000               0.000000000               0.000000000               0.000000000               0.000000000               0.000000000               0.000000000               0.000000000               0.000000000               0.000000000               0.000000000               0.000000000               0.000000000               0.000000000               0.000000000               0.000000000               0.000000000               0.000000000               0.000000000               0.000000000               0.000000000               0.000000000               0.000000000               0.000000000               0.000000000               0.000000000               0.000000000               0.000000000               0.000000000               0.000000000               0.000000000               0.000000000               0.000000000               0.000000000               0.000000000               0.000000000               0.000000000               0.000000000               0.000000000               0.000000000               0.000000000               0.000000000               0.000000000               0.000000000               0.000000000               0.000000000               0.000000000               0.000000000               0.000000000               0.000000000               0.000000000               0.000000000               0.000000000               0.000000000               0.000000000               0.000000000               0.000000000               0.000000000               0.000000000               0.000000000               0.000000000               0.000000000               0.000000000               0.000000000               0.000000000               0.000000000               0.000000000               0.000000000               0.000000000               0.000000000               0.000000000               0.000475979               0.005119948               0.000401876              -0.000461500               0.001860466               0.001398965               0.000000000               0.000000000               0.000000000               0.000000000               0.000507546               0.004273787               0.000266246              -0.000343893               0.001539212               0.001195319               0.000000000               0.000000000               0.000000000               0.000000000               0.000683807               0.003598702               0.000123216              -0.000193410               0.001264025               0.001070616               0.000000000               0.000000000               0.000000000               0.000000000               0.000709799               0.003229229               0.000053610              -0.000137479               0.001122225               0.000984746               0.000000000               0.000000000               0.000000000               0.000000000               0.000675162               0.003014149               0.000019008              -0.000123583               0.001045900               0.000922318               0.000000000               0.000000000               0.000000000               0.000000000               0.000613859               0.002883261               0.000000773              -0.000130210               0.001004481               0.000874270               0.000000000               0.000000000               0.000000000               0.000000000               0.000547300               0.002802511              -0.000008561              -0.000145076               0.000982519               0.000837444               0.000000000               0.000000000               0.000000000               0.000000000               0.000481130               0.002754468              -0.000011259              -0.000163884               0.000972775               0.000808891               0.000000000               0.000000000               0.000000000               0.000000000               0.000418414               0.002727805              -0.000011593              -0.000184070               0.000970616               0.000786546               0.000000000               0.000000000               0.000000000               0.000000000               0.000360249               0.002715671              -0.000010892              -0.000204365               0.000973336               0.000768971               0.000000000               0.000000000               0.000000000               0.000000000               0.000304500               0.002712384              -0.000010311              -0.000224860               0.000979072               0.000754212               0.000000000               0.000000000               0.000000000               0.000000000               0.000250804               0.002716406              -0.000009045              -0.000245499               0.000987292               0.000741794               0.000000000               0.000000000               0.000000000               0.000000000               0.000200831               0.002725425              -0.000006566              -0.000265366               0.000996921               0.000731555               0.000000000               0.000000000               0.000000000               0.000000000               0.000153251               0.002738730              -0.000007858              -0.000284872               0.001007858               0.000722987               0.000000000               0.000000000               0.000000000               0.000000000               0.000103014               0.002758258              -0.000010855              -0.000306151               0.001021461               0.000715309               0.000000000               0.000000000               0.000000000               0.000000000               0.000050934               0.002781536              -0.000008781              -0.000328591               0.001036700               0.000708109               0.000000000               0.000000000               0.000000000               0.000000000               0.000027846               0.002799614              -0.000005281              -0.000339509               0.001046365               0.000706856               0.000000000               0.000000000               0.000000000               0.000000000               0.000560752               0.004883555               0.000765223              -0.000400162               0.001761223               0.001361061               0.000000000               0.000000000               0.000000000               0.000000000               0.000541828               0.004104315               0.000506232              -0.000309853               0.001471376               0.001161522               0.000000000               0.000000000               0.000000000               0.000000000               0.000663390               0.003504625               0.000235498              -0.000189306               0.001231299               0.001041992               0.000000000               0.000000000               0.000000000               0.000000000               0.000662413               0.003175829               0.000106628              -0.000148573               0.001108123               0.000959550               0.000000000               0.000000000               0.000000000               0.000000000               0.000618699               0.002984728               0.000043273              -0.000141079               0.001041926               0.000900847               0.000000000               0.000000000               0.000000000               0.000000000               0.000557265               0.002868362               0.000012700              -0.000149571               0.001005968               0.000856397               0.000000000               0.000000000               0.000000000               0.000000000               0.000490351               0.002793776              -0.000002173              -0.000165340               0.000986363               0.000821023               0.000000000               0.000000000               0.000000000               0.000000000               0.000425296               0.002747462              -0.000009105              -0.000183946               0.000977127               0.000793181               0.000000000               0.000000000               0.000000000               0.000000000               0.000368047               0.002723371              -0.000011145              -0.000202403               0.000975249               0.000772846               0.000000000               0.000000000               0.000000000               0.000000000               0.000314844               0.002711749              -0.000009785              -0.000220902               0.000977541               0.000756640               0.000000000               0.000000000               0.000000000               0.000000000               0.000263479               0.002708134              -0.000008425              -0.000239712               0.000982606               0.000742894               0.000000000               0.000000000               0.000000000               0.000000000               0.000215641               0.002711699              -0.000007134              -0.000258097               0.000989923               0.000731826               0.000000000               0.000000000               0.000000000               0.000000000               0.000170096               0.002720760              -0.000004410              -0.000276308               0.000999014               0.000722706               0.000000000               0.000000000               0.000000000               0.000000000               0.000127506               0.002735810              -0.000007481              -0.000294161               0.001009981               0.000715820               0.000000000               0.000000000               0.000000000               0.000000000               0.000085398               0.002757745              -0.000014617              -0.000312693               0.001023470               0.000710777               0.000000000               0.000000000               0.000000000               0.000000000               0.000042189               0.002784510              -0.000012660              -0.000332242               0.001038908               0.000706666               0.000000000               0.000000000               0.000000000               0.000000000               0.000024198               0.002806408              -0.000006519              -0.000341726               0.001049368               0.000707643               0.000000000               0.000000000               0.000000000               0.000000000               0.000682849               0.004517458               0.001055598              -0.000308614               0.001608675               0.001300062               0.000000000               0.000000000               0.000000000               0.000000000               0.000586111               0.003845781               0.000699294              -0.000260931               0.001368891               0.001107960               0.000000000               0.000000000               0.000000000               0.000000000               0.000625548               0.003360570               0.000331656              -0.000185490               0.001182009               0.000996519               0.000000000               0.000000000               0.000000000               0.000000000               0.000590732               0.003091590               0.000161946              -0.000164924               0.001085494               0.000920570               0.000000000               0.000000000               0.000000000               0.000000000               0.000534168               0.002932934               0.000079461              -0.000166303               0.001033069               0.000866766               0.000000000               0.000000000               0.000000000               0.000000000               0.000472227               0.002833255               0.000039651              -0.000177071               0.001003432               0.000826361               0.000000000               0.000000000               0.000000000               0.000000000               0.000412252               0.002771115               0.000020848              -0.000191794               0.000987627               0.000795833               0.000000000               0.000000000               0.000000000               0.000000000               0.000353717               0.002732817               0.000011532              -0.000208958               0.000980583               0.000771625               0.000000000               0.000000000               0.000000000               0.000000000               0.000301840               0.002712204               0.000008233              -0.000225835               0.000979337               0.000753502               0.000000000               0.000000000               0.000000000               0.000000000               0.000256835               0.002702734               0.000009684              -0.000241528               0.000981412               0.000739884               0.000000000               0.000000000               0.000000000               0.000000000               0.000215424               0.002700483               0.000009862              -0.000256776               0.000985744               0.000728968               0.000000000               0.000000000               0.000000000               0.000000000               0.000176530               0.002704497               0.000008705              -0.000271863               0.000992111               0.000720248               0.000000000               0.000000000               0.000000000               0.000000000               0.000136237               0.002716578               0.000009423              -0.000288483               0.001001678               0.000713195               0.000000000               0.000000000               0.000000000               0.000000000               0.000096069               0.002733685               0.000004586              -0.000305684               0.001013114               0.000707430               0.000000000               0.000000000               0.000000000               0.000000000               0.000060659               0.002752880              -0.000005656              -0.000321362               0.001024738               0.000703376               0.000000000               0.000000000               0.000000000               0.000000000               0.000029059               0.002774037              -0.000007785              -0.000335857               0.001036622               0.000700765               0.000000000               0.000000000               0.000000000               0.000000000               0.000016915               0.002791181              -0.000003655              -0.000342554               0.001044569               0.000702015               0.000000000               0.000000000               0.000000000               0.000000000               0.000812067               0.004059724               0.001251398              -0.000202941               0.001420874               0.001217933               0.000000000               0.000000000               0.000000000               0.000000000               0.000625159               0.003526258               0.000836274              -0.000206348               0.001244190               0.001037842               0.000000000               0.000000000               0.000000000               0.000000000               0.000569985               0.003186378               0.000411670              -0.000184553               0.001123633               0.000939080               0.000000000               0.000000000               0.000000000               0.000000000               0.000505576               0.002991956               0.000220835              -0.000184403               0.001058776               0.000874373               0.000000000               0.000000000               0.000000000               0.000000000               0.000443844               0.002870938               0.000128848              -0.000192425               0.001021111               0.000828686               0.000000000               0.000000000               0.000000000               0.000000000               0.000385055               0.002791950               0.000083700              -0.000204598               0.000998840               0.000794242               0.000000000               0.000000000               0.000000000               0.000000000               0.000332590               0.002742330               0.000061193              -0.000218070               0.000986791               0.000768721               0.000000000               0.000000000               0.000000000               0.000000000               0.000283636               0.002712702               0.000049093              -0.000232724               0.000981800               0.000749076               0.000000000               0.000000000               0.000000000               0.000000000               0.000240470               0.002696254               0.000042862              -0.000246855               0.000981027               0.000734172               0.000000000               0.000000000               0.000000000               0.000000000               0.000205135               0.002689103               0.000040647              -0.000259211               0.000982762               0.000723551               0.000000000               0.000000000               0.000000000               0.000000000               0.000173716               0.002689443               0.000038775              -0.000271036               0.000986817               0.000715781               0.000000000               0.000000000               0.000000000               0.000000000               0.000139781               0.002693485               0.000032460              -0.000284267               0.000992575               0.000708308               0.000000000               0.000000000               0.000000000               0.000000000               0.000101887               0.002704661               0.000026372              -0.000299874               0.001001503               0.000701628               0.000000000               0.000000000               0.000000000               0.000000000               0.000066142               0.002718888               0.000020112              -0.000315057               0.001011306               0.000696249               0.000000000               0.000000000               0.000000000               0.000000000               0.000039012               0.002729335               0.000008366              -0.000326537               0.001018615               0.000692078               0.000000000               0.000000000               0.000000000               0.000000000               0.000018327               0.002735107               0.000000637              -0.000335015               0.001023365               0.000688350               0.000000000               0.000000000               0.000000000               0.000000000               0.000010687               0.002740758               0.000000875              -0.000338586               0.001026439               0.000687853               0.000000000               0.000000000               0.000000000               0.000000000               0.000916057               0.003549222               0.001353130              -0.000100133               0.001216439               0.001116307               0.000000000               0.000000000               0.000000000               0.000000000               0.000648846               0.003179127               0.000920669              -0.000154074               0.001111056               0.000956982               0.000000000               0.000000000               0.000000000               0.000000000               0.000507194               0.003004583               0.000478559              -0.000185375               0.001063309               0.000877934               0.000000000               0.000000000               0.000000000               0.000000000               0.000420737               0.002885906               0.000283711              -0.000202961               0.001029613               0.000826651               0.000000000               0.000000000               0.000000000               0.000000000               0.000359320               0.002800051               0.000188632              -0.000215261               0.001005095               0.000789834               0.000000000               0.000000000               0.000000000               0.000000000               0.000307856               0.002741636               0.000139525              -0.000227258               0.000989622               0.000762364               0.000000000               0.000000000               0.000000000               0.000000000               0.000264166               0.002704692               0.000112528              -0.000239024               0.000981230               0.000742206               0.000000000               0.000000000               0.000000000               0.000000000               0.000227442               0.002681895               0.000094424              -0.000249946               0.000977271               0.000727326               0.000000000               0.000000000               0.000000000               0.000000000               0.000194315               0.002667125               0.000081220              -0.000260522               0.000975873               0.000715351               0.000000000               0.000000000               0.000000000               0.000000000               0.000165911               0.002661605               0.000072104              -0.000270483               0.000977354               0.000706871               0.000000000               0.000000000               0.000000000               0.000000000               0.000137480               0.002663561               0.000064923              -0.000281389               0.000981641               0.000700252               0.000000000               0.000000000               0.000000000               0.000000000               0.000107867               0.002670663               0.000053415              -0.000293382               0.000988006               0.000694624               0.000000000               0.000000000               0.000000000               0.000000000               0.000076691               0.002680877               0.000039410              -0.000306350               0.000995733               0.000689383               0.000000000               0.000000000               0.000000000               0.000000000               0.000047964               0.002691493               0.000029737              -0.000318449               0.001003305               0.000684856               0.000000000               0.000000000               0.000000000               0.000000000               0.000027947               0.002695562               0.000020237              -0.000326464               0.001007333               0.000680869               0.000000000               0.000000000               0.000000000               0.000000000               0.000012880               0.002693861               0.000009442              -0.000331902               0.001008579               0.000676677               0.000000000               0.000000000               0.000000000               0.000000000               0.000007686               0.002696212               0.000005330              -0.000334144               0.001010110               0.000675966               0.000000000               0.000000000               0.000000000               0.000000000               0.000982566               0.003025445               0.001369865              -0.000009720               0.001011711               0.001001991               0.000000000               0.000000000               0.000000000               0.000000000               0.000656919               0.002835523               0.000959633              -0.000108097               0.000981197               0.000873100               0.000000000               0.000000000               0.000000000               0.000000000               0.000446529               0.002826931               0.000537132              -0.000185918               0.001004274               0.000818356               0.000000000               0.000000000               0.000000000               0.000000000               0.000348022               0.002773299               0.000349446              -0.000216154               0.000996475               0.000780321               0.000000000               0.000000000               0.000000000               0.000000000               0.000290387               0.002720407               0.000252858              -0.000231155               0.000983845               0.000752690               0.000000000               0.000000000               0.000000000               0.000000000               0.000248459               0.002682953               0.000197291              -0.000242196               0.000975041               0.000732844               0.000000000               0.000000000               0.000000000               0.000000000               0.000214510               0.002658008               0.000161711              -0.000251809               0.000969930               0.000718121               0.000000000               0.000000000               0.000000000               0.000000000               0.000188160               0.002641872               0.000136191              -0.000259673               0.000967173               0.000707500               0.000000000               0.000000000               0.000000000               0.000000000               0.000161600               0.002629952               0.000114548              -0.000268144               0.000966023               0.000697880               0.000000000               0.000000000               0.000000000               0.000000000               0.000137200               0.002629366               0.000096636              -0.000277220               0.000968853               0.000691633               0.000000000               0.000000000               0.000000000               0.000000000               0.000110913               0.002636920               0.000080901              -0.000288022               0.000974972               0.000686950               0.000000000               0.000000000               0.000000000               0.000000000               0.000083604               0.002652075               0.000062454              -0.000300157               0.000984068               0.000683911               0.000000000               0.000000000               0.000000000               0.000000000               0.000061436               0.002668573               0.000042937              -0.000310532               0.000993026               0.000682494               0.000000000               0.000000000               0.000000000               0.000000000               0.000044794               0.002679845               0.000031953              -0.000318182               0.000999333               0.000681151               0.000000000               0.000000000               0.000000000               0.000000000               0.000030355               0.002685272               0.000025534              -0.000324275               0.001003173               0.000678898               0.000000000               0.000000000               0.000000000               0.000000000               0.000015863               0.002691171               0.000014427              -0.000330447               0.001007197               0.000676750               0.000000000               0.000000000               0.000000000               0.000000000               0.000011329               0.002699170               0.000008867              -0.000333147               0.001010763               0.000677616               0.000000000               0.000000000               0.000000000               0.000000000               0.001011552               0.002523157               0.001311430               0.000063935               0.000819732               0.000883667               0.000000000               0.000000000               0.000000000               0.000000000               0.000649843               0.002514182               0.000961001              -0.000070583               0.000861580               0.000790997               0.000000000               0.000000000               0.000000000               0.000000000               0.000394120               0.002651589               0.000589765              -0.000183653               0.000945072               0.000761418               0.000000000               0.000000000               0.000000000               0.000000000               0.000293796               0.002654132               0.000412182              -0.000221593               0.000958566               0.000736973               0.000000000               0.000000000               0.000000000               0.000000000               0.000243825               0.002635929               0.000311479              -0.000238056               0.000957986               0.000719930               0.000000000               0.000000000               0.000000000               0.000000000               0.000210249               0.002620534               0.000247496              -0.000248723               0.000956410               0.000707687               0.000000000               0.000000000               0.000000000               0.000000000               0.000183450               0.002607533               0.000202779              -0.000257147               0.000954885               0.000697737               0.000000000               0.000000000               0.000000000               0.000000000               0.000162708               0.002598606               0.000168530              -0.000263810               0.000954130               0.000690320               0.000000000               0.000000000               0.000000000               0.000000000               0.000141520               0.002597428               0.000137723              -0.000271608               0.000956337               0.000684729               0.000000000               0.000000000               0.000000000               0.000000000               0.000121122               0.002608698               0.000108406              -0.000280666               0.000963112               0.000682447               0.000000000               0.000000000               0.000000000               0.000000000               0.000099055               0.002630193               0.000083300              -0.000291628               0.000973932               0.000682304               0.000000000               0.000000000               0.000000000               0.000000000               0.000076667               0.002655706               0.000060042              -0.000303213               0.000986297               0.000683085               0.000000000               0.000000000               0.000000000               0.000000000               0.000061913               0.002677103               0.000041638              -0.000311420               0.000996165               0.000684745               0.000000000               0.000000000               0.000000000               0.000000000               0.000051380               0.002692635               0.000032878              -0.000317311               0.001003306               0.000685995               0.000000000               0.000000000               0.000000000               0.000000000               0.000038014               0.002708215               0.000027546              -0.000324271               0.001010820               0.000686549               0.000000000               0.000000000               0.000000000               0.000000000               0.000019787               0.002724818               0.000016883              -0.000333181               0.001019324               0.000686143               0.000000000               0.000000000               0.000000000               0.000000000               0.000012223               0.002735764               0.000010898              -0.000337386               0.001024374               0.000686988               0.000000000               0.000000000               0.000000000               0.000000000               0.001018309               0.002079864               0.001201198               0.000121880               0.000652654               0.000774534               0.000000000               0.000000000               0.000000000               0.000000000               0.000647840               0.002223338               0.000943593              -0.000034978               0.000752764               0.000717786               0.000000000               0.000000000               0.000000000               0.000000000               0.000367405               0.002485587               0.000648509              -0.000172922               0.000886161               0.000713240               0.000000000               0.000000000               0.000000000               0.000000000               0.000270041               0.002547377               0.000478933              -0.000217157               0.000921502               0.000704346               0.000000000               0.000000000               0.000000000               0.000000000               0.000224186               0.002565834               0.000371630              -0.000236659               0.000934156               0.000697497               0.000000000               0.000000000               0.000000000               0.000000000               0.000195322               0.002572871               0.000298412              -0.000248363               0.000940403               0.000692040               0.000000000               0.000000000               0.000000000               0.000000000               0.000175488               0.002574171               0.000245279              -0.000255963               0.000943369               0.000687406               0.000000000               0.000000000               0.000000000               0.000000000               0.000157941               0.002576156               0.000201257              -0.000262791               0.000946307               0.000683516               0.000000000               0.000000000               0.000000000               0.000000000               0.000141193               0.002589804               0.000161073              -0.000270777               0.000953518               0.000682741               0.000000000               0.000000000               0.000000000               0.000000000               0.000125037               0.002615933               0.000123002              -0.000280102               0.000965336               0.000685234               0.000000000               0.000000000               0.000000000               0.000000000               0.000106684               0.002647556               0.000092462              -0.000290937               0.000979489               0.000688552               0.000000000               0.000000000               0.000000000               0.000000000               0.000088146               0.002676658               0.000068676              -0.000301527               0.000992719               0.000691193               0.000000000               0.000000000               0.000000000               0.000000000               0.000078669               0.002702152               0.000049826              -0.000308267               0.001003464               0.000695197               0.000000000               0.000000000               0.000000000               0.000000000               0.000071327               0.002725088               0.000036220              -0.000313888               0.001012983               0.000699095               0.000000000               0.000000000               0.000000000               0.000000000               0.000056006               0.002751084               0.000026851              -0.000322883               0.001024646               0.000701764               0.000000000               0.000000000               0.000000000               0.000000000               0.000034494               0.002778097               0.000017370              -0.000334326               0.001037465               0.000703139               0.000000000               0.000000000               0.000000000               0.000000000               0.000020432               0.002790424               0.000011311              -0.000341140               0.001043845               0.000702705               0.000000000               0.000000000               0.000000000               0.000000000               0.000991296               0.001644044               0.001064834               0.000166228               0.000492599               0.000658827               0.000000000               0.000000000               0.000000000               0.000000000               0.000660997               0.001879466               0.000918054               0.000012939               0.000622169               0.000635108               0.000000000               0.000000000               0.000000000               0.000000000               0.000382394               0.002234760               0.000719559              -0.000135947               0.000790228               0.000654281               0.000000000               0.000000000               0.000000000               0.000000000               0.000283112               0.002368909               0.000562744              -0.000189947               0.000852944               0.000662997               0.000000000               0.000000000               0.000000000               0.000000000               0.000235533               0.002435797               0.000448921              -0.000216149               0.000883974               0.000667824               0.000000000               0.000000000               0.000000000               0.000000000               0.000205522               0.002476154               0.000366978              -0.000232448               0.000902859               0.000670411               0.000000000               0.000000000               0.000000000               0.000000000               0.000186582               0.002502662               0.000305686              -0.000242864               0.000915167               0.000672303               0.000000000               0.000000000               0.000000000               0.000000000               0.000170401               0.002523209               0.000252531              -0.000251500               0.000924894               0.000673394               0.000000000               0.000000000               0.000000000               0.000000000               0.000154457               0.002547598               0.000206372              -0.000260528               0.000936033               0.000675506               0.000000000               0.000000000               0.000000000               0.000000000               0.000140309               0.002581439               0.000165171              -0.000270063               0.000950492               0.000680429               0.000000000               0.000000000               0.000000000               0.000000000               0.000128411               0.002621512               0.000131114              -0.000279534               0.000967007               0.000687472               0.000000000               0.000000000               0.000000000               0.000000000               0.000114698               0.002664526               0.000102866              -0.000290053               0.000984851               0.000694798               0.000000000               0.000000000               0.000000000               0.000000000               0.000101960               0.002707145               0.000077071              -0.000300157               0.001002425               0.000702268               0.000000000               0.000000000               0.000000000               0.000000000               0.000090248               0.002743407               0.000052474              -0.000309082               0.001017487               0.000708405               0.000000000               0.000000000               0.000000000               0.000000000               0.000074710               0.002775414               0.000031952              -0.000318910               0.001031432               0.000712522               0.000000000               0.000000000               0.000000000               0.000000000               0.000053839               0.002809107               0.000015430              -0.000330948               0.001046676               0.000715728               0.000000000               0.000000000               0.000000000               0.000000000               0.000035696               0.002823143               0.000004876              -0.000339506               0.001054207               0.000714701               0.000000000               0.000000000               0.000000000               0.000000000               0.000911486               0.001227999               0.000903243               0.000188305               0.000346560               0.000534865               0.000000000               0.000000000               0.000000000               0.000000000               0.000675809               0.001531694               0.000868246               0.000061965               0.000489904               0.000551869               0.000000000               0.000000000               0.000000000               0.000000000               0.000434250               0.001951313               0.000773093              -0.000081071               0.000677454               0.000596384               0.000000000               0.000000000               0.000000000               0.000000000               0.000331624               0.002152989               0.000642412              -0.000144765               0.000765911               0.000621146               0.000000000               0.000000000               0.000000000               0.000000000               0.000276823               0.002271355               0.000530492              -0.000180111               0.000817148               0.000637037               0.000000000               0.000000000               0.000000000               0.000000000               0.000242118               0.002353096               0.000443869              -0.000203343               0.000852138               0.000648796               0.000000000               0.000000000               0.000000000               0.000000000               0.000217153               0.002413215               0.000374604              -0.000220219               0.000877803               0.000657584               0.000000000               0.000000000               0.000000000               0.000000000               0.000199218               0.002458040               0.000315600              -0.000232548               0.000896855               0.000664307               0.000000000               0.000000000               0.000000000               0.000000000               0.000183429               0.002494767               0.000266258              -0.000243059               0.000912601               0.000669541               0.000000000               0.000000000               0.000000000               0.000000000               0.000171752               0.002534992               0.000225153              -0.000252467               0.000929145               0.000676678               0.000000000               0.000000000               0.000000000               0.000000000               0.000161959               0.002583633               0.000187564              -0.000262219               0.000948609               0.000686390               0.000000000               0.000000000               0.000000000               0.000000000               0.000149960               0.002641022               0.000151438              -0.000273892               0.000971629               0.000697737               0.000000000               0.000000000               0.000000000               0.000000000               0.000134172               0.002700780               0.000117521              -0.000287282               0.000996012               0.000708729               0.000000000               0.000000000               0.000000000               0.000000000               0.000117994               0.002752722               0.000084558              -0.000299842               0.001017512               0.000717670               0.000000000               0.000000000               0.000000000               0.000000000               0.000097227               0.002788738               0.000053156              -0.000312131               0.001033614               0.000721482               0.000000000               0.000000000               0.000000000               0.000000000               0.000070393               0.002816836               0.000025007              -0.000325706               0.001047505               0.000721798               0.000000000               0.000000000               0.000000000               0.000000000               0.000045646               0.002823491               0.000007349              -0.000335818               0.001053094               0.000717275               0.000000000               0.000000000               0.000000000               0.000000000               0.000781399               0.000853716               0.000720671               0.000186308               0.000222466               0.000408774               0.000000000               0.000000000               0.000000000               0.000000000               0.000669765               0.001191841               0.000779276               0.000102180               0.000363216               0.000465396               0.000000000               0.000000000               0.000000000               0.000000000               0.000500591               0.001633444               0.000775511              -0.000016460               0.000549962               0.000533502               0.000000000               0.000000000               0.000000000               0.000000000               0.000408937               0.001887437               0.000682993              -0.000082579               0.000656666               0.000574087               0.000000000               0.000000000               0.000000000               0.000000000               0.000351276               0.002056875               0.000584893              -0.000125381               0.000727412               0.000602031               0.000000000               0.000000000               0.000000000               0.000000000               0.000308975               0.002182344               0.000500560              -0.000156927               0.000779750               0.000622822               0.000000000               0.000000000               0.000000000               0.000000000               0.000275314               0.002278508               0.000428759              -0.000181571               0.000820019               0.000638448               0.000000000               0.000000000               0.000000000               0.000000000               0.000252311               0.002354188               0.000367728              -0.000199657               0.000851274               0.000651617               0.000000000               0.000000000               0.000000000               0.000000000               0.000233708               0.002412244               0.000318555              -0.000213890               0.000875370               0.000661480               0.000000000               0.000000000               0.000000000               0.000000000               0.000218806               0.002464143               0.000278127              -0.000225965               0.000896694               0.000670729               0.000000000               0.000000000               0.000000000               0.000000000               0.000206788               0.002523756               0.000238363              -0.000237923               0.000920551               0.000682628               0.000000000               0.000000000               0.000000000               0.000000000               0.000196070               0.002596061               0.000197167              -0.000250981               0.000949005               0.000698024               0.000000000               0.000000000               0.000000000               0.000000000               0.000180314               0.002670848               0.000157855              -0.000266238               0.000979020               0.000712782               0.000000000               0.000000000               0.000000000               0.000000000               0.000159517               0.002739717               0.000119141              -0.000282645               0.001007445               0.000724800               0.000000000               0.000000000               0.000000000               0.000000000               0.000131835               0.002788634               0.000079198              -0.000299140               0.001029249               0.000730109               0.000000000               0.000000000               0.000000000               0.000000000               0.000095390               0.002820884               0.000039393              -0.000316839               0.001045898               0.000729060               0.000000000               0.000000000               0.000000000               0.000000000               0.000063082               0.002827442               0.000014557              -0.000329774               0.001052396               0.000722622               0.000000000               0.000000000               0.000000000               0.000000000               0.000618525               0.000547754               0.000534941               0.000163476               0.000128091               0.000291566               0.000000000               0.000000000               0.000000000               0.000000000               0.000642223               0.000878415               0.000655821               0.000131030               0.000249125               0.000380155               0.000000000               0.000000000               0.000000000               0.000000000               0.000571317               0.001305923               0.000719388               0.000051002               0.000418302               0.000469304               0.000000000               0.000000000               0.000000000               0.000000000               0.000507570               0.001593558               0.000667366              -0.000008857               0.000534133               0.000525276               0.000000000               0.000000000               0.000000000               0.000000000               0.000452311               0.001804677               0.000591779              -0.000055969               0.000620209               0.000564240               0.000000000               0.000000000               0.000000000               0.000000000               0.000405096               0.001967363               0.000517147              -0.000094009               0.000687118               0.000593108               0.000000000               0.000000000               0.000000000               0.000000000               0.000364027               0.002100396               0.000450643              -0.000126039               0.000742138               0.000616099               0.000000000               0.000000000               0.000000000               0.000000000               0.000333424               0.002211146               0.000393226              -0.000151359               0.000787494               0.000636135               0.000000000               0.000000000               0.000000000               0.000000000               0.000307830               0.002296565               0.000346043              -0.000171634               0.000822725               0.000651091               0.000000000               0.000000000               0.000000000               0.000000000               0.000282247               0.002368097               0.000306265              -0.000190169               0.000852747               0.000662578               0.000000000               0.000000000               0.000000000               0.000000000               0.000262583               0.002442078               0.000268113              -0.000206791               0.000882948               0.000676157               0.000000000               0.000000000               0.000000000               0.000000000               0.000247542               0.002523564               0.000226589              -0.000222617               0.000915385               0.000692769               0.000000000               0.000000000               0.000000000               0.000000000               0.000233201               0.002613644               0.000183609              -0.000239254               0.000950957               0.000711703               0.000000000               0.000000000               0.000000000               0.000000000               0.000212689               0.002702574               0.000141733              -0.000258063               0.000986870               0.000728807               0.000000000               0.000000000               0.000000000               0.000000000               0.000185226               0.002769936               0.000099005              -0.000276782               0.001015563               0.000738782               0.000000000               0.000000000               0.000000000               0.000000000               0.000149712               0.002815956               0.000052310              -0.000295852               0.001037260               0.000741408               0.000000000               0.000000000               0.000000000               0.000000000               0.000117359               0.002827585               0.000023727              -0.000309438               0.001045665               0.000736227               0.000000000               0.000000000               0.000000000               0.000000000               0.000451143               0.000322231               0.000363786               0.000128898               0.000064443               0.000193341               0.000000000               0.000000000               0.000000000               0.000000000               0.000602598               0.000613053               0.000506227               0.000149341               0.000154568               0.000303909               0.000000000               0.000000000               0.000000000               0.000000000               0.000637010               0.000999156               0.000604728               0.000113983               0.000295054               0.000409037               0.000000000               0.000000000               0.000000000               0.000000000               0.000611689               0.001303347               0.000584641               0.000066464               0.000412290               0.000478754               0.000000000               0.000000000               0.000000000               0.000000000               0.000565646               0.001541560               0.000534085               0.000019422               0.000507374               0.000526796               0.000000000               0.000000000               0.000000000               0.000000000               0.000517254               0.001734358               0.000477150              -0.000022825               0.000585722               0.000562897               0.000000000               0.000000000               0.000000000               0.000000000               0.000470298               0.001900388               0.000423481              -0.000061187               0.000653852               0.000592665               0.000000000               0.000000000               0.000000000               0.000000000               0.000430392               0.002046056               0.000375569              -0.000094360               0.000713465               0.000619105               0.000000000               0.000000000               0.000000000               0.000000000               0.000395211               0.002166639               0.000333364              -0.000122626               0.000763081               0.000640455               0.000000000               0.000000000               0.000000000               0.000000000               0.000359335               0.002262390               0.000296904              -0.000148048               0.000803472               0.000655424               0.000000000               0.000000000               0.000000000               0.000000000               0.000325795               0.002353215               0.000262994              -0.000171978               0.000841723               0.000669745               0.000000000               0.000000000               0.000000000               0.000000000               0.000301321               0.002447452               0.000227823              -0.000192936               0.000880121               0.000687185               0.000000000               0.000000000               0.000000000               0.000000000               0.000287467               0.002548143               0.000188983              -0.000210717               0.000919612               0.000708894               0.000000000               0.000000000               0.000000000               0.000000000               0.000275774               0.002649545               0.000148282              -0.000227778               0.000959099               0.000731321               0.000000000               0.000000000               0.000000000               0.000000000               0.000256698               0.002733272               0.000107550              -0.000245397               0.000992880               0.000747484               0.000000000               0.000000000               0.000000000               0.000000000               0.000232796               0.002797784               0.000059665              -0.000262424               0.001020060               0.000757636               0.000000000               0.000000000               0.000000000               0.000000000               0.000209086               0.002819582               0.000029775              -0.000274040               0.001031198               0.000757158               0.000000000               0.000000000               0.000000000               0.000000000               0.000302299               0.000169614               0.000219876               0.000092159               0.000025818               0.000117977               0.000000000               0.000000000               0.000000000               0.000000000               0.000560873               0.000413801               0.000341935               0.000158601               0.000085065               0.000243666               0.000000000               0.000000000               0.000000000               0.000000000               0.000689494               0.000750540               0.000436097               0.000164741               0.000195264               0.000360005               0.000000000               0.000000000               0.000000000               0.000000000               0.000701354               0.001053217               0.000436092               0.000131354               0.000307284               0.000438638               0.000000000               0.000000000               0.000000000               0.000000000               0.000668946               0.001308424               0.000407812               0.000087301               0.000407037               0.000494337               0.000000000               0.000000000               0.000000000               0.000000000               0.000620754               0.001525717               0.000370971               0.000042067               0.000494545               0.000536612               0.000000000               0.000000000               0.000000000               0.000000000               0.000569343               0.001714944               0.000334522              -0.000000865               0.000571931               0.000571066               0.000000000               0.000000000               0.000000000               0.000000000               0.000521841               0.001887613               0.000301164              -0.000040262               0.000642619               0.000602357               0.000000000               0.000000000               0.000000000               0.000000000               0.000478100               0.002037209               0.000269262              -0.000075363               0.000704184               0.000628821               0.000000000               0.000000000               0.000000000               0.000000000               0.000433909               0.002158994               0.000238378              -0.000107158               0.000755377               0.000648219               0.000000000               0.000000000               0.000000000               0.000000000               0.000391830               0.002272133               0.000211247              -0.000137080               0.000803064               0.000665983               0.000000000               0.000000000               0.000000000               0.000000000               0.000361112               0.002379932               0.000188799              -0.000162074               0.000847327               0.000685253               0.000000000               0.000000000               0.000000000               0.000000000               0.000346354               0.002483189               0.000162650              -0.000180515               0.000887893               0.000707378               0.000000000               0.000000000               0.000000000               0.000000000               0.000339945               0.002587305               0.000127916              -0.000195933               0.000927737               0.000731804               0.000000000               0.000000000               0.000000000               0.000000000               0.000334293               0.002686216               0.000092949              -0.000210417               0.000965535               0.000755119               0.000000000               0.000000000               0.000000000               0.000000000               0.000331229               0.002772058               0.000053227              -0.000222296               0.000998109               0.000775813               0.000000000               0.000000000               0.000000000               0.000000000               0.000327378               0.002808345               0.000028597              -0.000228276               0.001012198               0.000783922               0.000000000               0.000000000               0.000000000               0.000000000               0.000196816               0.000083105               0.000100451               0.000063417               0.000006562               0.000069979               0.000000000               0.000000000               0.000000000               0.000000000               0.000525043               0.000289752               0.000170978               0.000160671               0.000043026               0.000203697               0.000000000               0.000000000               0.000000000               0.000000000               0.000721401               0.000587752               0.000228070               0.000197054               0.000130231               0.000327285               0.000000000               0.000000000               0.000000000               0.000000000               0.000764073               0.000885740               0.000233122               0.000175808               0.000236641               0.000412449               0.000000000               0.000000000               0.000000000               0.000000000               0.000743773               0.001148991               0.000221121               0.000135290               0.000337897               0.000473186               0.000000000               0.000000000               0.000000000               0.000000000               0.000697853               0.001379774               0.000203421               0.000089222               0.000430179               0.000519402               0.000000000               0.000000000               0.000000000               0.000000000               0.000643413               0.001582130               0.000186330               0.000043513               0.000512867               0.000556380               0.000000000               0.000000000               0.000000000               0.000000000               0.000587506               0.001766302               0.000169959              -0.000000473               0.000588919               0.000588446               0.000000000               0.000000000               0.000000000               0.000000000               0.000535042               0.001935490               0.000151436              -0.000041295               0.000658922               0.000617626               0.000000000               0.000000000               0.000000000               0.000000000               0.000487911               0.002083533               0.000132066              -0.000077475               0.000720329               0.000642854               0.000000000               0.000000000               0.000000000               0.000000000               0.000448176               0.002211201               0.000117478              -0.000108334               0.000773171               0.000664837               0.000000000               0.000000000               0.000000000               0.000000000               0.000414973               0.002323512               0.000109788              -0.000134824               0.000819437               0.000684614               0.000000000               0.000000000               0.000000000               0.000000000               0.000391219               0.002430211               0.000096440              -0.000157069               0.000862418               0.000705350               0.000000000               0.000000000               0.000000000               0.000000000               0.000382723               0.002538073               0.000073258              -0.000173737               0.000903928               0.000730191               0.000000000               0.000000000               0.000000000               0.000000000               0.000390679               0.002646464               0.000052218              -0.000184303               0.000943580               0.000759277               0.000000000               0.000000000               0.000000000               0.000000000               0.000411118               0.002748549               0.000031253              -0.000189399               0.000979307               0.000789908               0.000000000               0.000000000               0.000000000               0.000000000               0.000427633               0.002797522               0.000018903              -0.000189327               0.000995607               0.000806280               0.000000000               0.000000000               0.000000000               0.000000000               0.000000000               0.000000000               0.000000000               0.000000000               0.000000000               0.000000000               0.000000000               0.000000000               0.000000000               0.000000000               0.000000000               0.000000000               0.000000000               0.000000000               0.000000000               0.000000000               0.000000000               0.000000000               0.000000000               0.000000000               0.000000000               0.000000000               0.000000000               0.000000000               0.000000000               0.000000000               0.000000000               0.000000000               0.000000000               0.000000000               0.000000000               0.000000000               0.000000000               0.000000000               0.000000000               0.000000000               0.000000000               0.000000000               0.000000000               0.000000000               0.000000000               0.000000000               0.000000000               0.000000000               0.000000000               0.000000000               0.000000000               0.000000000               0.000000000               0.000000000               0.000000000               0.000000000               0.000000000               0.000000000               0.000000000               0.000000000               0.000000000               0.000000000               0.000000000               0.000000000               0.000000000               0.000000000               0.000000000               0.000000000               0.000000000               0.000000000               0.000000000               0.000000000               0.000000000               0.000000000               0.000000000               0.000000000               0.000000000               0.000000000               0.000000000               0.000000000               0.000000000               0.000000000               0.000000000               0.000000000               0.000000000               0.000000000               0.000000000               0.000000000               0.000000000               0.000000000               0.000000000               0.000000000               0.000000000               0.000000000               0.000000000               0.000000000               0.000000000               0.000000000               0.000000000               0.000000000               0.000000000               0.000000000               0.000000000               0.000000000               0.000000000               0.000000000               0.000000000               0.000000000               0.000000000               0.000000000               0.000000000               0.000000000               0.000000000               0.000000000               0.000000000               0.000000000               0.000000000               0.000000000               0.000000000               0.000000000               0.000000000               0.000000000               0.000000000               0.000000000               0.000000000               0.000000000               0.000000000               0.000000000               0.000000000               0.000000000               0.000000000               0.000000000               0.000000000               0.000000000               0.000000000               0.000000000               0.000000000               0.000000000               0.000000000               0.000000000               0.000000000               0.000000000               0.000000000               0.000000000               0.000000000               0.000000000               0.000000000               0.000000000               0.000000000               0.000000000               0.000000000               0.000000000               0.000000000               0.000000000               0.000000000               0.000000000               0.000000000               0.000000000               0.000000000               0.000000000               0.000000000               0.000000000               0.000000000               0.000000000               0.000000000               0.000000000               0.000000000               0.000000000               0.000000000               0.000000000               0.000000000               0.000000000               0.000000000               0.000000000 </DataArray>
</PointData>
</Piece>
</UnstructuredGrid> </VTKFile>
