<?xml version="1.0"?>
<VTKFile type="UnstructuredGrid" version="0.1">
<UnstructuredGrid>
<Piece NumberOfPoints="      1156" NumberOfCells="      1024">
<Points>
<DataArray type="Float64"                                    Name="coordinates"                                                      NumberOfComponents=" 3" format="ascii">
              0.133000000               0.000000000               0.000000000               0.155937500               0.000000000               0.000000000               0.178875000               0.000000000               0.000000000               0.201812500               0.000000000               0.000000000               0.224750000               0.000000000               0.000000000               0.247687500               0.000000000               0.000000000               0.270625000               0.000000000               0.000000000               0.293562500               0.000000000               0.000000000               0.316500000               0.000000000               0.000000000               0.339437500               0.000000000               0.000000000               0.362375000               0.000000000               0.000000000               0.385312500               0.000000000               0.000000000               0.408250000               0.000000000               0.000000000               0.431187500               0.000000000               0.000000000               0.454125000               0.000000000               0.000000000               0.477062500               0.000000000               0.000000000               0.500000000               0.000000000               0.000000000               0.132359569               0.013036280               0.000000000               0.155337096               0.016127762               0.000000000               0.178314623               0.019219245               0.000000000               0.201292150               0.022310727               0.000000000               0.224269676               0.025402210               0.000000000               0.247247203               0.028493692               0.000000000               0.270224730               0.031585175               0.000000000               0.293202257               0.034676657               0.000000000               0.316179784               0.037768140               0.000000000               0.339157311               0.040859622               0.000000000               0.362134838               0.043951105               0.000000000               0.385112365               0.047042587               0.000000000               0.408089892               0.050134070               0.000000000               0.431067419               0.053225552               0.000000000               0.454044946               0.056317035               0.000000000               0.477022473               0.059408517               0.000000000               0.500000000               0.062500000               0.000000000               0.130444442               0.025947013               0.000000000               0.153541665               0.032137825               0.000000000               0.176638887               0.038328636               0.000000000               0.199736109               0.044519448               0.000000000               0.222833332               0.050710260               0.000000000               0.245930554               0.056901071               0.000000000               0.269027776               0.063091883               0.000000000               0.292124999               0.069282695               0.000000000               0.315222221               0.075473506               0.000000000               0.338319444               0.081664318               0.000000000               0.361416666               0.087855130               0.000000000               0.384513888               0.094045942               0.000000000               0.407611111               0.100236753               0.000000000               0.430708333               0.106427565               0.000000000               0.453805555               0.112618377               0.000000000               0.476902778               0.118809188               0.000000000               0.500000000               0.125000000               0.000000000               0.127273065               0.038607862               0.000000000               0.150568498               0.047913621               0.000000000               0.173863932               0.057219379               0.000000000               0.197159365               0.066525138               0.000000000               0.220454798               0.075830897               0.000000000               0.243750232               0.085136655               0.000000000               0.267045665               0.094442414               0.000000000               0.290341099               0.103748172               0.000000000               0.313636532               0.113053931               0.000000000               0.336931966               0.122359690               0.000000000               0.360227399               0.131665448               0.000000000               0.383522833               0.140971207               0.000000000               0.406818266               0.150276966               0.000000000               0.430113700               0.159582724               0.000000000               0.453409133               0.168888483               0.000000000               0.476704567               0.178194241               0.000000000               0.500000000               0.187500000               0.000000000               0.122875978               0.050896897               0.000000000               0.146446229               0.063340840               0.000000000               0.170016481               0.075784784               0.000000000               0.193586732               0.088228728               0.000000000               0.217156983               0.100672672               0.000000000               0.240727235               0.113116616               0.000000000               0.264297486               0.125560560               0.000000000               0.287867738               0.138004504               0.000000000               0.311437989               0.150448448               0.000000000               0.335008240               0.162892392               0.000000000               0.358578492               0.175336336               0.000000000               0.382148743               0.187780280               0.000000000               0.405718994               0.200224224               0.000000000               0.429289246               0.212668168               0.000000000               0.452859497               0.225112112               0.000000000               0.476429749               0.237556056               0.000000000               0.500000000               0.250000000               0.000000000               0.117295528               0.062695766               0.000000000               0.141214558               0.078308531               0.000000000               0.165133587               0.093921295               0.000000000               0.189052617               0.109534060               0.000000000               0.212971646               0.125146824               0.000000000               0.236890676               0.140759589               0.000000000               0.260809705               0.156372354               0.000000000               0.284728735               0.171985118               0.000000000               0.308647764               0.187597883               0.000000000               0.332566794               0.203210648               0.000000000               0.356485823               0.218823412               0.000000000               0.380404853               0.234436177               0.000000000               0.404323882               0.250048941               0.000000000               0.428242912               0.265661706               0.000000000               0.452161941               0.281274471               0.000000000               0.476080971               0.296887235               0.000000000               0.500000000               0.312500000               0.000000000               0.110585458               0.073890841               0.000000000               0.134923867               0.092710163               0.000000000               0.159262276               0.111529486               0.000000000               0.183600685               0.130348808               0.000000000               0.207939094               0.149168131               0.000000000               0.232277503               0.167987453               0.000000000               0.256615912               0.186806776               0.000000000               0.280954320               0.205626098               0.000000000               0.305292729               0.224445420               0.000000000               0.329631138               0.243264743               0.000000000               0.353969547               0.262084065               0.000000000               0.378307956               0.280903388               0.000000000               0.402646365               0.299722710               0.000000000               0.426984773               0.318542033               0.000000000               0.451323182               0.337361355               0.000000000               0.475661591               0.356180678               0.000000000               0.500000000               0.375000000               0.000000000               0.102810390               0.084374307               0.000000000               0.127634741               0.106444663               0.000000000               0.152459092               0.128515018               0.000000000               0.177283442               0.150585374               0.000000000               0.202107793               0.172655730               0.000000000               0.226932143               0.194726086               0.000000000               0.251756494               0.216796442               0.000000000               0.276580845               0.238866798               0.000000000               0.301405195               0.260937153               0.000000000               0.326229546               0.283007509               0.000000000               0.351053896               0.305077865               0.000000000               0.375878247               0.327148221               0.000000000               0.400702598               0.349218577               0.000000000               0.425526948               0.371288933               0.000000000               0.450351299               0.393359288               0.000000000               0.475175649               0.415429644               0.000000000               0.500000000               0.437500000               0.000000000               0.094045202               0.094045202               0.000000000               0.119417377               0.119417377               0.000000000               0.144789552               0.144789552               0.000000000               0.170161727               0.170161727               0.000000000               0.195533901               0.195533901               0.000000000               0.220906076               0.220906076               0.000000000               0.246278251               0.246278251               0.000000000               0.271650426               0.271650426               0.000000000               0.297022601               0.297022601               0.000000000               0.322394776               0.322394776               0.000000000               0.347766951               0.347766951               0.000000000               0.373139126               0.373139126               0.000000000               0.398511300               0.398511300               0.000000000               0.423883475               0.423883475               0.000000000               0.449255650               0.449255650               0.000000000               0.474627825               0.474627825               0.000000000               0.500000000               0.500000000               0.000000000               0.084374307               0.102810390               0.000000000               0.106444663               0.127634741               0.000000000               0.128515018               0.152459092               0.000000000               0.150585374               0.177283442               0.000000000               0.172655730               0.202107793               0.000000000               0.194726086               0.226932143               0.000000000               0.216796442               0.251756494               0.000000000               0.238866798               0.276580845               0.000000000               0.260937153               0.301405195               0.000000000               0.283007509               0.326229546               0.000000000               0.305077865               0.351053896               0.000000000               0.327148221               0.375878247               0.000000000               0.349218577               0.400702598               0.000000000               0.371288933               0.425526948               0.000000000               0.393359288               0.450351299               0.000000000               0.415429644               0.475175649               0.000000000               0.437500000               0.500000000               0.000000000               0.073890841               0.110585458               0.000000000               0.092710163               0.134923867               0.000000000               0.111529486               0.159262276               0.000000000               0.130348808               0.183600685               0.000000000               0.149168131               0.207939094               0.000000000               0.167987453               0.232277503               0.000000000               0.186806776               0.256615912               0.000000000               0.205626098               0.280954320               0.000000000               0.224445420               0.305292729               0.000000000               0.243264743               0.329631138               0.000000000               0.262084065               0.353969547               0.000000000               0.280903388               0.378307956               0.000000000               0.299722710               0.402646365               0.000000000               0.318542033               0.426984773               0.000000000               0.337361355               0.451323182               0.000000000               0.356180678               0.475661591               0.000000000               0.375000000               0.500000000               0.000000000               0.062695766               0.117295528               0.000000000               0.078308531               0.141214558               0.000000000               0.093921295               0.165133587               0.000000000               0.109534060               0.189052617               0.000000000               0.125146824               0.212971646               0.000000000               0.140759589               0.236890676               0.000000000               0.156372354               0.260809705               0.000000000               0.171985118               0.284728735               0.000000000               0.187597883               0.308647764               0.000000000               0.203210648               0.332566794               0.000000000               0.218823412               0.356485823               0.000000000               0.234436177               0.380404853               0.000000000               0.250048941               0.404323882               0.000000000               0.265661706               0.428242912               0.000000000               0.281274471               0.452161941               0.000000000               0.296887235               0.476080971               0.000000000               0.312500000               0.500000000               0.000000000               0.050896897               0.122875978               0.000000000               0.063340840               0.146446229               0.000000000               0.075784784               0.170016481               0.000000000               0.088228728               0.193586732               0.000000000               0.100672672               0.217156983               0.000000000               0.113116616               0.240727235               0.000000000               0.125560560               0.264297486               0.000000000               0.138004504               0.287867738               0.000000000               0.150448448               0.311437989               0.000000000               0.162892392               0.335008240               0.000000000               0.175336336               0.358578492               0.000000000               0.187780280               0.382148743               0.000000000               0.200224224               0.405718994               0.000000000               0.212668168               0.429289246               0.000000000               0.225112112               0.452859497               0.000000000               0.237556056               0.476429749               0.000000000               0.250000000               0.500000000               0.000000000               0.038607862               0.127273065               0.000000000               0.047913621               0.150568498               0.000000000               0.057219379               0.173863932               0.000000000               0.066525138               0.197159365               0.000000000               0.075830897               0.220454798               0.000000000               0.085136655               0.243750232               0.000000000               0.094442414               0.267045665               0.000000000               0.103748172               0.290341099               0.000000000               0.113053931               0.313636532               0.000000000               0.122359690               0.336931966               0.000000000               0.131665448               0.360227399               0.000000000               0.140971207               0.383522833               0.000000000               0.150276966               0.406818266               0.000000000               0.159582724               0.430113700               0.000000000               0.168888483               0.453409133               0.000000000               0.178194241               0.476704567               0.000000000               0.187500000               0.500000000               0.000000000               0.025947013               0.130444442               0.000000000               0.032137825               0.153541665               0.000000000               0.038328636               0.176638887               0.000000000               0.044519448               0.199736109               0.000000000               0.050710260               0.222833332               0.000000000               0.056901071               0.245930554               0.000000000               0.063091883               0.269027776               0.000000000               0.069282695               0.292124999               0.000000000               0.075473506               0.315222221               0.000000000               0.081664318               0.338319444               0.000000000               0.087855130               0.361416666               0.000000000               0.094045942               0.384513888               0.000000000               0.100236753               0.407611111               0.000000000               0.106427565               0.430708333               0.000000000               0.112618377               0.453805555               0.000000000               0.118809188               0.476902778               0.000000000               0.125000000               0.500000000               0.000000000               0.013036280               0.132359569               0.000000000               0.016127762               0.155337096               0.000000000               0.019219245               0.178314623               0.000000000               0.022310727               0.201292150               0.000000000               0.025402210               0.224269676               0.000000000               0.028493692               0.247247203               0.000000000               0.031585175               0.270224730               0.000000000               0.034676657               0.293202257               0.000000000               0.037768140               0.316179784               0.000000000               0.040859622               0.339157311               0.000000000               0.043951105               0.362134838               0.000000000               0.047042587               0.385112365               0.000000000               0.050134070               0.408089892               0.000000000               0.053225552               0.431067419               0.000000000               0.056317035               0.454044946               0.000000000               0.059408517               0.477022473               0.000000000               0.062500000               0.500000000               0.000000000               0.000000000               0.133000000               0.000000000               0.000000000               0.155937500               0.000000000               0.000000000               0.178875000               0.000000000               0.000000000               0.201812500               0.000000000               0.000000000               0.224750000               0.000000000               0.000000000               0.247687500               0.000000000               0.000000000               0.270625000               0.000000000               0.000000000               0.293562500               0.000000000               0.000000000               0.316500000               0.000000000               0.000000000               0.339437500               0.000000000               0.000000000               0.362375000               0.000000000               0.000000000               0.385312500               0.000000000               0.000000000               0.408250000               0.000000000               0.000000000               0.431187500               0.000000000               0.000000000               0.454125000               0.000000000               0.000000000               0.477062500               0.000000000               0.000000000               0.500000000               0.000000000               0.133000000               0.000000000               0.000000000               0.155937500               0.000000000               0.000000000               0.178875000               0.000000000               0.000000000               0.201812500               0.000000000               0.000000000               0.224750000               0.000000000               0.000000000               0.247687500               0.000000000               0.000000000               0.270625000               0.000000000               0.000000000               0.293562500               0.000000000               0.000000000               0.316500000               0.000000000               0.000000000               0.339437500               0.000000000               0.000000000               0.362375000               0.000000000               0.000000000               0.385312500               0.000000000               0.000000000               0.408250000               0.000000000               0.000000000               0.431187500               0.000000000               0.000000000               0.454125000               0.000000000               0.000000000               0.477062500               0.000000000               0.000000000               0.500000000               0.000000000               0.000000000               0.132359569              -0.013036280               0.000000000               0.155337096              -0.016127762               0.000000000               0.178314623              -0.019219245               0.000000000               0.201292150              -0.022310727               0.000000000               0.224269676              -0.025402210               0.000000000               0.247247203              -0.028493692               0.000000000               0.270224730              -0.031585175               0.000000000               0.293202257              -0.034676657               0.000000000               0.316179784              -0.037768140               0.000000000               0.339157311              -0.040859622               0.000000000               0.362134838              -0.043951105               0.000000000               0.385112365              -0.047042587               0.000000000               0.408089892              -0.050134070               0.000000000               0.431067419              -0.053225552               0.000000000               0.454044946              -0.056317035               0.000000000               0.477022473              -0.059408517               0.000000000               0.500000000              -0.062500000               0.000000000               0.130444442              -0.025947013               0.000000000               0.153541665              -0.032137825               0.000000000               0.176638887              -0.038328636               0.000000000               0.199736109              -0.044519448               0.000000000               0.222833332              -0.050710260               0.000000000               0.245930554              -0.056901071               0.000000000               0.269027776              -0.063091883               0.000000000               0.292124999              -0.069282695               0.000000000               0.315222221              -0.075473506               0.000000000               0.338319444              -0.081664318               0.000000000               0.361416666              -0.087855130               0.000000000               0.384513888              -0.094045942               0.000000000               0.407611111              -0.100236753               0.000000000               0.430708333              -0.106427565               0.000000000               0.453805555              -0.112618377               0.000000000               0.476902778              -0.118809188               0.000000000               0.500000000              -0.125000000               0.000000000               0.127273065              -0.038607862               0.000000000               0.150568498              -0.047913621               0.000000000               0.173863932              -0.057219379               0.000000000               0.197159365              -0.066525138               0.000000000               0.220454798              -0.075830897               0.000000000               0.243750232              -0.085136655               0.000000000               0.267045665              -0.094442414               0.000000000               0.290341099              -0.103748172               0.000000000               0.313636532              -0.113053931               0.000000000               0.336931966              -0.122359690               0.000000000               0.360227399              -0.131665448               0.000000000               0.383522833              -0.140971207               0.000000000               0.406818266              -0.150276966               0.000000000               0.430113700              -0.159582724               0.000000000               0.453409133              -0.168888483               0.000000000               0.476704567              -0.178194241               0.000000000               0.500000000              -0.187500000               0.000000000               0.122875978              -0.050896897               0.000000000               0.146446229              -0.063340840               0.000000000               0.170016481              -0.075784784               0.000000000               0.193586732              -0.088228728               0.000000000               0.217156983              -0.100672672               0.000000000               0.240727235              -0.113116616               0.000000000               0.264297486              -0.125560560               0.000000000               0.287867738              -0.138004504               0.000000000               0.311437989              -0.150448448               0.000000000               0.335008240              -0.162892392               0.000000000               0.358578492              -0.175336336               0.000000000               0.382148743              -0.187780280               0.000000000               0.405718994              -0.200224224               0.000000000               0.429289246              -0.212668168               0.000000000               0.452859497              -0.225112112               0.000000000               0.476429749              -0.237556056               0.000000000               0.500000000              -0.250000000               0.000000000               0.117295528              -0.062695766               0.000000000               0.141214558              -0.078308531               0.000000000               0.165133587              -0.093921295               0.000000000               0.189052617              -0.109534060               0.000000000               0.212971646              -0.125146824               0.000000000               0.236890676              -0.140759589               0.000000000               0.260809705              -0.156372354               0.000000000               0.284728735              -0.171985118               0.000000000               0.308647764              -0.187597883               0.000000000               0.332566794              -0.203210648               0.000000000               0.356485823              -0.218823412               0.000000000               0.380404853              -0.234436177               0.000000000               0.404323882              -0.250048941               0.000000000               0.428242912              -0.265661706               0.000000000               0.452161941              -0.281274471               0.000000000               0.476080971              -0.296887235               0.000000000               0.500000000              -0.312500000               0.000000000               0.110585458              -0.073890841               0.000000000               0.134923867              -0.092710163               0.000000000               0.159262276              -0.111529486               0.000000000               0.183600685              -0.130348808               0.000000000               0.207939094              -0.149168131               0.000000000               0.232277503              -0.167987453               0.000000000               0.256615912              -0.186806776               0.000000000               0.280954320              -0.205626098               0.000000000               0.305292729              -0.224445420               0.000000000               0.329631138              -0.243264743               0.000000000               0.353969547              -0.262084065               0.000000000               0.378307956              -0.280903388               0.000000000               0.402646365              -0.299722710               0.000000000               0.426984773              -0.318542033               0.000000000               0.451323182              -0.337361355               0.000000000               0.475661591              -0.356180678               0.000000000               0.500000000              -0.375000000               0.000000000               0.102810390              -0.084374307               0.000000000               0.127634741              -0.106444663               0.000000000               0.152459092              -0.128515018               0.000000000               0.177283442              -0.150585374               0.000000000               0.202107793              -0.172655730               0.000000000               0.226932143              -0.194726086               0.000000000               0.251756494              -0.216796442               0.000000000               0.276580845              -0.238866798               0.000000000               0.301405195              -0.260937153               0.000000000               0.326229546              -0.283007509               0.000000000               0.351053896              -0.305077865               0.000000000               0.375878247              -0.327148221               0.000000000               0.400702598              -0.349218577               0.000000000               0.425526948              -0.371288933               0.000000000               0.450351299              -0.393359288               0.000000000               0.475175649              -0.415429644               0.000000000               0.500000000              -0.437500000               0.000000000               0.094045202              -0.094045202               0.000000000               0.119417377              -0.119417377               0.000000000               0.144789552              -0.144789552               0.000000000               0.170161727              -0.170161727               0.000000000               0.195533901              -0.195533901               0.000000000               0.220906076              -0.220906076               0.000000000               0.246278251              -0.246278251               0.000000000               0.271650426              -0.271650426               0.000000000               0.297022601              -0.297022601               0.000000000               0.322394776              -0.322394776               0.000000000               0.347766951              -0.347766951               0.000000000               0.373139126              -0.373139126               0.000000000               0.398511300              -0.398511300               0.000000000               0.423883475              -0.423883475               0.000000000               0.449255650              -0.449255650               0.000000000               0.474627825              -0.474627825               0.000000000               0.500000000              -0.500000000               0.000000000               0.084374307              -0.102810390               0.000000000               0.106444663              -0.127634741               0.000000000               0.128515018              -0.152459092               0.000000000               0.150585374              -0.177283442               0.000000000               0.172655730              -0.202107793               0.000000000               0.194726086              -0.226932143               0.000000000               0.216796442              -0.251756494               0.000000000               0.238866798              -0.276580845               0.000000000               0.260937153              -0.301405195               0.000000000               0.283007509              -0.326229546               0.000000000               0.305077865              -0.351053896               0.000000000               0.327148221              -0.375878247               0.000000000               0.349218577              -0.400702598               0.000000000               0.371288933              -0.425526948               0.000000000               0.393359288              -0.450351299               0.000000000               0.415429644              -0.475175649               0.000000000               0.437500000              -0.500000000               0.000000000               0.073890841              -0.110585458               0.000000000               0.092710163              -0.134923867               0.000000000               0.111529486              -0.159262276               0.000000000               0.130348808              -0.183600685               0.000000000               0.149168131              -0.207939094               0.000000000               0.167987453              -0.232277503               0.000000000               0.186806776              -0.256615912               0.000000000               0.205626098              -0.280954320               0.000000000               0.224445420              -0.305292729               0.000000000               0.243264743              -0.329631138               0.000000000               0.262084065              -0.353969547               0.000000000               0.280903388              -0.378307956               0.000000000               0.299722710              -0.402646365               0.000000000               0.318542033              -0.426984773               0.000000000               0.337361355              -0.451323182               0.000000000               0.356180678              -0.475661591               0.000000000               0.375000000              -0.500000000               0.000000000               0.062695766              -0.117295528               0.000000000               0.078308531              -0.141214558               0.000000000               0.093921295              -0.165133587               0.000000000               0.109534060              -0.189052617               0.000000000               0.125146824              -0.212971646               0.000000000               0.140759589              -0.236890676               0.000000000               0.156372354              -0.260809705               0.000000000               0.171985118              -0.284728735               0.000000000               0.187597883              -0.308647764               0.000000000               0.203210648              -0.332566794               0.000000000               0.218823412              -0.356485823               0.000000000               0.234436177              -0.380404853               0.000000000               0.250048941              -0.404323882               0.000000000               0.265661706              -0.428242912               0.000000000               0.281274471              -0.452161941               0.000000000               0.296887235              -0.476080971               0.000000000               0.312500000              -0.500000000               0.000000000               0.050896897              -0.122875978               0.000000000               0.063340840              -0.146446229               0.000000000               0.075784784              -0.170016481               0.000000000               0.088228728              -0.193586732               0.000000000               0.100672672              -0.217156983               0.000000000               0.113116616              -0.240727235               0.000000000               0.125560560              -0.264297486               0.000000000               0.138004504              -0.287867738               0.000000000               0.150448448              -0.311437989               0.000000000               0.162892392              -0.335008240               0.000000000               0.175336336              -0.358578492               0.000000000               0.187780280              -0.382148743               0.000000000               0.200224224              -0.405718994               0.000000000               0.212668168              -0.429289246               0.000000000               0.225112112              -0.452859497               0.000000000               0.237556056              -0.476429749               0.000000000               0.250000000              -0.500000000               0.000000000               0.038607862              -0.127273065               0.000000000               0.047913621              -0.150568498               0.000000000               0.057219379              -0.173863932               0.000000000               0.066525138              -0.197159365               0.000000000               0.075830897              -0.220454798               0.000000000               0.085136655              -0.243750232               0.000000000               0.094442414              -0.267045665               0.000000000               0.103748172              -0.290341099               0.000000000               0.113053931              -0.313636532               0.000000000               0.122359690              -0.336931966               0.000000000               0.131665448              -0.360227399               0.000000000               0.140971207              -0.383522833               0.000000000               0.150276966              -0.406818266               0.000000000               0.159582724              -0.430113700               0.000000000               0.168888483              -0.453409133               0.000000000               0.178194241              -0.476704567               0.000000000               0.187500000              -0.500000000               0.000000000               0.025947013              -0.130444442               0.000000000               0.032137825              -0.153541665               0.000000000               0.038328636              -0.176638887               0.000000000               0.044519448              -0.199736109               0.000000000               0.050710260              -0.222833332               0.000000000               0.056901071              -0.245930554               0.000000000               0.063091883              -0.269027776               0.000000000               0.069282695              -0.292124999               0.000000000               0.075473506              -0.315222221               0.000000000               0.081664318              -0.338319444               0.000000000               0.087855130              -0.361416666               0.000000000               0.094045942              -0.384513888               0.000000000               0.100236753              -0.407611111               0.000000000               0.106427565              -0.430708333               0.000000000               0.112618377              -0.453805555               0.000000000               0.118809188              -0.476902778               0.000000000               0.125000000              -0.500000000               0.000000000               0.013036280              -0.132359569               0.000000000               0.016127762              -0.155337096               0.000000000               0.019219245              -0.178314623               0.000000000               0.022310727              -0.201292150               0.000000000               0.025402210              -0.224269676               0.000000000               0.028493692              -0.247247203               0.000000000               0.031585175              -0.270224730               0.000000000               0.034676657              -0.293202257               0.000000000               0.037768140              -0.316179784               0.000000000               0.040859622              -0.339157311               0.000000000               0.043951105              -0.362134838               0.000000000               0.047042587              -0.385112365               0.000000000               0.050134070              -0.408089892               0.000000000               0.053225552              -0.431067419               0.000000000               0.056317035              -0.454044946               0.000000000               0.059408517              -0.477022473               0.000000000               0.062500000              -0.500000000               0.000000000               0.000000000              -0.133000000               0.000000000               0.000000000              -0.155937500               0.000000000               0.000000000              -0.178875000               0.000000000               0.000000000              -0.201812500               0.000000000               0.000000000              -0.224750000               0.000000000               0.000000000              -0.247687500               0.000000000               0.000000000              -0.270625000               0.000000000               0.000000000              -0.293562500               0.000000000               0.000000000              -0.316500000               0.000000000               0.000000000              -0.339437500               0.000000000               0.000000000              -0.362375000               0.000000000               0.000000000              -0.385312500               0.000000000               0.000000000              -0.408250000               0.000000000               0.000000000              -0.431187500               0.000000000               0.000000000              -0.454125000               0.000000000               0.000000000              -0.477062500               0.000000000               0.000000000              -0.500000000               0.000000000              -0.133000000               0.000000000               0.000000000              -0.155937500               0.000000000               0.000000000              -0.178875000               0.000000000               0.000000000              -0.201812500               0.000000000               0.000000000              -0.224750000               0.000000000               0.000000000              -0.247687500               0.000000000               0.000000000              -0.270625000               0.000000000               0.000000000              -0.293562500               0.000000000               0.000000000              -0.316500000               0.000000000               0.000000000              -0.339437500               0.000000000               0.000000000              -0.362375000               0.000000000               0.000000000              -0.385312500               0.000000000               0.000000000              -0.408250000               0.000000000               0.000000000              -0.431187500               0.000000000               0.000000000              -0.454125000               0.000000000               0.000000000              -0.477062500               0.000000000               0.000000000              -0.500000000               0.000000000               0.000000000              -0.132359569              -0.013036280               0.000000000              -0.155337096              -0.016127762               0.000000000              -0.178314623              -0.019219245               0.000000000              -0.201292150              -0.022310727               0.000000000              -0.224269676              -0.025402210               0.000000000              -0.247247203              -0.028493692               0.000000000              -0.270224730              -0.031585175               0.000000000              -0.293202257              -0.034676657               0.000000000              -0.316179784              -0.037768140               0.000000000              -0.339157311              -0.040859622               0.000000000              -0.362134838              -0.043951105               0.000000000              -0.385112365              -0.047042587               0.000000000              -0.408089892              -0.050134070               0.000000000              -0.431067419              -0.053225552               0.000000000              -0.454044946              -0.056317035               0.000000000              -0.477022473              -0.059408517               0.000000000              -0.500000000              -0.062500000               0.000000000              -0.130444442              -0.025947013               0.000000000              -0.153541665              -0.032137825               0.000000000              -0.176638887              -0.038328636               0.000000000              -0.199736109              -0.044519448               0.000000000              -0.222833332              -0.050710260               0.000000000              -0.245930554              -0.056901071               0.000000000              -0.269027776              -0.063091883               0.000000000              -0.292124999              -0.069282695               0.000000000              -0.315222221              -0.075473506               0.000000000              -0.338319444              -0.081664318               0.000000000              -0.361416666              -0.087855130               0.000000000              -0.384513888              -0.094045942               0.000000000              -0.407611111              -0.100236753               0.000000000              -0.430708333              -0.106427565               0.000000000              -0.453805555              -0.112618377               0.000000000              -0.476902778              -0.118809188               0.000000000              -0.500000000              -0.125000000               0.000000000              -0.127273065              -0.038607862               0.000000000              -0.150568498              -0.047913621               0.000000000              -0.173863932              -0.057219379               0.000000000              -0.197159365              -0.066525138               0.000000000              -0.220454798              -0.075830897               0.000000000              -0.243750232              -0.085136655               0.000000000              -0.267045665              -0.094442414               0.000000000              -0.290341099              -0.103748172               0.000000000              -0.313636532              -0.113053931               0.000000000              -0.336931966              -0.122359690               0.000000000              -0.360227399              -0.131665448               0.000000000              -0.383522833              -0.140971207               0.000000000              -0.406818266              -0.150276966               0.000000000              -0.430113700              -0.159582724               0.000000000              -0.453409133              -0.168888483               0.000000000              -0.476704567              -0.178194241               0.000000000              -0.500000000              -0.187500000               0.000000000              -0.122875978              -0.050896897               0.000000000              -0.146446229              -0.063340840               0.000000000              -0.170016481              -0.075784784               0.000000000              -0.193586732              -0.088228728               0.000000000              -0.217156983              -0.100672672               0.000000000              -0.240727235              -0.113116616               0.000000000              -0.264297486              -0.125560560               0.000000000              -0.287867738              -0.138004504               0.000000000              -0.311437989              -0.150448448               0.000000000              -0.335008240              -0.162892392               0.000000000              -0.358578492              -0.175336336               0.000000000              -0.382148743              -0.187780280               0.000000000              -0.405718994              -0.200224224               0.000000000              -0.429289246              -0.212668168               0.000000000              -0.452859497              -0.225112112               0.000000000              -0.476429749              -0.237556056               0.000000000              -0.500000000              -0.250000000               0.000000000              -0.117295528              -0.062695766               0.000000000              -0.141214558              -0.078308531               0.000000000              -0.165133587              -0.093921295               0.000000000              -0.189052617              -0.109534060               0.000000000              -0.212971646              -0.125146824               0.000000000              -0.236890676              -0.140759589               0.000000000              -0.260809705              -0.156372354               0.000000000              -0.284728735              -0.171985118               0.000000000              -0.308647764              -0.187597883               0.000000000              -0.332566794              -0.203210648               0.000000000              -0.356485823              -0.218823412               0.000000000              -0.380404853              -0.234436177               0.000000000              -0.404323882              -0.250048941               0.000000000              -0.428242912              -0.265661706               0.000000000              -0.452161941              -0.281274471               0.000000000              -0.476080971              -0.296887235               0.000000000              -0.500000000              -0.312500000               0.000000000              -0.110585458              -0.073890841               0.000000000              -0.134923867              -0.092710163               0.000000000              -0.159262276              -0.111529486               0.000000000              -0.183600685              -0.130348808               0.000000000              -0.207939094              -0.149168131               0.000000000              -0.232277503              -0.167987453               0.000000000              -0.256615912              -0.186806776               0.000000000              -0.280954320              -0.205626098               0.000000000              -0.305292729              -0.224445420               0.000000000              -0.329631138              -0.243264743               0.000000000              -0.353969547              -0.262084065               0.000000000              -0.378307956              -0.280903388               0.000000000              -0.402646365              -0.299722710               0.000000000              -0.426984773              -0.318542033               0.000000000              -0.451323182              -0.337361355               0.000000000              -0.475661591              -0.356180678               0.000000000              -0.500000000              -0.375000000               0.000000000              -0.102810390              -0.084374307               0.000000000              -0.127634741              -0.106444663               0.000000000              -0.152459092              -0.128515018               0.000000000              -0.177283442              -0.150585374               0.000000000              -0.202107793              -0.172655730               0.000000000              -0.226932143              -0.194726086               0.000000000              -0.251756494              -0.216796442               0.000000000              -0.276580845              -0.238866798               0.000000000              -0.301405195              -0.260937153               0.000000000              -0.326229546              -0.283007509               0.000000000              -0.351053896              -0.305077865               0.000000000              -0.375878247              -0.327148221               0.000000000              -0.400702598              -0.349218577               0.000000000              -0.425526948              -0.371288933               0.000000000              -0.450351299              -0.393359288               0.000000000              -0.475175649              -0.415429644               0.000000000              -0.500000000              -0.437500000               0.000000000              -0.094045202              -0.094045202               0.000000000              -0.119417377              -0.119417377               0.000000000              -0.144789552              -0.144789552               0.000000000              -0.170161727              -0.170161727               0.000000000              -0.195533901              -0.195533901               0.000000000              -0.220906076              -0.220906076               0.000000000              -0.246278251              -0.246278251               0.000000000              -0.271650426              -0.271650426               0.000000000              -0.297022601              -0.297022601               0.000000000              -0.322394776              -0.322394776               0.000000000              -0.347766951              -0.347766951               0.000000000              -0.373139126              -0.373139126               0.000000000              -0.398511300              -0.398511300               0.000000000              -0.423883475              -0.423883475               0.000000000              -0.449255650              -0.449255650               0.000000000              -0.474627825              -0.474627825               0.000000000              -0.500000000              -0.500000000               0.000000000              -0.084374307              -0.102810390               0.000000000              -0.106444663              -0.127634741               0.000000000              -0.128515018              -0.152459092               0.000000000              -0.150585374              -0.177283442               0.000000000              -0.172655730              -0.202107793               0.000000000              -0.194726086              -0.226932143               0.000000000              -0.216796442              -0.251756494               0.000000000              -0.238866798              -0.276580845               0.000000000              -0.260937153              -0.301405195               0.000000000              -0.283007509              -0.326229546               0.000000000              -0.305077865              -0.351053896               0.000000000              -0.327148221              -0.375878247               0.000000000              -0.349218577              -0.400702598               0.000000000              -0.371288933              -0.425526948               0.000000000              -0.393359288              -0.450351299               0.000000000              -0.415429644              -0.475175649               0.000000000              -0.437500000              -0.500000000               0.000000000              -0.073890841              -0.110585458               0.000000000              -0.092710163              -0.134923867               0.000000000              -0.111529486              -0.159262276               0.000000000              -0.130348808              -0.183600685               0.000000000              -0.149168131              -0.207939094               0.000000000              -0.167987453              -0.232277503               0.000000000              -0.186806776              -0.256615912               0.000000000              -0.205626098              -0.280954320               0.000000000              -0.224445420              -0.305292729               0.000000000              -0.243264743              -0.329631138               0.000000000              -0.262084065              -0.353969547               0.000000000              -0.280903388              -0.378307956               0.000000000              -0.299722710              -0.402646365               0.000000000              -0.318542033              -0.426984773               0.000000000              -0.337361355              -0.451323182               0.000000000              -0.356180678              -0.475661591               0.000000000              -0.375000000              -0.500000000               0.000000000              -0.062695766              -0.117295528               0.000000000              -0.078308531              -0.141214558               0.000000000              -0.093921295              -0.165133587               0.000000000              -0.109534060              -0.189052617               0.000000000              -0.125146824              -0.212971646               0.000000000              -0.140759589              -0.236890676               0.000000000              -0.156372354              -0.260809705               0.000000000              -0.171985118              -0.284728735               0.000000000              -0.187597883              -0.308647764               0.000000000              -0.203210648              -0.332566794               0.000000000              -0.218823412              -0.356485823               0.000000000              -0.234436177              -0.380404853               0.000000000              -0.250048941              -0.404323882               0.000000000              -0.265661706              -0.428242912               0.000000000              -0.281274471              -0.452161941               0.000000000              -0.296887235              -0.476080971               0.000000000              -0.312500000              -0.500000000               0.000000000              -0.050896897              -0.122875978               0.000000000              -0.063340840              -0.146446229               0.000000000              -0.075784784              -0.170016481               0.000000000              -0.088228728              -0.193586732               0.000000000              -0.100672672              -0.217156983               0.000000000              -0.113116616              -0.240727235               0.000000000              -0.125560560              -0.264297486               0.000000000              -0.138004504              -0.287867738               0.000000000              -0.150448448              -0.311437989               0.000000000              -0.162892392              -0.335008240               0.000000000              -0.175336336              -0.358578492               0.000000000              -0.187780280              -0.382148743               0.000000000              -0.200224224              -0.405718994               0.000000000              -0.212668168              -0.429289246               0.000000000              -0.225112112              -0.452859497               0.000000000              -0.237556056              -0.476429749               0.000000000              -0.250000000              -0.500000000               0.000000000              -0.038607862              -0.127273065               0.000000000              -0.047913621              -0.150568498               0.000000000              -0.057219379              -0.173863932               0.000000000              -0.066525138              -0.197159365               0.000000000              -0.075830897              -0.220454798               0.000000000              -0.085136655              -0.243750232               0.000000000              -0.094442414              -0.267045665               0.000000000              -0.103748172              -0.290341099               0.000000000              -0.113053931              -0.313636532               0.000000000              -0.122359690              -0.336931966               0.000000000              -0.131665448              -0.360227399               0.000000000              -0.140971207              -0.383522833               0.000000000              -0.150276966              -0.406818266               0.000000000              -0.159582724              -0.430113700               0.000000000              -0.168888483              -0.453409133               0.000000000              -0.178194241              -0.476704567               0.000000000              -0.187500000              -0.500000000               0.000000000              -0.025947013              -0.130444442               0.000000000              -0.032137825              -0.153541665               0.000000000              -0.038328636              -0.176638887               0.000000000              -0.044519448              -0.199736109               0.000000000              -0.050710260              -0.222833332               0.000000000              -0.056901071              -0.245930554               0.000000000              -0.063091883              -0.269027776               0.000000000              -0.069282695              -0.292124999               0.000000000              -0.075473506              -0.315222221               0.000000000              -0.081664318              -0.338319444               0.000000000              -0.087855130              -0.361416666               0.000000000              -0.094045942              -0.384513888               0.000000000              -0.100236753              -0.407611111               0.000000000              -0.106427565              -0.430708333               0.000000000              -0.112618377              -0.453805555               0.000000000              -0.118809188              -0.476902778               0.000000000              -0.125000000              -0.500000000               0.000000000              -0.013036280              -0.132359569               0.000000000              -0.016127762              -0.155337096               0.000000000              -0.019219245              -0.178314623               0.000000000              -0.022310727              -0.201292150               0.000000000              -0.025402210              -0.224269676               0.000000000              -0.028493692              -0.247247203               0.000000000              -0.031585175              -0.270224730               0.000000000              -0.034676657              -0.293202257               0.000000000              -0.037768140              -0.316179784               0.000000000              -0.040859622              -0.339157311               0.000000000              -0.043951105              -0.362134838               0.000000000              -0.047042587              -0.385112365               0.000000000              -0.050134070              -0.408089892               0.000000000              -0.053225552              -0.431067419               0.000000000              -0.056317035              -0.454044946               0.000000000              -0.059408517              -0.477022473               0.000000000              -0.062500000              -0.500000000               0.000000000               0.000000000              -0.133000000               0.000000000               0.000000000              -0.155937500               0.000000000               0.000000000              -0.178875000               0.000000000               0.000000000              -0.201812500               0.000000000               0.000000000              -0.224750000               0.000000000               0.000000000              -0.247687500               0.000000000               0.000000000              -0.270625000               0.000000000               0.000000000              -0.293562500               0.000000000               0.000000000              -0.316500000               0.000000000               0.000000000              -0.339437500               0.000000000               0.000000000              -0.362375000               0.000000000               0.000000000              -0.385312500               0.000000000               0.000000000              -0.408250000               0.000000000               0.000000000              -0.431187500               0.000000000               0.000000000              -0.454125000               0.000000000               0.000000000              -0.477062500               0.000000000               0.000000000              -0.500000000               0.000000000              -0.133000000               0.000000000               0.000000000              -0.155937500               0.000000000               0.000000000              -0.178875000               0.000000000               0.000000000              -0.201812500               0.000000000               0.000000000              -0.224750000               0.000000000               0.000000000              -0.247687500               0.000000000               0.000000000              -0.270625000               0.000000000               0.000000000              -0.293562500               0.000000000               0.000000000              -0.316500000               0.000000000               0.000000000              -0.339437500               0.000000000               0.000000000              -0.362375000               0.000000000               0.000000000              -0.385312500               0.000000000               0.000000000              -0.408250000               0.000000000               0.000000000              -0.431187500               0.000000000               0.000000000              -0.454125000               0.000000000               0.000000000              -0.477062500               0.000000000               0.000000000              -0.500000000               0.000000000               0.000000000              -0.132359569               0.013036280               0.000000000              -0.155337096               0.016127762               0.000000000              -0.178314623               0.019219245               0.000000000              -0.201292150               0.022310727               0.000000000              -0.224269676               0.025402210               0.000000000              -0.247247203               0.028493692               0.000000000              -0.270224730               0.031585175               0.000000000              -0.293202257               0.034676657               0.000000000              -0.316179784               0.037768140               0.000000000              -0.339157311               0.040859622               0.000000000              -0.362134838               0.043951105               0.000000000              -0.385112365               0.047042587               0.000000000              -0.408089892               0.050134070               0.000000000              -0.431067419               0.053225552               0.000000000              -0.454044946               0.056317035               0.000000000              -0.477022473               0.059408517               0.000000000              -0.500000000               0.062500000               0.000000000              -0.130444442               0.025947013               0.000000000              -0.153541665               0.032137825               0.000000000              -0.176638887               0.038328636               0.000000000              -0.199736109               0.044519448               0.000000000              -0.222833332               0.050710260               0.000000000              -0.245930554               0.056901071               0.000000000              -0.269027776               0.063091883               0.000000000              -0.292124999               0.069282695               0.000000000              -0.315222221               0.075473506               0.000000000              -0.338319444               0.081664318               0.000000000              -0.361416666               0.087855130               0.000000000              -0.384513888               0.094045942               0.000000000              -0.407611111               0.100236753               0.000000000              -0.430708333               0.106427565               0.000000000              -0.453805555               0.112618377               0.000000000              -0.476902778               0.118809188               0.000000000              -0.500000000               0.125000000               0.000000000              -0.127273065               0.038607862               0.000000000              -0.150568498               0.047913621               0.000000000              -0.173863932               0.057219379               0.000000000              -0.197159365               0.066525138               0.000000000              -0.220454798               0.075830897               0.000000000              -0.243750232               0.085136655               0.000000000              -0.267045665               0.094442414               0.000000000              -0.290341099               0.103748172               0.000000000              -0.313636532               0.113053931               0.000000000              -0.336931966               0.122359690               0.000000000              -0.360227399               0.131665448               0.000000000              -0.383522833               0.140971207               0.000000000              -0.406818266               0.150276966               0.000000000              -0.430113700               0.159582724               0.000000000              -0.453409133               0.168888483               0.000000000              -0.476704567               0.178194241               0.000000000              -0.500000000               0.187500000               0.000000000              -0.122875978               0.050896897               0.000000000              -0.146446229               0.063340840               0.000000000              -0.170016481               0.075784784               0.000000000              -0.193586732               0.088228728               0.000000000              -0.217156983               0.100672672               0.000000000              -0.240727235               0.113116616               0.000000000              -0.264297486               0.125560560               0.000000000              -0.287867738               0.138004504               0.000000000              -0.311437989               0.150448448               0.000000000              -0.335008240               0.162892392               0.000000000              -0.358578492               0.175336336               0.000000000              -0.382148743               0.187780280               0.000000000              -0.405718994               0.200224224               0.000000000              -0.429289246               0.212668168               0.000000000              -0.452859497               0.225112112               0.000000000              -0.476429749               0.237556056               0.000000000              -0.500000000               0.250000000               0.000000000              -0.117295528               0.062695766               0.000000000              -0.141214558               0.078308531               0.000000000              -0.165133587               0.093921295               0.000000000              -0.189052617               0.109534060               0.000000000              -0.212971646               0.125146824               0.000000000              -0.236890676               0.140759589               0.000000000              -0.260809705               0.156372354               0.000000000              -0.284728735               0.171985118               0.000000000              -0.308647764               0.187597883               0.000000000              -0.332566794               0.203210648               0.000000000              -0.356485823               0.218823412               0.000000000              -0.380404853               0.234436177               0.000000000              -0.404323882               0.250048941               0.000000000              -0.428242912               0.265661706               0.000000000              -0.452161941               0.281274471               0.000000000              -0.476080971               0.296887235               0.000000000              -0.500000000               0.312500000               0.000000000              -0.110585458               0.073890841               0.000000000              -0.134923867               0.092710163               0.000000000              -0.159262276               0.111529486               0.000000000              -0.183600685               0.130348808               0.000000000              -0.207939094               0.149168131               0.000000000              -0.232277503               0.167987453               0.000000000              -0.256615912               0.186806776               0.000000000              -0.280954320               0.205626098               0.000000000              -0.305292729               0.224445420               0.000000000              -0.329631138               0.243264743               0.000000000              -0.353969547               0.262084065               0.000000000              -0.378307956               0.280903388               0.000000000              -0.402646365               0.299722710               0.000000000              -0.426984773               0.318542033               0.000000000              -0.451323182               0.337361355               0.000000000              -0.475661591               0.356180678               0.000000000              -0.500000000               0.375000000               0.000000000              -0.102810390               0.084374307               0.000000000              -0.127634741               0.106444663               0.000000000              -0.152459092               0.128515018               0.000000000              -0.177283442               0.150585374               0.000000000              -0.202107793               0.172655730               0.000000000              -0.226932143               0.194726086               0.000000000              -0.251756494               0.216796442               0.000000000              -0.276580845               0.238866798               0.000000000              -0.301405195               0.260937153               0.000000000              -0.326229546               0.283007509               0.000000000              -0.351053896               0.305077865               0.000000000              -0.375878247               0.327148221               0.000000000              -0.400702598               0.349218577               0.000000000              -0.425526948               0.371288933               0.000000000              -0.450351299               0.393359288               0.000000000              -0.475175649               0.415429644               0.000000000              -0.500000000               0.437500000               0.000000000              -0.094045202               0.094045202               0.000000000              -0.119417377               0.119417377               0.000000000              -0.144789552               0.144789552               0.000000000              -0.170161727               0.170161727               0.000000000              -0.195533901               0.195533901               0.000000000              -0.220906076               0.220906076               0.000000000              -0.246278251               0.246278251               0.000000000              -0.271650426               0.271650426               0.000000000              -0.297022601               0.297022601               0.000000000              -0.322394776               0.322394776               0.000000000              -0.347766951               0.347766951               0.000000000              -0.373139126               0.373139126               0.000000000              -0.398511300               0.398511300               0.000000000              -0.423883475               0.423883475               0.000000000              -0.449255650               0.449255650               0.000000000              -0.474627825               0.474627825               0.000000000              -0.500000000               0.500000000               0.000000000              -0.084374307               0.102810390               0.000000000              -0.106444663               0.127634741               0.000000000              -0.128515018               0.152459092               0.000000000              -0.150585374               0.177283442               0.000000000              -0.172655730               0.202107793               0.000000000              -0.194726086               0.226932143               0.000000000              -0.216796442               0.251756494               0.000000000              -0.238866798               0.276580845               0.000000000              -0.260937153               0.301405195               0.000000000              -0.283007509               0.326229546               0.000000000              -0.305077865               0.351053896               0.000000000              -0.327148221               0.375878247               0.000000000              -0.349218577               0.400702598               0.000000000              -0.371288933               0.425526948               0.000000000              -0.393359288               0.450351299               0.000000000              -0.415429644               0.475175649               0.000000000              -0.437500000               0.500000000               0.000000000              -0.073890841               0.110585458               0.000000000              -0.092710163               0.134923867               0.000000000              -0.111529486               0.159262276               0.000000000              -0.130348808               0.183600685               0.000000000              -0.149168131               0.207939094               0.000000000              -0.167987453               0.232277503               0.000000000              -0.186806776               0.256615912               0.000000000              -0.205626098               0.280954320               0.000000000              -0.224445420               0.305292729               0.000000000              -0.243264743               0.329631138               0.000000000              -0.262084065               0.353969547               0.000000000              -0.280903388               0.378307956               0.000000000              -0.299722710               0.402646365               0.000000000              -0.318542033               0.426984773               0.000000000              -0.337361355               0.451323182               0.000000000              -0.356180678               0.475661591               0.000000000              -0.375000000               0.500000000               0.000000000              -0.062695766               0.117295528               0.000000000              -0.078308531               0.141214558               0.000000000              -0.093921295               0.165133587               0.000000000              -0.109534060               0.189052617               0.000000000              -0.125146824               0.212971646               0.000000000              -0.140759589               0.236890676               0.000000000              -0.156372354               0.260809705               0.000000000              -0.171985118               0.284728735               0.000000000              -0.187597883               0.308647764               0.000000000              -0.203210648               0.332566794               0.000000000              -0.218823412               0.356485823               0.000000000              -0.234436177               0.380404853               0.000000000              -0.250048941               0.404323882               0.000000000              -0.265661706               0.428242912               0.000000000              -0.281274471               0.452161941               0.000000000              -0.296887235               0.476080971               0.000000000              -0.312500000               0.500000000               0.000000000              -0.050896897               0.122875978               0.000000000              -0.063340840               0.146446229               0.000000000              -0.075784784               0.170016481               0.000000000              -0.088228728               0.193586732               0.000000000              -0.100672672               0.217156983               0.000000000              -0.113116616               0.240727235               0.000000000              -0.125560560               0.264297486               0.000000000              -0.138004504               0.287867738               0.000000000              -0.150448448               0.311437989               0.000000000              -0.162892392               0.335008240               0.000000000              -0.175336336               0.358578492               0.000000000              -0.187780280               0.382148743               0.000000000              -0.200224224               0.405718994               0.000000000              -0.212668168               0.429289246               0.000000000              -0.225112112               0.452859497               0.000000000              -0.237556056               0.476429749               0.000000000              -0.250000000               0.500000000               0.000000000              -0.038607862               0.127273065               0.000000000              -0.047913621               0.150568498               0.000000000              -0.057219379               0.173863932               0.000000000              -0.066525138               0.197159365               0.000000000              -0.075830897               0.220454798               0.000000000              -0.085136655               0.243750232               0.000000000              -0.094442414               0.267045665               0.000000000              -0.103748172               0.290341099               0.000000000              -0.113053931               0.313636532               0.000000000              -0.122359690               0.336931966               0.000000000              -0.131665448               0.360227399               0.000000000              -0.140971207               0.383522833               0.000000000              -0.150276966               0.406818266               0.000000000              -0.159582724               0.430113700               0.000000000              -0.168888483               0.453409133               0.000000000              -0.178194241               0.476704567               0.000000000              -0.187500000               0.500000000               0.000000000              -0.025947013               0.130444442               0.000000000              -0.032137825               0.153541665               0.000000000              -0.038328636               0.176638887               0.000000000              -0.044519448               0.199736109               0.000000000              -0.050710260               0.222833332               0.000000000              -0.056901071               0.245930554               0.000000000              -0.063091883               0.269027776               0.000000000              -0.069282695               0.292124999               0.000000000              -0.075473506               0.315222221               0.000000000              -0.081664318               0.338319444               0.000000000              -0.087855130               0.361416666               0.000000000              -0.094045942               0.384513888               0.000000000              -0.100236753               0.407611111               0.000000000              -0.106427565               0.430708333               0.000000000              -0.112618377               0.453805555               0.000000000              -0.118809188               0.476902778               0.000000000              -0.125000000               0.500000000               0.000000000              -0.013036280               0.132359569               0.000000000              -0.016127762               0.155337096               0.000000000              -0.019219245               0.178314623               0.000000000              -0.022310727               0.201292150               0.000000000              -0.025402210               0.224269676               0.000000000              -0.028493692               0.247247203               0.000000000              -0.031585175               0.270224730               0.000000000              -0.034676657               0.293202257               0.000000000              -0.037768140               0.316179784               0.000000000              -0.040859622               0.339157311               0.000000000              -0.043951105               0.362134838               0.000000000              -0.047042587               0.385112365               0.000000000              -0.050134070               0.408089892               0.000000000              -0.053225552               0.431067419               0.000000000              -0.056317035               0.454044946               0.000000000              -0.059408517               0.477022473               0.000000000              -0.062500000               0.500000000               0.000000000               0.000000000               0.133000000               0.000000000               0.000000000               0.155937500               0.000000000               0.000000000               0.178875000               0.000000000               0.000000000               0.201812500               0.000000000               0.000000000               0.224750000               0.000000000               0.000000000               0.247687500               0.000000000               0.000000000               0.270625000               0.000000000               0.000000000               0.293562500               0.000000000               0.000000000               0.316500000               0.000000000               0.000000000               0.339437500               0.000000000               0.000000000               0.362375000               0.000000000               0.000000000               0.385312500               0.000000000               0.000000000               0.408250000               0.000000000               0.000000000               0.431187500               0.000000000               0.000000000               0.454125000               0.000000000               0.000000000               0.477062500               0.000000000               0.000000000               0.500000000               0.000000000 </DataArray>
</Points>
<Cells>
<DataArray type="Int32"                                    Name="connectivity"                                                      NumberOfComponents=" 1" format="ascii">
         0          1         18         17          1          2         19         18          2          3         20         19          3          4         21         20          4          5         22         21          5          6         23         22          6          7         24         23          7          8         25         24          8          9         26         25          9         10         27         26         10         11         28         27         11         12         29         28         12         13         30         29         13         14         31         30         14         15         32         31         15         16         33         32         17         18         35         34         18         19         36         35         19         20         37         36         20         21         38         37         21         22         39         38         22         23         40         39         23         24         41         40         24         25         42         41         25         26         43         42         26         27         44         43         27         28         45         44         28         29         46         45         29         30         47         46         30         31         48         47         31         32         49         48         32         33         50         49         34         35         52         51         35         36         53         52         36         37         54         53         37         38         55         54         38         39         56         55         39         40         57         56         40         41         58         57         41         42         59         58         42         43         60         59         43         44         61         60         44         45         62         61         45         46         63         62         46         47         64         63         47         48         65         64         48         49         66         65         49         50         67         66         51         52         69         68         52         53         70         69         53         54         71         70         54         55         72         71         55         56         73         72         56         57         74         73         57         58         75         74         58         59         76         75         59         60         77         76         60         61         78         77         61         62         79         78         62         63         80         79         63         64         81         80         64         65         82         81         65         66         83         82         66         67         84         83         68         69         86         85         69         70         87         86         70         71         88         87         71         72         89         88         72         73         90         89         73         74         91         90         74         75         92         91         75         76         93         92         76         77         94         93         77         78         95         94         78         79         96         95         79         80         97         96         80         81         98         97         81         82         99         98         82         83        100         99         83         84        101        100         85         86        103        102         86         87        104        103         87         88        105        104         88         89        106        105         89         90        107        106         90         91        108        107         91         92        109        108         92         93        110        109         93         94        111        110         94         95        112        111         95         96        113        112         96         97        114        113         97         98        115        114         98         99        116        115         99        100        117        116        100        101        118        117        102        103        120        119        103        104        121        120        104        105        122        121        105        106        123        122        106        107        124        123        107        108        125        124        108        109        126        125        109        110        127        126        110        111        128        127        111        112        129        128        112        113        130        129        113        114        131        130        114        115        132        131        115        116        133        132        116        117        134        133        117        118        135        134        119        120        137        136        120        121        138        137        121        122        139        138        122        123        140        139        123        124        141        140        124        125        142        141        125        126        143        142        126        127        144        143        127        128        145        144        128        129        146        145        129        130        147        146        130        131        148        147        131        132        149        148        132        133        150        149        133        134        151        150        134        135        152        151        136        137        154        153        137        138        155        154        138        139        156        155        139        140        157        156        140        141        158        157        141        142        159        158        142        143        160        159        143        144        161        160        144        145        162        161        145        146        163        162        146        147        164        163        147        148        165        164        148        149        166        165        149        150        167        166        150        151        168        167        151        152        169        168        153        154        171        170        154        155        172        171        155        156        173        172        156        157        174        173        157        158        175        174        158        159        176        175        159        160        177        176        160        161        178        177        161        162        179        178        162        163        180        179        163        164        181        180        164        165        182        181        165        166        183        182        166        167        184        183        167        168        185        184        168        169        186        185        170        171        188        187        171        172        189        188        172        173        190        189        173        174        191        190        174        175        192        191        175        176        193        192        176        177        194        193        177        178        195        194        178        179        196        195        179        180        197        196        180        181        198        197        181        182        199        198        182        183        200        199        183        184        201        200        184        185        202        201        185        186        203        202        187        188        205        204        188        189        206        205        189        190        207        206        190        191        208        207        191        192        209        208        192        193        210        209        193        194        211        210        194        195        212        211        195        196        213        212        196        197        214        213        197        198        215        214        198        199        216        215        199        200        217        216        200        201        218        217        201        202        219        218        202        203        220        219        204        205        222        221        205        206        223        222        206        207        224        223        207        208        225        224        208        209        226        225        209        210        227        226        210        211        228        227        211        212        229        228        212        213        230        229        213        214        231        230        214        215        232        231        215        216        233        232        216        217        234        233        217        218        235        234        218        219        236        235        219        220        237        236        221        222        239        238        222        223        240        239        223        224        241        240        224        225        242        241        225        226        243        242        226        227        244        243        227        228        245        244        228        229        246        245        229        230        247        246        230        231        248        247        231        232        249        248        232        233        250        249        233        234        251        250        234        235        252        251        235        236        253        252        236        237        254        253        238        239        256        255        239        240        257        256        240        241        258        257        241        242        259        258        242        243        260        259        243        244        261        260        244        245        262        261        245        246        263        262        246        247        264        263        247        248        265        264        248        249        266        265        249        250        267        266        250        251        268        267        251        252        269        268        252        253        270        269        253        254        271        270        255        256        273        272        256        257        274        273        257        258        275        274        258        259        276        275        259        260        277        276        260        261        278        277        261        262        279        278        262        263        280        279        263        264        281        280        264        265        282        281        265        266        283        282        266        267        284        283        267        268        285        284        268        269        286        285        269        270        287        286        270        271        288        287        306        307          1          0        307        308          2          1        308        309          3          2        309        310          4          3        310        311          5          4        311        312          6          5        312        313          7          6        313        314          8          7        314        315          9          8        315        316         10          9        316        317         11         10        317        318         12         11        318        319         13         12        319        320         14         13        320        321         15         14        321        322         16         15        323        324        307        306        324        325        308        307        325        326        309        308        326        327        310        309        327        328        311        310        328        329        312        311        329        330        313        312        330        331        314        313        331        332        315        314        332        333        316        315        333        334        317        316        334        335        318        317        335        336        319        318        336        337        320        319        337        338        321        320        338        339        322        321        340        341        324        323        341        342        325        324        342        343        326        325        343        344        327        326        344        345        328        327        345        346        329        328        346        347        330        329        347        348        331        330        348        349        332        331        349        350        333        332        350        351        334        333        351        352        335        334        352        353        336        335        353        354        337        336        354        355        338        337        355        356        339        338        357        358        341        340        358        359        342        341        359        360        343        342        360        361        344        343        361        362        345        344        362        363        346        345        363        364        347        346        364        365        348        347        365        366        349        348        366        367        350        349        367        368        351        350        368        369        352        351        369        370        353        352        370        371        354        353        371        372        355        354        372        373        356        355        374        375        358        357        375        376        359        358        376        377        360        359        377        378        361        360        378        379        362        361        379        380        363        362        380        381        364        363        381        382        365        364        382        383        366        365        383        384        367        366        384        385        368        367        385        386        369        368        386        387        370        369        387        388        371        370        388        389        372        371        389        390        373        372        391        392        375        374        392        393        376        375        393        394        377        376        394        395        378        377        395        396        379        378        396        397        380        379        397        398        381        380        398        399        382        381        399        400        383        382        400        401        384        383        401        402        385        384        402        403        386        385        403        404        387        386        404        405        388        387        405        406        389        388        406        407        390        389        408        409        392        391        409        410        393        392        410        411        394        393        411        412        395        394        412        413        396        395        413        414        397        396        414        415        398        397        415        416        399        398        416        417        400        399        417        418        401        400        418        419        402        401        419        420        403        402        420        421        404        403        421        422        405        404        422        423        406        405        423        424        407        406        425        426        409        408        426        427        410        409        427        428        411        410        428        429        412        411        429        430        413        412        430        431        414        413        431        432        415        414        432        433        416        415        433        434        417        416        434        435        418        417        435        436        419        418        436        437        420        419        437        438        421        420        438        439        422        421        439        440        423        422        440        441        424        423        442        443        426        425        443        444        427        426        444        445        428        427        445        446        429        428        446        447        430        429        447        448        431        430        448        449        432        431        449        450        433        432        450        451        434        433        451        452        435        434        452        453        436        435        453        454        437        436        454        455        438        437        455        456        439        438        456        457        440        439        457        458        441        440        459        460        443        442        460        461        444        443        461        462        445        444        462        463        446        445        463        464        447        446        464        465        448        447        465        466        449        448        466        467        450        449        467        468        451        450        468        469        452        451        469        470        453        452        470        471        454        453        471        472        455        454        472        473        456        455        473        474        457        456        474        475        458        457        476        477        460        459        477        478        461        460        478        479        462        461        479        480        463        462        480        481        464        463        481        482        465        464        482        483        466        465        483        484        467        466        484        485        468        467        485        486        469        468        486        487        470        469        487        488        471        470        488        489        472        471        489        490        473        472        490        491        474        473        491        492        475        474        493        494        477        476        494        495        478        477        495        496        479        478        496        497        480        479        497        498        481        480        498        499        482        481        499        500        483        482        500        501        484        483        501        502        485        484        502        503        486        485        503        504        487        486        504        505        488        487        505        506        489        488        506        507        490        489        507        508        491        490        508        509        492        491        510        511        494        493        511        512        495        494        512        513        496        495        513        514        497        496        514        515        498        497        515        516        499        498        516        517        500        499        517        518        501        500        518        519        502        501        519        520        503        502        520        521        504        503        521        522        505        504        522        523        506        505        523        524        507        506        524        525        508        507        525        526        509        508        527        528        511        510        528        529        512        511        529        530        513        512        530        531        514        513        531        532        515        514        532        533        516        515        533        534        517        516        534        535        518        517        535        536        519        518        536        537        520        519        537        538        521        520        538        539        522        521        539        540        523        522        540        541        524        523        541        542        525        524        542        543        526        525        544        545        528        527        545        546        529        528        546        547        530        529        547        548        531        530        548        549        532        531        549        550        533        532        550        551        534        533        551        552        535        534        552        553        536        535        553        554        537        536        554        555        538        537        555        556        539        538        556        557        540        539        557        558        541        540        558        559        542        541        559        560        543        542        561        562        545        544        562        563        546        545        563        564        547        546        564        565        548        547        565        566        549        548        566        567        550        549        567        568        551        550        568        569        552        551        569        570        553        552        570        571        554        553        571        572        555        554        572        573        556        555        573        574        557        556        574        575        558        557        575        576        559        558        576        577        560        559        578        579        596        595        579        580        597        596        580        581        598        597        581        582        599        598        582        583        600        599        583        584        601        600        584        585        602        601        585        586        603        602        586        587        604        603        587        588        605        604        588        589        606        605        589        590        607        606        590        591        608        607        591        592        609        608        592        593        610        609        593        594        611        610        595        596        613        612        596        597        614        613        597        598        615        614        598        599        616        615        599        600        617        616        600        601        618        617        601        602        619        618        602        603        620        619        603        604        621        620        604        605        622        621        605        606        623        622        606        607        624        623        607        608        625        624        608        609        626        625        609        610        627        626        610        611        628        627        612        613        630        629        613        614        631        630        614        615        632        631        615        616        633        632        616        617        634        633        617        618        635        634        618        619        636        635        619        620        637        636        620        621        638        637        621        622        639        638        622        623        640        639        623        624        641        640        624        625        642        641        625        626        643        642        626        627        644        643        627        628        645        644        629        630        647        646        630        631        648        647        631        632        649        648        632        633        650        649        633        634        651        650        634        635        652        651        635        636        653        652        636        637        654        653        637        638        655        654        638        639        656        655        639        640        657        656        640        641        658        657        641        642        659        658        642        643        660        659        643        644        661        660        644        645        662        661        646        647        664        663        647        648        665        664        648        649        666        665        649        650        667        666        650        651        668        667        651        652        669        668        652        653        670        669        653        654        671        670        654        655        672        671        655        656        673        672        656        657        674        673        657        658        675        674        658        659        676        675        659        660        677        676        660        661        678        677        661        662        679        678        663        664        681        680        664        665        682        681        665        666        683        682        666        667        684        683        667        668        685        684        668        669        686        685        669        670        687        686        670        671        688        687        671        672        689        688        672        673        690        689        673        674        691        690        674        675        692        691        675        676        693        692        676        677        694        693        677        678        695        694        678        679        696        695        680        681        698        697        681        682        699        698        682        683        700        699        683        684        701        700        684        685        702        701        685        686        703        702        686        687        704        703        687        688        705        704        688        689        706        705        689        690        707        706        690        691        708        707        691        692        709        708        692        693        710        709        693        694        711        710        694        695        712        711        695        696        713        712        697        698        715        714        698        699        716        715        699        700        717        716        700        701        718        717        701        702        719        718        702        703        720        719        703        704        721        720        704        705        722        721        705        706        723        722        706        707        724        723        707        708        725        724        708        709        726        725        709        710        727        726        710        711        728        727        711        712        729        728        712        713        730        729        714        715        732        731        715        716        733        732        716        717        734        733        717        718        735        734        718        719        736        735        719        720        737        736        720        721        738        737        721        722        739        738        722        723        740        739        723        724        741        740        724        725        742        741        725        726        743        742        726        727        744        743        727        728        745        744        728        729        746        745        729        730        747        746        731        732        749        748        732        733        750        749        733        734        751        750        734        735        752        751        735        736        753        752        736        737        754        753        737        738        755        754        738        739        756        755        739        740        757        756        740        741        758        757        741        742        759        758        742        743        760        759        743        744        761        760        744        745        762        761        745        746        763        762        746        747        764        763        748        749        766        765        749        750        767        766        750        751        768        767        751        752        769        768        752        753        770        769        753        754        771        770        754        755        772        771        755        756        773        772        756        757        774        773        757        758        775        774        758        759        776        775        759        760        777        776        760        761        778        777        761        762        779        778        762        763        780        779        763        764        781        780        765        766        783        782        766        767        784        783        767        768        785        784        768        769        786        785        769        770        787        786        770        771        788        787        771        772        789        788        772        773        790        789        773        774        791        790        774        775        792        791        775        776        793        792        776        777        794        793        777        778        795        794        778        779        796        795        779        780        797        796        780        781        798        797        782        783        800        799        783        784        801        800        784        785        802        801        785        786        803        802        786        787        804        803        787        788        805        804        788        789        806        805        789        790        807        806        790        791        808        807        791        792        809        808        792        793        810        809        793        794        811        810        794        795        812        811        795        796        813        812        796        797        814        813        797        798        815        814        799        800        817        816        800        801        818        817        801        802        819        818        802        803        820        819        803        804        821        820        804        805        822        821        805        806        823        822        806        807        824        823        807        808        825        824        808        809        826        825        809        810        827        826        810        811        828        827        811        812        829        828        812        813        830        829        813        814        831        830        814        815        832        831        816        817        834        833        817        818        835        834        818        819        836        835        819        820        837        836        820        821        838        837        821        822        839        838        822        823        840        839        823        824        841        840        824        825        842        841        825        826        843        842        826        827        844        843        827        828        845        844        828        829        846        845        829        830        847        846        830        831        848        847        831        832        849        848        833        834        562        561        834        835        563        562        835        836        564        563        836        837        565        564        837        838        566        565        838        839        567        566        839        840        568        567        840        841        569        568        841        842        570        569        842        843        571        570        843        844        572        571        844        845        573        572        845        846        574        573        846        847        575        574        847        848        576        575        848        849        577        576        884        885        579        578        885        886        580        579        886        887        581        580        887        888        582        581        888        889        583        582        889        890        584        583        890        891        585        584        891        892        586        585        892        893        587        586        893        894        588        587        894        895        589        588        895        896        590        589        896        897        591        590        897        898        592        591        898        899        593        592        899        900        594        593        901        902        885        884        902        903        886        885        903        904        887        886        904        905        888        887        905        906        889        888        906        907        890        889        907        908        891        890        908        909        892        891        909        910        893        892        910        911        894        893        911        912        895        894        912        913        896        895        913        914        897        896        914        915        898        897        915        916        899        898        916        917        900        899        918        919        902        901        919        920        903        902        920        921        904        903        921        922        905        904        922        923        906        905        923        924        907        906        924        925        908        907        925        926        909        908        926        927        910        909        927        928        911        910        928        929        912        911        929        930        913        912        930        931        914        913        931        932        915        914        932        933        916        915        933        934        917        916        935        936        919        918        936        937        920        919        937        938        921        920        938        939        922        921        939        940        923        922        940        941        924        923        941        942        925        924        942        943        926        925        943        944        927        926        944        945        928        927        945        946        929        928        946        947        930        929        947        948        931        930        948        949        932        931        949        950        933        932        950        951        934        933        952        953        936        935        953        954        937        936        954        955        938        937        955        956        939        938        956        957        940        939        957        958        941        940        958        959        942        941        959        960        943        942        960        961        944        943        961        962        945        944        962        963        946        945        963        964        947        946        964        965        948        947        965        966        949        948        966        967        950        949        967        968        951        950        969        970        953        952        970        971        954        953        971        972        955        954        972        973        956        955        973        974        957        956        974        975        958        957        975        976        959        958        976        977        960        959        977        978        961        960        978        979        962        961        979        980        963        962        980        981        964        963        981        982        965        964        982        983        966        965        983        984        967        966        984        985        968        967        986        987        970        969        987        988        971        970        988        989        972        971        989        990        973        972        990        991        974        973        991        992        975        974        992        993        976        975        993        994        977        976        994        995        978        977        995        996        979        978        996        997        980        979        997        998        981        980        998        999        982        981        999       1000        983        982       1000       1001        984        983       1001       1002        985        984       1003       1004        987        986       1004       1005        988        987       1005       1006        989        988       1006       1007        990        989       1007       1008        991        990       1008       1009        992        991       1009       1010        993        992       1010       1011        994        993       1011       1012        995        994       1012       1013        996        995       1013       1014        997        996       1014       1015        998        997       1015       1016        999        998       1016       1017       1000        999       1017       1018       1001       1000       1018       1019       1002       1001       1020       1021       1004       1003       1021       1022       1005       1004       1022       1023       1006       1005       1023       1024       1007       1006       1024       1025       1008       1007       1025       1026       1009       1008       1026       1027       1010       1009       1027       1028       1011       1010       1028       1029       1012       1011       1029       1030       1013       1012       1030       1031       1014       1013       1031       1032       1015       1014       1032       1033       1016       1015       1033       1034       1017       1016       1034       1035       1018       1017       1035       1036       1019       1018       1037       1038       1021       1020       1038       1039       1022       1021       1039       1040       1023       1022       1040       1041       1024       1023       1041       1042       1025       1024       1042       1043       1026       1025       1043       1044       1027       1026       1044       1045       1028       1027       1045       1046       1029       1028       1046       1047       1030       1029       1047       1048       1031       1030       1048       1049       1032       1031       1049       1050       1033       1032       1050       1051       1034       1033       1051       1052       1035       1034       1052       1053       1036       1035       1054       1055       1038       1037       1055       1056       1039       1038       1056       1057       1040       1039       1057       1058       1041       1040       1058       1059       1042       1041       1059       1060       1043       1042       1060       1061       1044       1043       1061       1062       1045       1044       1062       1063       1046       1045       1063       1064       1047       1046       1064       1065       1048       1047       1065       1066       1049       1048       1066       1067       1050       1049       1067       1068       1051       1050       1068       1069       1052       1051       1069       1070       1053       1052       1071       1072       1055       1054       1072       1073       1056       1055       1073       1074       1057       1056       1074       1075       1058       1057       1075       1076       1059       1058       1076       1077       1060       1059       1077       1078       1061       1060       1078       1079       1062       1061       1079       1080       1063       1062       1080       1081       1064       1063       1081       1082       1065       1064       1082       1083       1066       1065       1083       1084       1067       1066       1084       1085       1068       1067       1085       1086       1069       1068       1086       1087       1070       1069       1088       1089       1072       1071       1089       1090       1073       1072       1090       1091       1074       1073       1091       1092       1075       1074       1092       1093       1076       1075       1093       1094       1077       1076       1094       1095       1078       1077       1095       1096       1079       1078       1096       1097       1080       1079       1097       1098       1081       1080       1098       1099       1082       1081       1099       1100       1083       1082       1100       1101       1084       1083       1101       1102       1085       1084       1102       1103       1086       1085       1103       1104       1087       1086       1105       1106       1089       1088       1106       1107       1090       1089       1107       1108       1091       1090       1108       1109       1092       1091       1109       1110       1093       1092       1110       1111       1094       1093       1111       1112       1095       1094       1112       1113       1096       1095       1113       1114       1097       1096       1114       1115       1098       1097       1115       1116       1099       1098       1116       1117       1100       1099       1117       1118       1101       1100       1118       1119       1102       1101       1119       1120       1103       1102       1120       1121       1104       1103       1122       1123       1106       1105       1123       1124       1107       1106       1124       1125       1108       1107       1125       1126       1109       1108       1126       1127       1110       1109       1127       1128       1111       1110       1128       1129       1112       1111       1129       1130       1113       1112       1130       1131       1114       1113       1131       1132       1115       1114       1132       1133       1116       1115       1133       1134       1117       1116       1134       1135       1118       1117       1135       1136       1119       1118       1136       1137       1120       1119       1137       1138       1121       1120        272        273       1123       1122        273        274       1124       1123        274        275       1125       1124        275        276       1126       1125        276        277       1127       1126        277        278       1128       1127        278        279       1129       1128        279        280       1130       1129        280        281       1131       1130        281        282       1132       1131        282        283       1133       1132        283        284       1134       1133        284        285       1135       1134        285        286       1136       1135        286        287       1137       1136        287        288       1138       1137 </DataArray>
<DataArray type="Int32"                                    Name="offsets"                                                      NumberOfComponents=" 1" format="ascii">
         4          8         12         16         20         24         28         32         36         40         44         48         52         56         60         64         68         72         76         80         84         88         92         96        100        104        108        112        116        120        124        128        132        136        140        144        148        152        156        160        164        168        172        176        180        184        188        192        196        200        204        208        212        216        220        224        228        232        236        240        244        248        252        256        260        264        268        272        276        280        284        288        292        296        300        304        308        312        316        320        324        328        332        336        340        344        348        352        356        360        364        368        372        376        380        384        388        392        396        400        404        408        412        416        420        424        428        432        436        440        444        448        452        456        460        464        468        472        476        480        484        488        492        496        500        504        508        512        516        520        524        528        532        536        540        544        548        552        556        560        564        568        572        576        580        584        588        592        596        600        604        608        612        616        620        624        628        632        636        640        644        648        652        656        660        664        668        672        676        680        684        688        692        696        700        704        708        712        716        720        724        728        732        736        740        744        748        752        756        760        764        768        772        776        780        784        788        792        796        800        804        808        812        816        820        824        828        832        836        840        844        848        852        856        860        864        868        872        876        880        884        888        892        896        900        904        908        912        916        920        924        928        932        936        940        944        948        952        956        960        964        968        972        976        980        984        988        992        996       1000       1004       1008       1012       1016       1020       1024       1028       1032       1036       1040       1044       1048       1052       1056       1060       1064       1068       1072       1076       1080       1084       1088       1092       1096       1100       1104       1108       1112       1116       1120       1124       1128       1132       1136       1140       1144       1148       1152       1156       1160       1164       1168       1172       1176       1180       1184       1188       1192       1196       1200       1204       1208       1212       1216       1220       1224       1228       1232       1236       1240       1244       1248       1252       1256       1260       1264       1268       1272       1276       1280       1284       1288       1292       1296       1300       1304       1308       1312       1316       1320       1324       1328       1332       1336       1340       1344       1348       1352       1356       1360       1364       1368       1372       1376       1380       1384       1388       1392       1396       1400       1404       1408       1412       1416       1420       1424       1428       1432       1436       1440       1444       1448       1452       1456       1460       1464       1468       1472       1476       1480       1484       1488       1492       1496       1500       1504       1508       1512       1516       1520       1524       1528       1532       1536       1540       1544       1548       1552       1556       1560       1564       1568       1572       1576       1580       1584       1588       1592       1596       1600       1604       1608       1612       1616       1620       1624       1628       1632       1636       1640       1644       1648       1652       1656       1660       1664       1668       1672       1676       1680       1684       1688       1692       1696       1700       1704       1708       1712       1716       1720       1724       1728       1732       1736       1740       1744       1748       1752       1756       1760       1764       1768       1772       1776       1780       1784       1788       1792       1796       1800       1804       1808       1812       1816       1820       1824       1828       1832       1836       1840       1844       1848       1852       1856       1860       1864       1868       1872       1876       1880       1884       1888       1892       1896       1900       1904       1908       1912       1916       1920       1924       1928       1932       1936       1940       1944       1948       1952       1956       1960       1964       1968       1972       1976       1980       1984       1988       1992       1996       2000       2004       2008       2012       2016       2020       2024       2028       2032       2036       2040       2044       2048       2052       2056       2060       2064       2068       2072       2076       2080       2084       2088       2092       2096       2100       2104       2108       2112       2116       2120       2124       2128       2132       2136       2140       2144       2148       2152       2156       2160       2164       2168       2172       2176       2180       2184       2188       2192       2196       2200       2204       2208       2212       2216       2220       2224       2228       2232       2236       2240       2244       2248       2252       2256       2260       2264       2268       2272       2276       2280       2284       2288       2292       2296       2300       2304       2308       2312       2316       2320       2324       2328       2332       2336       2340       2344       2348       2352       2356       2360       2364       2368       2372       2376       2380       2384       2388       2392       2396       2400       2404       2408       2412       2416       2420       2424       2428       2432       2436       2440       2444       2448       2452       2456       2460       2464       2468       2472       2476       2480       2484       2488       2492       2496       2500       2504       2508       2512       2516       2520       2524       2528       2532       2536       2540       2544       2548       2552       2556       2560       2564       2568       2572       2576       2580       2584       2588       2592       2596       2600       2604       2608       2612       2616       2620       2624       2628       2632       2636       2640       2644       2648       2652       2656       2660       2664       2668       2672       2676       2680       2684       2688       2692       2696       2700       2704       2708       2712       2716       2720       2724       2728       2732       2736       2740       2744       2748       2752       2756       2760       2764       2768       2772       2776       2780       2784       2788       2792       2796       2800       2804       2808       2812       2816       2820       2824       2828       2832       2836       2840       2844       2848       2852       2856       2860       2864       2868       2872       2876       2880       2884       2888       2892       2896       2900       2904       2908       2912       2916       2920       2924       2928       2932       2936       2940       2944       2948       2952       2956       2960       2964       2968       2972       2976       2980       2984       2988       2992       2996       3000       3004       3008       3012       3016       3020       3024       3028       3032       3036       3040       3044       3048       3052       3056       3060       3064       3068       3072       3076       3080       3084       3088       3092       3096       3100       3104       3108       3112       3116       3120       3124       3128       3132       3136       3140       3144       3148       3152       3156       3160       3164       3168       3172       3176       3180       3184       3188       3192       3196       3200       3204       3208       3212       3216       3220       3224       3228       3232       3236       3240       3244       3248       3252       3256       3260       3264       3268       3272       3276       3280       3284       3288       3292       3296       3300       3304       3308       3312       3316       3320       3324       3328       3332       3336       3340       3344       3348       3352       3356       3360       3364       3368       3372       3376       3380       3384       3388       3392       3396       3400       3404       3408       3412       3416       3420       3424       3428       3432       3436       3440       3444       3448       3452       3456       3460       3464       3468       3472       3476       3480       3484       3488       3492       3496       3500       3504       3508       3512       3516       3520       3524       3528       3532       3536       3540       3544       3548       3552       3556       3560       3564       3568       3572       3576       3580       3584       3588       3592       3596       3600       3604       3608       3612       3616       3620       3624       3628       3632       3636       3640       3644       3648       3652       3656       3660       3664       3668       3672       3676       3680       3684       3688       3692       3696       3700       3704       3708       3712       3716       3720       3724       3728       3732       3736       3740       3744       3748       3752       3756       3760       3764       3768       3772       3776       3780       3784       3788       3792       3796       3800       3804       3808       3812       3816       3820       3824       3828       3832       3836       3840       3844       3848       3852       3856       3860       3864       3868       3872       3876       3880       3884       3888       3892       3896       3900       3904       3908       3912       3916       3920       3924       3928       3932       3936       3940       3944       3948       3952       3956       3960       3964       3968       3972       3976       3980       3984       3988       3992       3996       4000       4004       4008       4012       4016       4020       4024       4028       4032       4036       4040       4044       4048       4052       4056       4060       4064       4068       4072       4076       4080       4084       4088       4092       4096 </DataArray>
<DataArray type="UInt8"                                    Name="types"                                                      NumberOfComponents=" 1" format="ascii">
         9          9          9          9          9          9          9          9          9          9          9          9          9          9          9          9          9          9          9          9          9          9          9          9          9          9          9          9          9          9          9          9          9          9          9          9          9          9          9          9          9          9          9          9          9          9          9          9          9          9          9          9          9          9          9          9          9          9          9          9          9          9          9          9          9          9          9          9          9          9          9          9          9          9          9          9          9          9          9          9          9          9          9          9          9          9          9          9          9          9          9          9          9          9          9          9          9          9          9          9          9          9          9          9          9          9          9          9          9          9          9          9          9          9          9          9          9          9          9          9          9          9          9          9          9          9          9          9          9          9          9          9          9          9          9          9          9          9          9          9          9          9          9          9          9          9          9          9          9          9          9          9          9          9          9          9          9          9          9          9          9          9          9          9          9          9          9          9          9          9          9          9          9          9          9          9          9          9          9          9          9          9          9          9          9          9          9          9          9          9          9          9          9          9          9          9          9          9          9          9          9          9          9          9          9          9          9          9          9          9          9          9          9          9          9          9          9          9          9          9          9          9          9          9          9          9          9          9          9          9          9          9          9          9          9          9          9          9          9          9          9          9          9          9          9          9          9          9          9          9          9          9          9          9          9          9          9          9          9          9          9          9          9          9          9          9          9          9          9          9          9          9          9          9          9          9          9          9          9          9          9          9          9          9          9          9          9          9          9          9          9          9          9          9          9          9          9          9          9          9          9          9          9          9          9          9          9          9          9          9          9          9          9          9          9          9          9          9          9          9          9          9          9          9          9          9          9          9          9          9          9          9          9          9          9          9          9          9          9          9          9          9          9          9          9          9          9          9          9          9          9          9          9          9          9          9          9          9          9          9          9          9          9          9          9          9          9          9          9          9          9          9          9          9          9          9          9          9          9          9          9          9          9          9          9          9          9          9          9          9          9          9          9          9          9          9          9          9          9          9          9          9          9          9          9          9          9          9          9          9          9          9          9          9          9          9          9          9          9          9          9          9          9          9          9          9          9          9          9          9          9          9          9          9          9          9          9          9          9          9          9          9          9          9          9          9          9          9          9          9          9          9          9          9          9          9          9          9          9          9          9          9          9          9          9          9          9          9          9          9          9          9          9          9          9          9          9          9          9          9          9          9          9          9          9          9          9          9          9          9          9          9          9          9          9          9          9          9          9          9          9          9          9          9          9          9          9          9          9          9          9          9          9          9          9          9          9          9          9          9          9          9          9          9          9          9          9          9          9          9          9          9          9          9          9          9          9          9          9          9          9          9          9          9          9          9          9          9          9          9          9          9          9          9          9          9          9          9          9          9          9          9          9          9          9          9          9          9          9          9          9          9          9          9          9          9          9          9          9          9          9          9          9          9          9          9          9          9          9          9          9          9          9          9          9          9          9          9          9          9          9          9          9          9          9          9          9          9          9          9          9          9          9          9          9          9          9          9          9          9          9          9          9          9          9          9          9          9          9          9          9          9          9          9          9          9          9          9          9          9          9          9          9          9          9          9          9          9          9          9          9          9          9          9          9          9          9          9          9          9          9          9          9          9          9          9          9          9          9          9          9          9          9          9          9          9          9          9          9          9          9          9          9          9          9          9          9          9          9          9          9          9          9          9          9          9          9          9          9          9          9          9          9          9          9          9          9          9          9          9          9          9          9          9          9          9          9          9          9          9          9          9          9          9          9          9          9          9          9          9          9          9          9          9          9          9          9          9          9          9          9          9          9          9          9          9          9          9          9          9          9          9          9          9          9          9          9          9          9          9          9          9          9          9          9          9          9          9          9          9          9          9          9          9          9          9          9          9          9          9          9          9          9          9          9          9          9          9          9          9          9          9          9          9          9          9          9          9          9          9          9          9          9          9          9          9          9          9          9          9          9          9          9          9          9          9          9          9          9          9          9          9          9          9          9          9          9          9          9          9          9          9          9          9          9          9          9          9          9          9          9          9          9          9          9          9          9          9          9          9          9          9          9          9          9          9          9          9          9          9          9          9          9          9          9          9          9          9          9          9          9          9          9          9          9          9          9          9          9          9          9          9          9          9          9          9          9          9          9          9          9          9          9          9          9          9          9          9          9          9          9          9          9          9          9          9          9          9          9          9          9          9          9          9          9          9          9          9          9          9          9          9          9          9          9          9          9          9          9          9          9          9          9          9          9          9          9          9          9          9          9          9          9          9          9          9          9          9          9          9          9          9          9          9          9          9          9          9          9          9          9          9          9          9          9          9          9          9          9          9          9          9          9          9          9          9          9          9          9          9          9          9          9          9          9          9          9          9          9          9          9          9          9          9          9          9          9          9          9          9          9          9          9          9          9          9          9          9          9          9          9          9          9          9          9          9          9          9          9          9          9          9          9          9 </DataArray>
</Cells>
<CellData>
<DataArray type="Int32"                                    Name="material"                                                      NumberOfComponents=" 1" format="ascii">
         1          1          1          1          1          1          1          1          1          1          1          1          1          1          1          1          1          1          1          1          1          1          1          1          1          1          1          1          1          1          1          1          1          1          1          1          1          1          1          1          1          1          1          1          1          1          1          1          1          1          1          1          1          1          1          1          1          1          1          1          1          1          1          1          1          1          1          1          1          1          1          1          1          1          1          1          1          1          1          1          1          1          1          1          1          1          1          1          1          1          1          1          1          1          1          1          1          1          1          1          1          1          1          1          1          1          1          1          1          1          1          1          1          1          1          1          1          1          1          1          1          1          1          1          1          1          1          1          1          1          1          1          1          1          1          1          1          1          1          1          1          1          1          1          1          1          1          1          1          1          1          1          1          1          1          1          1          1          1          1          1          1          1          1          1          1          1          1          1          1          1          1          1          1          1          1          1          1          1          1          1          1          1          1          1          1          1          1          1          1          1          1          1          1          1          1          1          1          1          1          1          1          1          1          1          1          1          1          1          1          1          1          1          1          1          1          1          1          1          1          1          1          1          1          1          1          1          1          1          1          1          1          1          1          1          1          1          1          1          1          1          1          1          1          1          1          1          1          1          1          1          1          1          1          1          1          1          1          1          1          1          1          1          1          1          1          1          1          1          1          1          1          1          1          1          1          1          1          1          1          1          1          1          1          1          1          1          1          1          1          1          1          1          1          1          1          1          1          1          1          1          1          1          1          1          1          1          1          1          1          1          1          1          1          1          1          1          1          1          1          1          1          1          1          1          1          1          1          1          1          1          1          1          1          1          1          1          1          1          1          1          1          1          1          1          1          1          1          1          1          1          1          1          1          1          1          1          1          1          1          1          1          1          1          1          1          1          1          1          1          1          1          1          1          1          1          1          1          1          1          1          1          1          1          1          1          1          1          1          1          1          1          1          1          1          1          1          1          1          1          1          1          1          1          1          1          1          1          1          1          1          1          1          1          1          1          1          1          1          1          1          1          1          1          1          1          1          1          1          1          1          1          1          1          1          1          1          1          1          1          1          1          1          1          1          1          1          1          1          1          1          1          1          1          1          1          1          1          1          1          1          1          1          1          1          1          1          1          1          1          1          1          1          1          1          1          1          1          1          1          1          1          1          1          1          1          1          1          1          1          1          1          1          1          1          1          1          1          1          1          1          1          1          1          1          1          1          1          1          1          1          1          1          1          1          1          1          1          1          1          1          1          1          1          1          1          1          1          1          1          1          1          1          1          1          1          1          1          1          1          1          1          1          1          1          1          1          1          1          1          1          1          1          1          1          1          1          1          1          1          1          1          1          1          1          1          1          1          1          1          1          1          1          1          1          1          1          1          1          1          1          1          1          1          1          1          1          1          1          1          1          1          1          1          1          1          1          1          1          1          1          1          1          1          1          1          1          1          1          1          1          1          1          1          1          1          1          1          1          1          1          1          1          1          1          1          1          1          1          1          1          1          1          1          1          1          1          1          1          1          1          1          1          1          1          1          1          1          1          1          1          1          1          1          1          1          1          1          1          1          1          1          1          1          1          1          1          1          1          1          1          1          1          1          1          1          1          1          1          1          1          1          1          1          1          1          1          1          1          1          1          1          1          1          1          1          1          1          1          1          1          1          1          1          1          1          1          1          1          1          1          1          1          1          1          1          1          1          1          1          1          1          1          1          1          1          1          1          1          1          1          1          1          1          1          1          1          1          1          1          1          1          1          1          1          1          1          1          1          1          1          1          1          1          1          1          1          1          1          1          1          1          1          1          1          1          1          1          1          1          1          1          1          1          1          1          1          1          1          1          1          1          1          1          1          1          1          1          1          1          1          1          1          1          1          1          1          1          1          1          1          1          1          1          1          1          1          1          1          1          1          1          1          1          1          1          1          1          1          1          1          1          1          1          1          1          1          1          1          1          1          1          1          1          1          1          1          1          1          1          1          1          1          1          1          1          1          1          1          1          1          1          1          1          1          1          1          1          1          1          1          1          1          1          1          1          1          1          1          1          1          1          1          1          1          1          1          1          1          1          1          1          1          1          1          1          1          1          1          1          1          1          1          1          1          1          1          1          1          1          1          1          1          1          1          1          1          1          1          1          1          1          1          1          1          1          1          1          1          1          1          1          1          1          1          1          1          1          1          1          1          1          1          1          1          1          1          1          1          1          1          1          1          1          1          1          1          1          1          1          1          1          1          1          1          1          1          1          1          1          1          1          1          1          1          1          1          1          1          1          1          1          1          1          1          1          1          1          1          1          1          1          1          1          1          1          1          1          1          1          1          1          1          1          1          1          1          1          1          1          1          1          1          1          1          1          1          1          1          1          1          1          1          1          1          1          1          1          1          1          1          1          1          1 </DataArray>
</CellData>
<PointData>
<DataArray type="Float64"                                    Name="u"                                                      NumberOfComponents=" 3" format="ascii">
              0.000008156               0.000000000               0.999999999               0.000003238               0.000000000               0.999999999               0.000000921              -0.000000000               0.999999999              -0.000000243               0.000000000               0.999999999              -0.000000826              -0.000000000               0.999999999              -0.000001147              -0.000000000               0.999999999              -0.000001349              -0.000000000               0.999999999              -0.000001584               0.000000000               0.999999999              -0.000002016              -0.000000000               0.999999999              -0.000002744              -0.000000000               0.999999999              -0.000003853               0.000000000               0.999999999              -0.000005363              -0.000000000               0.999999999              -0.000007279              -0.000000000               0.999999999              -0.000009589              -0.000000000               0.999999999              -0.000012314              -0.000000000               0.999999999              -0.000015619              -0.000000000               0.999999999              -0.000019541              -0.000000000               0.999999999               0.000008118               0.000012242               0.999999999               0.000003319               0.000011100               0.999999999               0.000001061               0.000010875               0.999999999              -0.000000059               0.000011085               0.999999999              -0.000000693               0.000011625               0.999999999              -0.000001092               0.000012333               0.999999999              -0.000001427               0.000013249               0.999999999              -0.000001842               0.000014425               0.999999999              -0.000002458               0.000015881               0.999999999              -0.000003419               0.000017650               0.999999999              -0.000004767               0.000019615               0.999999999              -0.000006476               0.000021617               0.999999999              -0.000008558               0.000023708               0.999999999              -0.000011082               0.000026067               0.999999999              -0.000014102               0.000028596               0.999999999              -0.000017605               0.000031307               0.999999999              -0.000021647               0.000034345               0.999999999               0.000007906               0.000024333               0.999999999               0.000003567               0.000022088               0.999999999               0.000001533               0.000021652               0.999999999               0.000000431               0.000022191               0.999999999              -0.000000311               0.000023308               0.999999999              -0.000000945               0.000024811               0.999999999              -0.000001667               0.000026750               0.999999999              -0.000002545               0.000029096               0.999999999              -0.000003729               0.000032119               0.999999999              -0.000005326               0.000035600               0.999999999              -0.000007257               0.000039425               0.999999999              -0.000009577               0.000043301               0.999999999              -0.000012285               0.000047424               0.999999999              -0.000015343               0.000052046               0.999999999              -0.000018851               0.000056899               0.999999999              -0.000022865               0.000062097               0.999999999              -0.000027351               0.000067713               0.999999999               0.000007559               0.000036176               0.999999999               0.000003963               0.000032819               0.999999999               0.000002241               0.000032302               0.999999999               0.000001141               0.000033262               0.999999999               0.000000212               0.000035100               0.999999999              -0.000000842               0.000037540               0.999999999              -0.000002078               0.000040590               0.999999999              -0.000003661               0.000044320               0.999999999              -0.000005701               0.000048876               0.999999999              -0.000008112               0.000054085               0.999999999              -0.000010880               0.000059606               0.999999999              -0.000013972               0.000065269               0.999999999              -0.000017423               0.000071354               0.999999999              -0.000021256               0.000077995               0.999999999              -0.000025478               0.000084918               0.999999999              -0.000030066               0.000092279               0.999999999              -0.000035055               0.000100041               0.999999999               0.000007117               0.000047672               0.999999999               0.000004444               0.000043187               0.999999999               0.000003069               0.000042729               0.999999999               0.000001927               0.000044276               0.999999999               0.000000669               0.000046977               0.999999999              -0.000000831               0.000050521               0.999999999              -0.000002728               0.000054838               0.999999999              -0.000005131               0.000060110               0.999999999              -0.000008028               0.000066334               0.999999999              -0.000011389               0.000073180               0.999999999              -0.000015019               0.000080369               0.999999999              -0.000018948               0.000087682               0.999999999              -0.000023232               0.000095657               0.999999999              -0.000027803               0.000104214               0.999999999              -0.000032718               0.000113211               0.999999999              -0.000038038               0.000122719               0.999999999              -0.000043847               0.000132700               0.999999999               0.000006529               0.000058649               0.999999999               0.000005020               0.000053146               0.999999999               0.000003899               0.000052869               0.999999999               0.000002579               0.000055145               0.999999999               0.000000956               0.000058821               0.999999999              -0.000001099               0.000063612               0.999999999              -0.000003694               0.000069424               0.999999999              -0.000006897               0.000076394               0.999999999              -0.000010666               0.000084371               0.999999999              -0.000014857               0.000092932               0.999999999              -0.000019305               0.000101691               0.999999999              -0.000024067               0.000110855               0.999999999              -0.000029187               0.000120836               0.999999999              -0.000034704               0.000131448               0.999999999              -0.000040611               0.000142642               0.999999999              -0.000046998               0.000154504               0.999999999              -0.000053893               0.000166969               0.999999999               0.000005849               0.000068991               0.999999999               0.000005622               0.000062648               0.999999999               0.000004617               0.000062701               0.999999999               0.000003020               0.000065754               0.999999999               0.000000925               0.000070533               0.999999999              -0.000001721               0.000076699               0.999999999              -0.000005001               0.000084136               0.999999999              -0.000008997               0.000093003               0.999999999              -0.000013553               0.000102766               0.999999999              -0.000018473               0.000113093               0.999999999              -0.000023673               0.000123809               0.999999999              -0.000029198               0.000135146               0.999999999              -0.000035159               0.000147500               0.999999999              -0.000041576               0.000160728               0.999999999              -0.000048482               0.000174582               0.999999999              -0.000055892               0.000189236               0.999999999              -0.000063790               0.000204752               0.999999999               0.000005147               0.000078637               0.999999999               0.000006153               0.000071660               0.999999999               0.000005164               0.000072151               0.999999999               0.000003178               0.000076039               0.999999999               0.000000579               0.000082016               0.999999999              -0.000002648               0.000089642               0.999999999              -0.000006671               0.000098911               0.999999999              -0.000011458               0.000109652               0.999999999              -0.000016719               0.000121348               0.999999999              -0.000022250               0.000133743               0.999999999              -0.000028000               0.000146825               0.999999999              -0.000034113               0.000160974               0.999999999              -0.000040733               0.000176489               0.999999999              -0.000047946               0.000192913               0.999999999              -0.000055803               0.000210158               0.999999999              -0.000064212               0.000228406               0.999999999              -0.000073150               0.000247484               0.999999999               0.000004357               0.000087384               0.999999999               0.000006617               0.000080195               0.999999999               0.000005441               0.000081141               0.999999999               0.000003065               0.000085947               0.999999999               0.000000006               0.000093196               0.999999999              -0.000003842               0.000102440               0.999999999              -0.000008621               0.000113660               0.999999999              -0.000014128               0.000126383               0.999999999              -0.000019879               0.000140259               0.999999999              -0.000025779               0.000155147               0.999999999              -0.000031899               0.000171413               0.999999999              -0.000038508               0.000189169               0.999999999              -0.000045868               0.000208239               0.999999999              -0.000053890               0.000228467               0.999999999              -0.000062498               0.000249770               0.999999999              -0.000071731               0.000272073               0.999999999              -0.000081302               0.000295075               0.999999999               0.000003402               0.000095498               0.999999999               0.000006739               0.000088847               0.999999999               0.000006031               0.000089039               0.999999999               0.000004022               0.000092959               0.999999999               0.000001364               0.000099304               0.999999999              -0.000001871               0.000107560               0.999999999              -0.000005935               0.000117590               0.999999999              -0.000010689               0.000129138               0.999999999              -0.000015714               0.000142008               0.999999999              -0.000020790               0.000156056               0.999999999              -0.000025855               0.000171295               0.999999999              -0.000031231               0.000187684               0.999999999              -0.000037158               0.000205441               0.999999999              -0.000043502               0.000224466               0.999999999              -0.000050328               0.000244590               0.999999999              -0.000057845               0.000265654               0.999999999              -0.000065786               0.000287633               0.999999999               0.000002548               0.000102800               0.999999999               0.000006482               0.000097030               0.999999999               0.000006293               0.000096886               0.999999999               0.000004745               0.000100122               0.999999999               0.000002555               0.000105683               0.999999999              -0.000000104               0.000113084               0.999999999              -0.000003444               0.000122097               0.999999999              -0.000007320               0.000132600               0.999999999              -0.000011556               0.000144490               0.999999999              -0.000016016               0.000157616               0.999999999              -0.000020369               0.000171849               0.999999999              -0.000024666               0.000187236               0.999999999              -0.000029261               0.000203805               0.999999999              -0.000034269               0.000221535               0.999999999              -0.000039563               0.000240411               0.999999999              -0.000045245               0.000260237               0.999999999              -0.000051477               0.000280929               0.999999999               0.000001775               0.000109099               0.999999999               0.000005905               0.000104579               0.999999999               0.000006159               0.000104386               0.999999999               0.000005083               0.000107175               0.999999999               0.000003418               0.000112157               0.999999999               0.000001318               0.000118819               0.999999999              -0.000001277               0.000127006               0.999999999              -0.000004366               0.000136637               0.999999999              -0.000007848               0.000147570               0.999999999              -0.000011623               0.000159788               0.999999999              -0.000015309               0.000173197               0.999999999              -0.000018830               0.000187740               0.999999999              -0.000022369               0.000203348               0.999999999              -0.000026182               0.000219988               0.999999999              -0.000030056               0.000237625               0.999999999              -0.000034076               0.000256247               0.999999999              -0.000038571               0.000275711               0.999999999               0.000001139               0.000114326               0.999999999               0.000005050               0.000111196               0.999999999               0.000005584               0.000111261               0.999999999               0.000004961               0.000113812               0.999999999               0.000003792               0.000118388               0.999999999               0.000002271               0.000124498               0.999999999               0.000000300               0.000132040               0.999999999              -0.000002086               0.000140928               0.999999999              -0.000004830               0.000151099               0.999999999              -0.000007752               0.000162573               0.999999999              -0.000010777               0.000175306               0.999999999              -0.000013617               0.000189185               0.999999999              -0.000016367               0.000204001               0.999999999              -0.000019118               0.000219716               0.999999999              -0.000021822               0.000236272               0.999999999              -0.000024536               0.000253720               0.999999999              -0.000027423               0.000272046               0.999999999               0.000000694               0.000118496               0.999999999               0.000003971               0.000116649               0.999999999               0.000004599               0.000117129               0.999999999               0.000004324               0.000119667               0.999999999               0.000003602               0.000123953               0.999999999               0.000002566               0.000129696               0.999999999               0.000001151               0.000136821               0.999999999              -0.000000549               0.000145188               0.999999999              -0.000002476               0.000154845               0.999999999              -0.000004639               0.000165795               0.999999999              -0.000006948               0.000177939               0.999999999              -0.000009182               0.000191179               0.999999999              -0.000011263               0.000205320               0.999999999              -0.000013089               0.000220246               0.999999999              -0.000014837               0.000236043               0.999999999              -0.000016585               0.000252685               0.999999999              -0.000018228               0.000270167               0.999999999               0.000000378               0.000121486               0.999999999               0.000002715               0.000120732               0.999999999               0.000003295               0.000121635               0.999999999               0.000003188               0.000124267               0.999999999               0.000002812               0.000128409               0.999999999               0.000002192               0.000133949               0.999999999               0.000001299               0.000140839               0.999999999               0.000000260               0.000148957               0.999999999              -0.000000979               0.000158252               0.999999999              -0.000002479               0.000168769               0.999999999              -0.000004002               0.000180506               0.999999999              -0.000005513               0.000193259               0.999999999              -0.000006884               0.000206864               0.999999999              -0.000007994               0.000221279               0.999999999              -0.000009034               0.000236603               0.999999999              -0.000010070               0.000252775               0.999999999              -0.000010884               0.000269790               0.999999999               0.000000157               0.000123272               0.999999999               0.000001373               0.000123266               0.999999999               0.000001726               0.000124474               0.999999999               0.000001684               0.000127210               0.999999999               0.000001546               0.000131332               0.999999999               0.000001241               0.000136768               0.999999999               0.000000865               0.000143534               0.999999999               0.000000353               0.000151533               0.999999999              -0.000000335               0.000160668               0.999999999              -0.000001020               0.000170954               0.999999999              -0.000001770               0.000182383               0.999999999              -0.000002496               0.000194813               0.999999999              -0.000003185               0.000208164               0.999999999              -0.000003782               0.000222417               0.999999999              -0.000004286               0.000237500               0.999999999              -0.000004699               0.000253347               0.999999999              -0.000004947               0.000270086               0.999999999               0.000000000               0.000123880               0.999999999              -0.000000000               0.000124125               0.999999999              -0.000000000               0.000125437               0.999999999              -0.000000000               0.000128244               0.999999999              -0.000000000               0.000132343               0.999999999              -0.000000000               0.000137741               0.999999999               0.000000000               0.000144498               0.999999999               0.000000000               0.000152435               0.999999999               0.000000000               0.000161570               0.999999999               0.000000000               0.000171821               0.999999999               0.000000000               0.000183063               0.999999999               0.000000000               0.000195387               0.999999999               0.000000000               0.000208743               0.999999999               0.000000000               0.000222909               0.999999999              -0.000000000               0.000237854               0.999999999              -0.000000000               0.000253664               0.999999999              -0.000000000               0.000270369               0.999999999               0.000008156               0.000000000               0.999999999               0.000003238               0.000000000               0.999999999               0.000000921              -0.000000000               0.999999999              -0.000000243               0.000000000               0.999999999              -0.000000826              -0.000000000               0.999999999              -0.000001147              -0.000000000               0.999999999              -0.000001349              -0.000000000               0.999999999              -0.000001584               0.000000000               0.999999999              -0.000002016              -0.000000000               0.999999999              -0.000002744              -0.000000000               0.999999999              -0.000003853               0.000000000               0.999999999              -0.000005363              -0.000000000               0.999999999              -0.000007279              -0.000000000               0.999999999              -0.000009589              -0.000000000               0.999999999              -0.000012314              -0.000000000               0.999999999              -0.000015619              -0.000000000               0.999999999              -0.000019541              -0.000000000               0.999999999               0.000008118              -0.000012242               0.999999999               0.000003319              -0.000011100               0.999999999               0.000001061              -0.000010875               0.999999999              -0.000000059              -0.000011085               0.999999999              -0.000000693              -0.000011625               0.999999999              -0.000001092              -0.000012333               0.999999999              -0.000001427              -0.000013249               0.999999999              -0.000001842              -0.000014425               0.999999999              -0.000002458              -0.000015881               0.999999999              -0.000003419              -0.000017650               0.999999999              -0.000004767              -0.000019615               0.999999999              -0.000006476              -0.000021617               0.999999999              -0.000008558              -0.000023708               0.999999999              -0.000011082              -0.000026067               0.999999999              -0.000014102              -0.000028596               0.999999999              -0.000017605              -0.000031307               0.999999999              -0.000021647              -0.000034345               0.999999999               0.000007906              -0.000024333               0.999999999               0.000003567              -0.000022088               0.999999999               0.000001533              -0.000021652               0.999999999               0.000000431              -0.000022191               0.999999999              -0.000000311              -0.000023308               0.999999999              -0.000000945              -0.000024811               0.999999999              -0.000001667              -0.000026750               0.999999999              -0.000002545              -0.000029096               0.999999999              -0.000003729              -0.000032119               0.999999999              -0.000005326              -0.000035600               0.999999999              -0.000007257              -0.000039425               0.999999999              -0.000009577              -0.000043301               0.999999999              -0.000012285              -0.000047424               0.999999999              -0.000015343              -0.000052046               0.999999999              -0.000018851              -0.000056899               0.999999999              -0.000022865              -0.000062097               0.999999999              -0.000027351              -0.000067713               0.999999999               0.000007559              -0.000036176               0.999999999               0.000003963              -0.000032819               0.999999999               0.000002241              -0.000032302               0.999999999               0.000001141              -0.000033262               0.999999999               0.000000212              -0.000035100               0.999999999              -0.000000842              -0.000037540               0.999999999              -0.000002078              -0.000040590               0.999999999              -0.000003661              -0.000044320               0.999999999              -0.000005701              -0.000048876               0.999999999              -0.000008112              -0.000054085               0.999999999              -0.000010880              -0.000059606               0.999999999              -0.000013972              -0.000065269               0.999999999              -0.000017423              -0.000071354               0.999999999              -0.000021256              -0.000077995               0.999999999              -0.000025478              -0.000084918               0.999999999              -0.000030066              -0.000092279               0.999999999              -0.000035055              -0.000100041               0.999999999               0.000007117              -0.000047672               0.999999999               0.000004444              -0.000043187               0.999999999               0.000003069              -0.000042729               0.999999999               0.000001927              -0.000044276               0.999999999               0.000000669              -0.000046977               0.999999999              -0.000000831              -0.000050521               0.999999999              -0.000002728              -0.000054838               0.999999999              -0.000005131              -0.000060110               0.999999999              -0.000008028              -0.000066334               0.999999999              -0.000011389              -0.000073180               0.999999999              -0.000015019              -0.000080369               0.999999999              -0.000018948              -0.000087682               0.999999999              -0.000023232              -0.000095657               0.999999999              -0.000027803              -0.000104214               0.999999999              -0.000032718              -0.000113211               0.999999999              -0.000038038              -0.000122719               0.999999999              -0.000043847              -0.000132700               0.999999999               0.000006529              -0.000058649               0.999999999               0.000005020              -0.000053146               0.999999999               0.000003899              -0.000052869               0.999999999               0.000002579              -0.000055145               0.999999999               0.000000956              -0.000058821               0.999999999              -0.000001099              -0.000063612               0.999999999              -0.000003694              -0.000069424               0.999999999              -0.000006897              -0.000076394               0.999999999              -0.000010666              -0.000084371               0.999999999              -0.000014857              -0.000092932               0.999999999              -0.000019305              -0.000101691               0.999999999              -0.000024067              -0.000110855               0.999999999              -0.000029187              -0.000120836               0.999999999              -0.000034704              -0.000131448               0.999999999              -0.000040611              -0.000142642               0.999999999              -0.000046998              -0.000154504               0.999999999              -0.000053893              -0.000166969               0.999999999               0.000005849              -0.000068991               0.999999999               0.000005622              -0.000062648               0.999999999               0.000004617              -0.000062701               0.999999999               0.000003020              -0.000065754               0.999999999               0.000000925              -0.000070533               0.999999999              -0.000001721              -0.000076699               0.999999999              -0.000005001              -0.000084136               0.999999999              -0.000008997              -0.000093003               0.999999999              -0.000013553              -0.000102766               0.999999999              -0.000018473              -0.000113093               0.999999999              -0.000023673              -0.000123809               0.999999999              -0.000029198              -0.000135146               0.999999999              -0.000035159              -0.000147500               0.999999999              -0.000041576              -0.000160728               0.999999999              -0.000048482              -0.000174582               0.999999999              -0.000055892              -0.000189236               0.999999999              -0.000063790              -0.000204752               0.999999999               0.000005147              -0.000078637               0.999999999               0.000006153              -0.000071660               0.999999999               0.000005164              -0.000072151               0.999999999               0.000003178              -0.000076039               0.999999999               0.000000579              -0.000082016               0.999999999              -0.000002648              -0.000089642               0.999999999              -0.000006671              -0.000098911               0.999999999              -0.000011458              -0.000109652               0.999999999              -0.000016719              -0.000121348               0.999999999              -0.000022250              -0.000133743               0.999999999              -0.000028000              -0.000146825               0.999999999              -0.000034113              -0.000160974               0.999999999              -0.000040733              -0.000176489               0.999999999              -0.000047946              -0.000192913               0.999999999              -0.000055803              -0.000210158               0.999999999              -0.000064212              -0.000228406               0.999999999              -0.000073150              -0.000247484               0.999999999               0.000004357              -0.000087384               0.999999999               0.000006617              -0.000080195               0.999999999               0.000005441              -0.000081141               0.999999999               0.000003065              -0.000085947               0.999999999               0.000000006              -0.000093196               0.999999999              -0.000003842              -0.000102440               0.999999999              -0.000008621              -0.000113660               0.999999999              -0.000014128              -0.000126383               0.999999999              -0.000019879              -0.000140259               0.999999999              -0.000025779              -0.000155147               0.999999999              -0.000031899              -0.000171413               0.999999999              -0.000038508              -0.000189169               0.999999999              -0.000045868              -0.000208239               0.999999999              -0.000053890              -0.000228467               0.999999999              -0.000062498              -0.000249770               0.999999999              -0.000071731              -0.000272073               0.999999999              -0.000081302              -0.000295075               0.999999999               0.000003402              -0.000095498               0.999999999               0.000006739              -0.000088847               0.999999999               0.000006031              -0.000089039               0.999999999               0.000004022              -0.000092959               0.999999999               0.000001364              -0.000099304               0.999999999              -0.000001871              -0.000107560               0.999999999              -0.000005935              -0.000117590               0.999999999              -0.000010689              -0.000129138               0.999999999              -0.000015714              -0.000142008               0.999999999              -0.000020790              -0.000156056               0.999999999              -0.000025855              -0.000171295               0.999999999              -0.000031231              -0.000187684               0.999999999              -0.000037158              -0.000205441               0.999999999              -0.000043502              -0.000224466               0.999999999              -0.000050328              -0.000244590               0.999999999              -0.000057845              -0.000265654               0.999999999              -0.000065786              -0.000287633               0.999999999               0.000002548              -0.000102800               0.999999999               0.000006482              -0.000097030               0.999999999               0.000006293              -0.000096886               0.999999999               0.000004745              -0.000100122               0.999999999               0.000002555              -0.000105683               0.999999999              -0.000000104              -0.000113084               0.999999999              -0.000003444              -0.000122097               0.999999999              -0.000007320              -0.000132600               0.999999999              -0.000011556              -0.000144490               0.999999999              -0.000016016              -0.000157616               0.999999999              -0.000020369              -0.000171849               0.999999999              -0.000024666              -0.000187236               0.999999999              -0.000029261              -0.000203805               0.999999999              -0.000034269              -0.000221535               0.999999999              -0.000039563              -0.000240411               0.999999999              -0.000045245              -0.000260237               0.999999999              -0.000051477              -0.000280929               0.999999999               0.000001775              -0.000109099               0.999999999               0.000005905              -0.000104579               0.999999999               0.000006159              -0.000104386               0.999999999               0.000005083              -0.000107175               0.999999999               0.000003418              -0.000112157               0.999999999               0.000001318              -0.000118819               0.999999999              -0.000001277              -0.000127006               0.999999999              -0.000004366              -0.000136637               0.999999999              -0.000007848              -0.000147570               0.999999999              -0.000011623              -0.000159788               0.999999999              -0.000015309              -0.000173197               0.999999999              -0.000018830              -0.000187740               0.999999999              -0.000022369              -0.000203348               0.999999999              -0.000026182              -0.000219988               0.999999999              -0.000030056              -0.000237625               0.999999999              -0.000034076              -0.000256247               0.999999999              -0.000038571              -0.000275711               0.999999999               0.000001139              -0.000114326               0.999999999               0.000005050              -0.000111196               0.999999999               0.000005584              -0.000111261               0.999999999               0.000004961              -0.000113812               0.999999999               0.000003792              -0.000118388               0.999999999               0.000002271              -0.000124498               0.999999999               0.000000300              -0.000132040               0.999999999              -0.000002086              -0.000140928               0.999999999              -0.000004830              -0.000151099               0.999999999              -0.000007752              -0.000162573               0.999999999              -0.000010777              -0.000175306               0.999999999              -0.000013617              -0.000189185               0.999999999              -0.000016367              -0.000204001               0.999999999              -0.000019118              -0.000219716               0.999999999              -0.000021822              -0.000236272               0.999999999              -0.000024536              -0.000253720               0.999999999              -0.000027423              -0.000272046               0.999999999               0.000000694              -0.000118496               0.999999999               0.000003971              -0.000116649               0.999999999               0.000004599              -0.000117129               0.999999999               0.000004324              -0.000119667               0.999999999               0.000003602              -0.000123953               0.999999999               0.000002566              -0.000129696               0.999999999               0.000001151              -0.000136821               0.999999999              -0.000000549              -0.000145188               0.999999999              -0.000002476              -0.000154845               0.999999999              -0.000004639              -0.000165795               0.999999999              -0.000006948              -0.000177939               0.999999999              -0.000009182              -0.000191179               0.999999999              -0.000011263              -0.000205320               0.999999999              -0.000013089              -0.000220246               0.999999999              -0.000014837              -0.000236043               0.999999999              -0.000016585              -0.000252685               0.999999999              -0.000018228              -0.000270167               0.999999999               0.000000378              -0.000121486               0.999999999               0.000002715              -0.000120732               0.999999999               0.000003295              -0.000121635               0.999999999               0.000003188              -0.000124267               0.999999999               0.000002812              -0.000128409               0.999999999               0.000002192              -0.000133949               0.999999999               0.000001299              -0.000140839               0.999999999               0.000000260              -0.000148957               0.999999999              -0.000000979              -0.000158252               0.999999999              -0.000002479              -0.000168769               0.999999999              -0.000004002              -0.000180506               0.999999999              -0.000005513              -0.000193259               0.999999999              -0.000006884              -0.000206864               0.999999999              -0.000007994              -0.000221279               0.999999999              -0.000009034              -0.000236603               0.999999999              -0.000010070              -0.000252775               0.999999999              -0.000010884              -0.000269790               0.999999999               0.000000157              -0.000123272               0.999999999               0.000001373              -0.000123266               0.999999999               0.000001726              -0.000124474               0.999999999               0.000001684              -0.000127210               0.999999999               0.000001546              -0.000131332               0.999999999               0.000001241              -0.000136768               0.999999999               0.000000865              -0.000143534               0.999999999               0.000000353              -0.000151533               0.999999999              -0.000000335              -0.000160668               0.999999999              -0.000001020              -0.000170954               0.999999999              -0.000001770              -0.000182383               0.999999999              -0.000002496              -0.000194813               0.999999999              -0.000003185              -0.000208164               0.999999999              -0.000003782              -0.000222417               0.999999999              -0.000004286              -0.000237500               0.999999999              -0.000004699              -0.000253347               0.999999999              -0.000004947              -0.000270086               0.999999999               0.000000000              -0.000123880               0.999999999              -0.000000000              -0.000124125               0.999999999               0.000000000              -0.000125437               0.999999999               0.000000000              -0.000128244               0.999999999               0.000000000              -0.000132343               0.999999999              -0.000000000              -0.000137741               0.999999999               0.000000000              -0.000144498               0.999999999               0.000000000              -0.000152435               0.999999999              -0.000000000              -0.000161570               0.999999999              -0.000000000              -0.000171821               0.999999999              -0.000000000              -0.000183063               0.999999999              -0.000000000              -0.000195387               0.999999999              -0.000000000              -0.000208743               0.999999999              -0.000000000              -0.000222909               0.999999999              -0.000000000              -0.000237854               0.999999999              -0.000000000              -0.000253664               0.999999999               0.000000000              -0.000270369               0.999999999              -0.000008156              -0.000000000               0.999999999              -0.000003238              -0.000000000               0.999999999              -0.000000921              -0.000000000               0.999999999               0.000000243              -0.000000000               0.999999999               0.000000826              -0.000000000               0.999999999               0.000001147              -0.000000000               0.999999999               0.000001349              -0.000000000               0.999999999               0.000001584              -0.000000000               0.999999999               0.000002016              -0.000000000               0.999999999               0.000002744              -0.000000000               0.999999999               0.000003853              -0.000000000               0.999999999               0.000005363              -0.000000000               0.999999999               0.000007279              -0.000000000               0.999999999               0.000009589              -0.000000000               0.999999999               0.000012314              -0.000000000               0.999999999               0.000015619               0.000000000               0.999999999               0.000019541               0.000000000               0.999999999              -0.000008118              -0.000012242               0.999999999              -0.000003319              -0.000011100               0.999999999              -0.000001061              -0.000010875               0.999999999               0.000000059              -0.000011085               0.999999999               0.000000693              -0.000011625               0.999999999               0.000001092              -0.000012333               0.999999999               0.000001427              -0.000013249               0.999999999               0.000001842              -0.000014425               0.999999999               0.000002458              -0.000015881               0.999999999               0.000003419              -0.000017650               0.999999999               0.000004767              -0.000019615               0.999999999               0.000006476              -0.000021617               0.999999999               0.000008558              -0.000023708               0.999999999               0.000011082              -0.000026067               0.999999999               0.000014102              -0.000028596               0.999999999               0.000017605              -0.000031307               0.999999999               0.000021647              -0.000034345               0.999999999              -0.000007906              -0.000024333               0.999999999              -0.000003567              -0.000022088               0.999999999              -0.000001533              -0.000021652               0.999999999              -0.000000431              -0.000022191               0.999999999               0.000000311              -0.000023308               0.999999999               0.000000945              -0.000024811               0.999999999               0.000001667              -0.000026750               0.999999999               0.000002545              -0.000029096               0.999999999               0.000003729              -0.000032119               0.999999999               0.000005326              -0.000035600               0.999999999               0.000007257              -0.000039425               0.999999999               0.000009577              -0.000043301               0.999999999               0.000012285              -0.000047424               0.999999999               0.000015343              -0.000052046               0.999999999               0.000018851              -0.000056899               0.999999999               0.000022865              -0.000062097               0.999999999               0.000027351              -0.000067713               0.999999999              -0.000007559              -0.000036176               0.999999999              -0.000003963              -0.000032819               0.999999999              -0.000002241              -0.000032302               0.999999999              -0.000001141              -0.000033262               0.999999999              -0.000000212              -0.000035100               0.999999999               0.000000842              -0.000037540               0.999999999               0.000002078              -0.000040590               0.999999999               0.000003661              -0.000044320               0.999999999               0.000005701              -0.000048876               0.999999999               0.000008112              -0.000054085               0.999999999               0.000010880              -0.000059606               0.999999999               0.000013972              -0.000065269               0.999999999               0.000017423              -0.000071354               0.999999999               0.000021256              -0.000077995               0.999999999               0.000025478              -0.000084918               0.999999999               0.000030066              -0.000092279               0.999999999               0.000035055              -0.000100041               0.999999999              -0.000007117              -0.000047672               0.999999999              -0.000004444              -0.000043187               0.999999999              -0.000003069              -0.000042729               0.999999999              -0.000001927              -0.000044276               0.999999999              -0.000000669              -0.000046977               0.999999999               0.000000831              -0.000050521               0.999999999               0.000002728              -0.000054838               0.999999999               0.000005131              -0.000060110               0.999999999               0.000008028              -0.000066334               0.999999999               0.000011389              -0.000073180               0.999999999               0.000015019              -0.000080369               0.999999999               0.000018948              -0.000087682               0.999999999               0.000023232              -0.000095657               0.999999999               0.000027803              -0.000104214               0.999999999               0.000032718              -0.000113211               0.999999999               0.000038038              -0.000122719               0.999999999               0.000043847              -0.000132700               0.999999999              -0.000006529              -0.000058649               0.999999999              -0.000005020              -0.000053146               0.999999999              -0.000003899              -0.000052869               0.999999999              -0.000002579              -0.000055145               0.999999999              -0.000000956              -0.000058821               0.999999999               0.000001099              -0.000063612               0.999999999               0.000003694              -0.000069424               0.999999999               0.000006897              -0.000076394               0.999999999               0.000010666              -0.000084371               0.999999999               0.000014857              -0.000092932               0.999999999               0.000019305              -0.000101691               0.999999999               0.000024067              -0.000110855               0.999999999               0.000029187              -0.000120836               0.999999999               0.000034704              -0.000131448               0.999999999               0.000040611              -0.000142642               0.999999999               0.000046998              -0.000154504               0.999999999               0.000053893              -0.000166969               0.999999999              -0.000005849              -0.000068991               0.999999999              -0.000005622              -0.000062648               0.999999999              -0.000004617              -0.000062701               0.999999999              -0.000003020              -0.000065754               0.999999999              -0.000000925              -0.000070533               0.999999999               0.000001721              -0.000076699               0.999999999               0.000005001              -0.000084136               0.999999999               0.000008997              -0.000093003               0.999999999               0.000013553              -0.000102766               0.999999999               0.000018473              -0.000113093               0.999999999               0.000023673              -0.000123809               0.999999999               0.000029198              -0.000135146               0.999999999               0.000035159              -0.000147500               0.999999999               0.000041576              -0.000160728               0.999999999               0.000048482              -0.000174582               0.999999999               0.000055892              -0.000189236               0.999999999               0.000063790              -0.000204752               0.999999999              -0.000005147              -0.000078637               0.999999999              -0.000006153              -0.000071660               0.999999999              -0.000005164              -0.000072151               0.999999999              -0.000003178              -0.000076039               0.999999999              -0.000000579              -0.000082016               0.999999999               0.000002648              -0.000089642               0.999999999               0.000006671              -0.000098911               0.999999999               0.000011458              -0.000109652               0.999999999               0.000016719              -0.000121348               0.999999999               0.000022250              -0.000133743               0.999999999               0.000028000              -0.000146825               0.999999999               0.000034113              -0.000160974               0.999999999               0.000040733              -0.000176489               0.999999999               0.000047946              -0.000192913               0.999999999               0.000055803              -0.000210158               0.999999999               0.000064212              -0.000228406               0.999999999               0.000073150              -0.000247484               0.999999999              -0.000004357              -0.000087384               0.999999999              -0.000006617              -0.000080195               0.999999999              -0.000005441              -0.000081141               0.999999999              -0.000003065              -0.000085947               0.999999999              -0.000000006              -0.000093196               0.999999999               0.000003842              -0.000102440               0.999999999               0.000008621              -0.000113660               0.999999999               0.000014128              -0.000126383               0.999999999               0.000019879              -0.000140259               0.999999999               0.000025779              -0.000155147               0.999999999               0.000031899              -0.000171413               0.999999999               0.000038508              -0.000189169               0.999999999               0.000045868              -0.000208239               0.999999999               0.000053890              -0.000228467               0.999999999               0.000062498              -0.000249770               0.999999999               0.000071731              -0.000272073               0.999999999               0.000081302              -0.000295075               0.999999999              -0.000003402              -0.000095498               0.999999999              -0.000006739              -0.000088847               0.999999999              -0.000006031              -0.000089039               0.999999999              -0.000004022              -0.000092959               0.999999999              -0.000001364              -0.000099304               0.999999999               0.000001871              -0.000107560               0.999999999               0.000005935              -0.000117590               0.999999999               0.000010689              -0.000129138               0.999999999               0.000015714              -0.000142008               0.999999999               0.000020790              -0.000156056               0.999999999               0.000025855              -0.000171295               0.999999999               0.000031231              -0.000187684               0.999999999               0.000037158              -0.000205441               0.999999999               0.000043502              -0.000224466               0.999999999               0.000050328              -0.000244590               0.999999999               0.000057845              -0.000265654               0.999999999               0.000065786              -0.000287633               0.999999999              -0.000002548              -0.000102800               0.999999999              -0.000006482              -0.000097030               0.999999999              -0.000006293              -0.000096886               0.999999999              -0.000004745              -0.000100122               0.999999999              -0.000002555              -0.000105683               0.999999999               0.000000104              -0.000113084               0.999999999               0.000003444              -0.000122097               0.999999999               0.000007320              -0.000132600               0.999999999               0.000011556              -0.000144490               0.999999999               0.000016016              -0.000157616               0.999999999               0.000020369              -0.000171849               0.999999999               0.000024666              -0.000187236               0.999999999               0.000029261              -0.000203805               0.999999999               0.000034269              -0.000221535               0.999999999               0.000039563              -0.000240411               0.999999999               0.000045245              -0.000260237               0.999999999               0.000051477              -0.000280929               0.999999999              -0.000001775              -0.000109099               0.999999999              -0.000005905              -0.000104579               0.999999999              -0.000006159              -0.000104386               0.999999999              -0.000005083              -0.000107175               0.999999999              -0.000003418              -0.000112157               0.999999999              -0.000001318              -0.000118819               0.999999999               0.000001277              -0.000127006               0.999999999               0.000004366              -0.000136637               0.999999999               0.000007848              -0.000147570               0.999999999               0.000011623              -0.000159788               0.999999999               0.000015309              -0.000173197               0.999999999               0.000018830              -0.000187740               0.999999999               0.000022369              -0.000203348               0.999999999               0.000026182              -0.000219988               0.999999999               0.000030056              -0.000237625               0.999999999               0.000034076              -0.000256247               0.999999999               0.000038571              -0.000275711               0.999999999              -0.000001139              -0.000114326               0.999999999              -0.000005050              -0.000111196               0.999999999              -0.000005584              -0.000111261               0.999999999              -0.000004961              -0.000113812               0.999999999              -0.000003792              -0.000118388               0.999999999              -0.000002271              -0.000124498               0.999999999              -0.000000300              -0.000132040               0.999999999               0.000002086              -0.000140928               0.999999999               0.000004830              -0.000151099               0.999999999               0.000007752              -0.000162573               0.999999999               0.000010777              -0.000175306               0.999999999               0.000013617              -0.000189185               0.999999999               0.000016367              -0.000204001               0.999999999               0.000019118              -0.000219716               0.999999999               0.000021822              -0.000236272               0.999999999               0.000024536              -0.000253720               0.999999999               0.000027423              -0.000272046               0.999999999              -0.000000694              -0.000118496               0.999999999              -0.000003971              -0.000116649               0.999999999              -0.000004599              -0.000117129               0.999999999              -0.000004324              -0.000119667               0.999999999              -0.000003602              -0.000123953               0.999999999              -0.000002566              -0.000129696               0.999999999              -0.000001151              -0.000136821               0.999999999               0.000000549              -0.000145188               0.999999999               0.000002476              -0.000154845               0.999999999               0.000004639              -0.000165795               0.999999999               0.000006948              -0.000177939               0.999999999               0.000009182              -0.000191179               0.999999999               0.000011263              -0.000205320               0.999999999               0.000013089              -0.000220246               0.999999999               0.000014837              -0.000236043               0.999999999               0.000016585              -0.000252685               0.999999999               0.000018228              -0.000270167               0.999999999              -0.000000378              -0.000121486               0.999999999              -0.000002715              -0.000120732               0.999999999              -0.000003295              -0.000121635               0.999999999              -0.000003188              -0.000124267               0.999999999              -0.000002812              -0.000128409               0.999999999              -0.000002192              -0.000133949               0.999999999              -0.000001299              -0.000140839               0.999999999              -0.000000260              -0.000148957               0.999999999               0.000000979              -0.000158252               0.999999999               0.000002479              -0.000168769               0.999999999               0.000004002              -0.000180506               0.999999999               0.000005513              -0.000193259               0.999999999               0.000006884              -0.000206864               0.999999999               0.000007994              -0.000221279               0.999999999               0.000009034              -0.000236603               0.999999999               0.000010070              -0.000252775               0.999999999               0.000010884              -0.000269790               0.999999999              -0.000000157              -0.000123272               0.999999999              -0.000001373              -0.000123266               0.999999999              -0.000001726              -0.000124474               0.999999999              -0.000001684              -0.000127210               0.999999999              -0.000001546              -0.000131332               0.999999999              -0.000001241              -0.000136768               0.999999999              -0.000000865              -0.000143534               0.999999999              -0.000000353              -0.000151533               0.999999999               0.000000335              -0.000160668               0.999999999               0.000001020              -0.000170954               0.999999999               0.000001770              -0.000182383               0.999999999               0.000002496              -0.000194813               0.999999999               0.000003185              -0.000208164               0.999999999               0.000003782              -0.000222417               0.999999999               0.000004286              -0.000237500               0.999999999               0.000004699              -0.000253347               0.999999999               0.000004947              -0.000270086               0.999999999               0.000000000              -0.000123880               0.999999999              -0.000000000              -0.000124125               0.999999999               0.000000000              -0.000125437               0.999999999               0.000000000              -0.000128244               0.999999999               0.000000000              -0.000132343               0.999999999              -0.000000000              -0.000137741               0.999999999               0.000000000              -0.000144498               0.999999999               0.000000000              -0.000152435               0.999999999              -0.000000000              -0.000161570               0.999999999              -0.000000000              -0.000171821               0.999999999              -0.000000000              -0.000183063               0.999999999              -0.000000000              -0.000195387               0.999999999              -0.000000000              -0.000208743               0.999999999              -0.000000000              -0.000222909               0.999999999              -0.000000000              -0.000237854               0.999999999              -0.000000000              -0.000253664               0.999999999               0.000000000              -0.000270369               0.999999999              -0.000008156              -0.000000000               0.999999999              -0.000003238              -0.000000000               0.999999999              -0.000000921              -0.000000000               0.999999999               0.000000243              -0.000000000               0.999999999               0.000000826              -0.000000000               0.999999999               0.000001147              -0.000000000               0.999999999               0.000001349              -0.000000000               0.999999999               0.000001584              -0.000000000               0.999999999               0.000002016              -0.000000000               0.999999999               0.000002744              -0.000000000               0.999999999               0.000003853              -0.000000000               0.999999999               0.000005363              -0.000000000               0.999999999               0.000007279              -0.000000000               0.999999999               0.000009589              -0.000000000               0.999999999               0.000012314              -0.000000000               0.999999999               0.000015619               0.000000000               0.999999999               0.000019541               0.000000000               0.999999999              -0.000008118               0.000012242               0.999999999              -0.000003319               0.000011100               0.999999999              -0.000001061               0.000010875               0.999999999               0.000000059               0.000011085               0.999999999               0.000000693               0.000011625               0.999999999               0.000001092               0.000012333               0.999999999               0.000001427               0.000013249               0.999999999               0.000001842               0.000014425               0.999999999               0.000002458               0.000015881               0.999999999               0.000003419               0.000017650               0.999999999               0.000004767               0.000019615               0.999999999               0.000006476               0.000021617               0.999999999               0.000008558               0.000023708               0.999999999               0.000011082               0.000026067               0.999999999               0.000014102               0.000028596               0.999999999               0.000017605               0.000031307               0.999999999               0.000021647               0.000034345               0.999999999              -0.000007906               0.000024333               0.999999999              -0.000003567               0.000022088               0.999999999              -0.000001533               0.000021652               0.999999999              -0.000000431               0.000022191               0.999999999               0.000000311               0.000023308               0.999999999               0.000000945               0.000024811               0.999999999               0.000001667               0.000026750               0.999999999               0.000002545               0.000029096               0.999999999               0.000003729               0.000032119               0.999999999               0.000005326               0.000035600               0.999999999               0.000007257               0.000039425               0.999999999               0.000009577               0.000043301               0.999999999               0.000012285               0.000047424               0.999999999               0.000015343               0.000052046               0.999999999               0.000018851               0.000056899               0.999999999               0.000022865               0.000062097               0.999999999               0.000027351               0.000067713               0.999999999              -0.000007559               0.000036176               0.999999999              -0.000003963               0.000032819               0.999999999              -0.000002241               0.000032302               0.999999999              -0.000001141               0.000033262               0.999999999              -0.000000212               0.000035100               0.999999999               0.000000842               0.000037540               0.999999999               0.000002078               0.000040590               0.999999999               0.000003661               0.000044320               0.999999999               0.000005701               0.000048876               0.999999999               0.000008112               0.000054085               0.999999999               0.000010880               0.000059606               0.999999999               0.000013972               0.000065269               0.999999999               0.000017423               0.000071354               0.999999999               0.000021256               0.000077995               0.999999999               0.000025478               0.000084918               0.999999999               0.000030066               0.000092279               0.999999999               0.000035055               0.000100041               0.999999999              -0.000007117               0.000047672               0.999999999              -0.000004444               0.000043187               0.999999999              -0.000003069               0.000042729               0.999999999              -0.000001927               0.000044276               0.999999999              -0.000000669               0.000046977               0.999999999               0.000000831               0.000050521               0.999999999               0.000002728               0.000054838               0.999999999               0.000005131               0.000060110               0.999999999               0.000008028               0.000066334               0.999999999               0.000011389               0.000073180               0.999999999               0.000015019               0.000080369               0.999999999               0.000018948               0.000087682               0.999999999               0.000023232               0.000095657               0.999999999               0.000027803               0.000104214               0.999999999               0.000032718               0.000113211               0.999999999               0.000038038               0.000122719               0.999999999               0.000043847               0.000132700               0.999999999              -0.000006529               0.000058649               0.999999999              -0.000005020               0.000053146               0.999999999              -0.000003899               0.000052869               0.999999999              -0.000002579               0.000055145               0.999999999              -0.000000956               0.000058821               0.999999999               0.000001099               0.000063612               0.999999999               0.000003694               0.000069424               0.999999999               0.000006897               0.000076394               0.999999999               0.000010666               0.000084371               0.999999999               0.000014857               0.000092932               0.999999999               0.000019305               0.000101691               0.999999999               0.000024067               0.000110855               0.999999999               0.000029187               0.000120836               0.999999999               0.000034704               0.000131448               0.999999999               0.000040611               0.000142642               0.999999999               0.000046998               0.000154504               0.999999999               0.000053893               0.000166969               0.999999999              -0.000005849               0.000068991               0.999999999              -0.000005622               0.000062648               0.999999999              -0.000004617               0.000062701               0.999999999              -0.000003020               0.000065754               0.999999999              -0.000000925               0.000070533               0.999999999               0.000001721               0.000076699               0.999999999               0.000005001               0.000084136               0.999999999               0.000008997               0.000093003               0.999999999               0.000013553               0.000102766               0.999999999               0.000018473               0.000113093               0.999999999               0.000023673               0.000123809               0.999999999               0.000029198               0.000135146               0.999999999               0.000035159               0.000147500               0.999999999               0.000041576               0.000160728               0.999999999               0.000048482               0.000174582               0.999999999               0.000055892               0.000189236               0.999999999               0.000063790               0.000204752               0.999999999              -0.000005147               0.000078637               0.999999999              -0.000006153               0.000071660               0.999999999              -0.000005164               0.000072151               0.999999999              -0.000003178               0.000076039               0.999999999              -0.000000579               0.000082016               0.999999999               0.000002648               0.000089642               0.999999999               0.000006671               0.000098911               0.999999999               0.000011458               0.000109652               0.999999999               0.000016719               0.000121348               0.999999999               0.000022250               0.000133743               0.999999999               0.000028000               0.000146825               0.999999999               0.000034113               0.000160974               0.999999999               0.000040733               0.000176489               0.999999999               0.000047946               0.000192913               0.999999999               0.000055803               0.000210158               0.999999999               0.000064212               0.000228406               0.999999999               0.000073150               0.000247484               0.999999999              -0.000004357               0.000087384               0.999999999              -0.000006617               0.000080195               0.999999999              -0.000005441               0.000081141               0.999999999              -0.000003065               0.000085947               0.999999999              -0.000000006               0.000093196               0.999999999               0.000003842               0.000102440               0.999999999               0.000008621               0.000113660               0.999999999               0.000014128               0.000126383               0.999999999               0.000019879               0.000140259               0.999999999               0.000025779               0.000155147               0.999999999               0.000031899               0.000171413               0.999999999               0.000038508               0.000189169               0.999999999               0.000045868               0.000208239               0.999999999               0.000053890               0.000228467               0.999999999               0.000062498               0.000249770               0.999999999               0.000071731               0.000272073               0.999999999               0.000081302               0.000295075               0.999999999              -0.000003402               0.000095498               0.999999999              -0.000006739               0.000088847               0.999999999              -0.000006031               0.000089039               0.999999999              -0.000004022               0.000092959               0.999999999              -0.000001364               0.000099304               0.999999999               0.000001871               0.000107560               0.999999999               0.000005935               0.000117590               0.999999999               0.000010689               0.000129138               0.999999999               0.000015714               0.000142008               0.999999999               0.000020790               0.000156056               0.999999999               0.000025855               0.000171295               0.999999999               0.000031231               0.000187684               0.999999999               0.000037158               0.000205441               0.999999999               0.000043502               0.000224466               0.999999999               0.000050328               0.000244590               0.999999999               0.000057845               0.000265654               0.999999999               0.000065786               0.000287633               0.999999999              -0.000002548               0.000102800               0.999999999              -0.000006482               0.000097030               0.999999999              -0.000006293               0.000096886               0.999999999              -0.000004745               0.000100122               0.999999999              -0.000002555               0.000105683               0.999999999               0.000000104               0.000113084               0.999999999               0.000003444               0.000122097               0.999999999               0.000007320               0.000132600               0.999999999               0.000011556               0.000144490               0.999999999               0.000016016               0.000157616               0.999999999               0.000020369               0.000171849               0.999999999               0.000024666               0.000187236               0.999999999               0.000029261               0.000203805               0.999999999               0.000034269               0.000221535               0.999999999               0.000039563               0.000240411               0.999999999               0.000045245               0.000260237               0.999999999               0.000051477               0.000280929               0.999999999              -0.000001775               0.000109099               0.999999999              -0.000005905               0.000104579               0.999999999              -0.000006159               0.000104386               0.999999999              -0.000005083               0.000107175               0.999999999              -0.000003418               0.000112157               0.999999999              -0.000001318               0.000118819               0.999999999               0.000001277               0.000127006               0.999999999               0.000004366               0.000136637               0.999999999               0.000007848               0.000147570               0.999999999               0.000011623               0.000159788               0.999999999               0.000015309               0.000173197               0.999999999               0.000018830               0.000187740               0.999999999               0.000022369               0.000203348               0.999999999               0.000026182               0.000219988               0.999999999               0.000030056               0.000237625               0.999999999               0.000034076               0.000256247               0.999999999               0.000038571               0.000275711               0.999999999              -0.000001139               0.000114326               0.999999999              -0.000005050               0.000111196               0.999999999              -0.000005584               0.000111261               0.999999999              -0.000004961               0.000113812               0.999999999              -0.000003792               0.000118388               0.999999999              -0.000002271               0.000124498               0.999999999              -0.000000300               0.000132040               0.999999999               0.000002086               0.000140928               0.999999999               0.000004830               0.000151099               0.999999999               0.000007752               0.000162573               0.999999999               0.000010777               0.000175306               0.999999999               0.000013617               0.000189185               0.999999999               0.000016367               0.000204001               0.999999999               0.000019118               0.000219716               0.999999999               0.000021822               0.000236272               0.999999999               0.000024536               0.000253720               0.999999999               0.000027423               0.000272046               0.999999999              -0.000000694               0.000118496               0.999999999              -0.000003971               0.000116649               0.999999999              -0.000004599               0.000117129               0.999999999              -0.000004324               0.000119667               0.999999999              -0.000003602               0.000123953               0.999999999              -0.000002566               0.000129696               0.999999999              -0.000001151               0.000136821               0.999999999               0.000000549               0.000145188               0.999999999               0.000002476               0.000154845               0.999999999               0.000004639               0.000165795               0.999999999               0.000006948               0.000177939               0.999999999               0.000009182               0.000191179               0.999999999               0.000011263               0.000205320               0.999999999               0.000013089               0.000220246               0.999999999               0.000014837               0.000236043               0.999999999               0.000016585               0.000252685               0.999999999               0.000018228               0.000270167               0.999999999              -0.000000378               0.000121486               0.999999999              -0.000002715               0.000120732               0.999999999              -0.000003295               0.000121635               0.999999999              -0.000003188               0.000124267               0.999999999              -0.000002812               0.000128409               0.999999999              -0.000002192               0.000133949               0.999999999              -0.000001299               0.000140839               0.999999999              -0.000000260               0.000148957               0.999999999               0.000000979               0.000158252               0.999999999               0.000002479               0.000168769               0.999999999               0.000004002               0.000180506               0.999999999               0.000005513               0.000193259               0.999999999               0.000006884               0.000206864               0.999999999               0.000007994               0.000221279               0.999999999               0.000009034               0.000236603               0.999999999               0.000010070               0.000252775               0.999999999               0.000010884               0.000269790               0.999999999              -0.000000157               0.000123272               0.999999999              -0.000001373               0.000123266               0.999999999              -0.000001726               0.000124474               0.999999999              -0.000001684               0.000127210               0.999999999              -0.000001546               0.000131332               0.999999999              -0.000001241               0.000136768               0.999999999              -0.000000865               0.000143534               0.999999999              -0.000000353               0.000151533               0.999999999               0.000000335               0.000160668               0.999999999               0.000001020               0.000170954               0.999999999               0.000001770               0.000182383               0.999999999               0.000002496               0.000194813               0.999999999               0.000003185               0.000208164               0.999999999               0.000003782               0.000222417               0.999999999               0.000004286               0.000237500               0.999999999               0.000004699               0.000253347               0.999999999               0.000004947               0.000270086               0.999999999               0.000000000               0.000123880               0.999999999              -0.000000000               0.000124125               0.999999999              -0.000000000               0.000125437               0.999999999              -0.000000000               0.000128244               0.999999999              -0.000000000               0.000132343               0.999999999              -0.000000000               0.000137741               0.999999999               0.000000000               0.000144498               0.999999999               0.000000000               0.000152435               0.999999999               0.000000000               0.000161570               0.999999999               0.000000000               0.000171821               0.999999999               0.000000000               0.000183063               0.999999999               0.000000000               0.000195387               0.999999999               0.000000000               0.000208743               0.999999999               0.000000000               0.000222909               0.999999999              -0.000000000               0.000237854               0.999999999              -0.000000000               0.000253664               0.999999999              -0.000000000               0.000270369               0.999999999 </DataArray>
<DataArray type="Float64"                                    Name="defo"                                                      NumberOfComponents=" 3" format="ascii">
              0.000008156               0.000000000               0.999999999               0.000003238               0.000000000               0.999999999               0.000000921              -0.000000000               0.999999999              -0.000000243               0.000000000               0.999999999              -0.000000826              -0.000000000               0.999999999              -0.000001147              -0.000000000               0.999999999              -0.000001349              -0.000000000               0.999999999              -0.000001584               0.000000000               0.999999999              -0.000002016              -0.000000000               0.999999999              -0.000002744              -0.000000000               0.999999999              -0.000003853               0.000000000               0.999999999              -0.000005363              -0.000000000               0.999999999              -0.000007279              -0.000000000               0.999999999              -0.000009589              -0.000000000               0.999999999              -0.000012314              -0.000000000               0.999999999              -0.000015619              -0.000000000               0.999999999              -0.000019541              -0.000000000               0.999999999               0.000008118               0.000012242               0.999999999               0.000003319               0.000011100               0.999999999               0.000001061               0.000010875               0.999999999              -0.000000059               0.000011085               0.999999999              -0.000000693               0.000011625               0.999999999              -0.000001092               0.000012333               0.999999999              -0.000001427               0.000013249               0.999999999              -0.000001842               0.000014425               0.999999999              -0.000002458               0.000015881               0.999999999              -0.000003419               0.000017650               0.999999999              -0.000004767               0.000019615               0.999999999              -0.000006476               0.000021617               0.999999999              -0.000008558               0.000023708               0.999999999              -0.000011082               0.000026067               0.999999999              -0.000014102               0.000028596               0.999999999              -0.000017605               0.000031307               0.999999999              -0.000021647               0.000034345               0.999999999               0.000007906               0.000024333               0.999999999               0.000003567               0.000022088               0.999999999               0.000001533               0.000021652               0.999999999               0.000000431               0.000022191               0.999999999              -0.000000311               0.000023308               0.999999999              -0.000000945               0.000024811               0.999999999              -0.000001667               0.000026750               0.999999999              -0.000002545               0.000029096               0.999999999              -0.000003729               0.000032119               0.999999999              -0.000005326               0.000035600               0.999999999              -0.000007257               0.000039425               0.999999999              -0.000009577               0.000043301               0.999999999              -0.000012285               0.000047424               0.999999999              -0.000015343               0.000052046               0.999999999              -0.000018851               0.000056899               0.999999999              -0.000022865               0.000062097               0.999999999              -0.000027351               0.000067713               0.999999999               0.000007559               0.000036176               0.999999999               0.000003963               0.000032819               0.999999999               0.000002241               0.000032302               0.999999999               0.000001141               0.000033262               0.999999999               0.000000212               0.000035100               0.999999999              -0.000000842               0.000037540               0.999999999              -0.000002078               0.000040590               0.999999999              -0.000003661               0.000044320               0.999999999              -0.000005701               0.000048876               0.999999999              -0.000008112               0.000054085               0.999999999              -0.000010880               0.000059606               0.999999999              -0.000013972               0.000065269               0.999999999              -0.000017423               0.000071354               0.999999999              -0.000021256               0.000077995               0.999999999              -0.000025478               0.000084918               0.999999999              -0.000030066               0.000092279               0.999999999              -0.000035055               0.000100041               0.999999999               0.000007117               0.000047672               0.999999999               0.000004444               0.000043187               0.999999999               0.000003069               0.000042729               0.999999999               0.000001927               0.000044276               0.999999999               0.000000669               0.000046977               0.999999999              -0.000000831               0.000050521               0.999999999              -0.000002728               0.000054838               0.999999999              -0.000005131               0.000060110               0.999999999              -0.000008028               0.000066334               0.999999999              -0.000011389               0.000073180               0.999999999              -0.000015019               0.000080369               0.999999999              -0.000018948               0.000087682               0.999999999              -0.000023232               0.000095657               0.999999999              -0.000027803               0.000104214               0.999999999              -0.000032718               0.000113211               0.999999999              -0.000038038               0.000122719               0.999999999              -0.000043847               0.000132700               0.999999999               0.000006529               0.000058649               0.999999999               0.000005020               0.000053146               0.999999999               0.000003899               0.000052869               0.999999999               0.000002579               0.000055145               0.999999999               0.000000956               0.000058821               0.999999999              -0.000001099               0.000063612               0.999999999              -0.000003694               0.000069424               0.999999999              -0.000006897               0.000076394               0.999999999              -0.000010666               0.000084371               0.999999999              -0.000014857               0.000092932               0.999999999              -0.000019305               0.000101691               0.999999999              -0.000024067               0.000110855               0.999999999              -0.000029187               0.000120836               0.999999999              -0.000034704               0.000131448               0.999999999              -0.000040611               0.000142642               0.999999999              -0.000046998               0.000154504               0.999999999              -0.000053893               0.000166969               0.999999999               0.000005849               0.000068991               0.999999999               0.000005622               0.000062648               0.999999999               0.000004617               0.000062701               0.999999999               0.000003020               0.000065754               0.999999999               0.000000925               0.000070533               0.999999999              -0.000001721               0.000076699               0.999999999              -0.000005001               0.000084136               0.999999999              -0.000008997               0.000093003               0.999999999              -0.000013553               0.000102766               0.999999999              -0.000018473               0.000113093               0.999999999              -0.000023673               0.000123809               0.999999999              -0.000029198               0.000135146               0.999999999              -0.000035159               0.000147500               0.999999999              -0.000041576               0.000160728               0.999999999              -0.000048482               0.000174582               0.999999999              -0.000055892               0.000189236               0.999999999              -0.000063790               0.000204752               0.999999999               0.000005147               0.000078637               0.999999999               0.000006153               0.000071660               0.999999999               0.000005164               0.000072151               0.999999999               0.000003178               0.000076039               0.999999999               0.000000579               0.000082016               0.999999999              -0.000002648               0.000089642               0.999999999              -0.000006671               0.000098911               0.999999999              -0.000011458               0.000109652               0.999999999              -0.000016719               0.000121348               0.999999999              -0.000022250               0.000133743               0.999999999              -0.000028000               0.000146825               0.999999999              -0.000034113               0.000160974               0.999999999              -0.000040733               0.000176489               0.999999999              -0.000047946               0.000192913               0.999999999              -0.000055803               0.000210158               0.999999999              -0.000064212               0.000228406               0.999999999              -0.000073150               0.000247484               0.999999999               0.000004357               0.000087384               0.999999999               0.000006617               0.000080195               0.999999999               0.000005441               0.000081141               0.999999999               0.000003065               0.000085947               0.999999999               0.000000006               0.000093196               0.999999999              -0.000003842               0.000102440               0.999999999              -0.000008621               0.000113660               0.999999999              -0.000014128               0.000126383               0.999999999              -0.000019879               0.000140259               0.999999999              -0.000025779               0.000155147               0.999999999              -0.000031899               0.000171413               0.999999999              -0.000038508               0.000189169               0.999999999              -0.000045868               0.000208239               0.999999999              -0.000053890               0.000228467               0.999999999              -0.000062498               0.000249770               0.999999999              -0.000071731               0.000272073               0.999999999              -0.000081302               0.000295075               0.999999999               0.000003402               0.000095498               0.999999999               0.000006739               0.000088847               0.999999999               0.000006031               0.000089039               0.999999999               0.000004022               0.000092959               0.999999999               0.000001364               0.000099304               0.999999999              -0.000001871               0.000107560               0.999999999              -0.000005935               0.000117590               0.999999999              -0.000010689               0.000129138               0.999999999              -0.000015714               0.000142008               0.999999999              -0.000020790               0.000156056               0.999999999              -0.000025855               0.000171295               0.999999999              -0.000031231               0.000187684               0.999999999              -0.000037158               0.000205441               0.999999999              -0.000043502               0.000224466               0.999999999              -0.000050328               0.000244590               0.999999999              -0.000057845               0.000265654               0.999999999              -0.000065786               0.000287633               0.999999999               0.000002548               0.000102800               0.999999999               0.000006482               0.000097030               0.999999999               0.000006293               0.000096886               0.999999999               0.000004745               0.000100122               0.999999999               0.000002555               0.000105683               0.999999999              -0.000000104               0.000113084               0.999999999              -0.000003444               0.000122097               0.999999999              -0.000007320               0.000132600               0.999999999              -0.000011556               0.000144490               0.999999999              -0.000016016               0.000157616               0.999999999              -0.000020369               0.000171849               0.999999999              -0.000024666               0.000187236               0.999999999              -0.000029261               0.000203805               0.999999999              -0.000034269               0.000221535               0.999999999              -0.000039563               0.000240411               0.999999999              -0.000045245               0.000260237               0.999999999              -0.000051477               0.000280929               0.999999999               0.000001775               0.000109099               0.999999999               0.000005905               0.000104579               0.999999999               0.000006159               0.000104386               0.999999999               0.000005083               0.000107175               0.999999999               0.000003418               0.000112157               0.999999999               0.000001318               0.000118819               0.999999999              -0.000001277               0.000127006               0.999999999              -0.000004366               0.000136637               0.999999999              -0.000007848               0.000147570               0.999999999              -0.000011623               0.000159788               0.999999999              -0.000015309               0.000173197               0.999999999              -0.000018830               0.000187740               0.999999999              -0.000022369               0.000203348               0.999999999              -0.000026182               0.000219988               0.999999999              -0.000030056               0.000237625               0.999999999              -0.000034076               0.000256247               0.999999999              -0.000038571               0.000275711               0.999999999               0.000001139               0.000114326               0.999999999               0.000005050               0.000111196               0.999999999               0.000005584               0.000111261               0.999999999               0.000004961               0.000113812               0.999999999               0.000003792               0.000118388               0.999999999               0.000002271               0.000124498               0.999999999               0.000000300               0.000132040               0.999999999              -0.000002086               0.000140928               0.999999999              -0.000004830               0.000151099               0.999999999              -0.000007752               0.000162573               0.999999999              -0.000010777               0.000175306               0.999999999              -0.000013617               0.000189185               0.999999999              -0.000016367               0.000204001               0.999999999              -0.000019118               0.000219716               0.999999999              -0.000021822               0.000236272               0.999999999              -0.000024536               0.000253720               0.999999999              -0.000027423               0.000272046               0.999999999               0.000000694               0.000118496               0.999999999               0.000003971               0.000116649               0.999999999               0.000004599               0.000117129               0.999999999               0.000004324               0.000119667               0.999999999               0.000003602               0.000123953               0.999999999               0.000002566               0.000129696               0.999999999               0.000001151               0.000136821               0.999999999              -0.000000549               0.000145188               0.999999999              -0.000002476               0.000154845               0.999999999              -0.000004639               0.000165795               0.999999999              -0.000006948               0.000177939               0.999999999              -0.000009182               0.000191179               0.999999999              -0.000011263               0.000205320               0.999999999              -0.000013089               0.000220246               0.999999999              -0.000014837               0.000236043               0.999999999              -0.000016585               0.000252685               0.999999999              -0.000018228               0.000270167               0.999999999               0.000000378               0.000121486               0.999999999               0.000002715               0.000120732               0.999999999               0.000003295               0.000121635               0.999999999               0.000003188               0.000124267               0.999999999               0.000002812               0.000128409               0.999999999               0.000002192               0.000133949               0.999999999               0.000001299               0.000140839               0.999999999               0.000000260               0.000148957               0.999999999              -0.000000979               0.000158252               0.999999999              -0.000002479               0.000168769               0.999999999              -0.000004002               0.000180506               0.999999999              -0.000005513               0.000193259               0.999999999              -0.000006884               0.000206864               0.999999999              -0.000007994               0.000221279               0.999999999              -0.000009034               0.000236603               0.999999999              -0.000010070               0.000252775               0.999999999              -0.000010884               0.000269790               0.999999999               0.000000157               0.000123272               0.999999999               0.000001373               0.000123266               0.999999999               0.000001726               0.000124474               0.999999999               0.000001684               0.000127210               0.999999999               0.000001546               0.000131332               0.999999999               0.000001241               0.000136768               0.999999999               0.000000865               0.000143534               0.999999999               0.000000353               0.000151533               0.999999999              -0.000000335               0.000160668               0.999999999              -0.000001020               0.000170954               0.999999999              -0.000001770               0.000182383               0.999999999              -0.000002496               0.000194813               0.999999999              -0.000003185               0.000208164               0.999999999              -0.000003782               0.000222417               0.999999999              -0.000004286               0.000237500               0.999999999              -0.000004699               0.000253347               0.999999999              -0.000004947               0.000270086               0.999999999               0.000000000               0.000123880               0.999999999              -0.000000000               0.000124125               0.999999999              -0.000000000               0.000125437               0.999999999              -0.000000000               0.000128244               0.999999999              -0.000000000               0.000132343               0.999999999              -0.000000000               0.000137741               0.999999999               0.000000000               0.000144498               0.999999999               0.000000000               0.000152435               0.999999999               0.000000000               0.000161570               0.999999999               0.000000000               0.000171821               0.999999999               0.000000000               0.000183063               0.999999999               0.000000000               0.000195387               0.999999999               0.000000000               0.000208743               0.999999999               0.000000000               0.000222909               0.999999999              -0.000000000               0.000237854               0.999999999              -0.000000000               0.000253664               0.999999999              -0.000000000               0.000270369               0.999999999               0.000008156               0.000000000               0.999999999               0.000003238               0.000000000               0.999999999               0.000000921              -0.000000000               0.999999999              -0.000000243               0.000000000               0.999999999              -0.000000826              -0.000000000               0.999999999              -0.000001147              -0.000000000               0.999999999              -0.000001349              -0.000000000               0.999999999              -0.000001584               0.000000000               0.999999999              -0.000002016              -0.000000000               0.999999999              -0.000002744              -0.000000000               0.999999999              -0.000003853               0.000000000               0.999999999              -0.000005363              -0.000000000               0.999999999              -0.000007279              -0.000000000               0.999999999              -0.000009589              -0.000000000               0.999999999              -0.000012314              -0.000000000               0.999999999              -0.000015619              -0.000000000               0.999999999              -0.000019541              -0.000000000               0.999999999               0.000008118              -0.000012242               0.999999999               0.000003319              -0.000011100               0.999999999               0.000001061              -0.000010875               0.999999999              -0.000000059              -0.000011085               0.999999999              -0.000000693              -0.000011625               0.999999999              -0.000001092              -0.000012333               0.999999999              -0.000001427              -0.000013249               0.999999999              -0.000001842              -0.000014425               0.999999999              -0.000002458              -0.000015881               0.999999999              -0.000003419              -0.000017650               0.999999999              -0.000004767              -0.000019615               0.999999999              -0.000006476              -0.000021617               0.999999999              -0.000008558              -0.000023708               0.999999999              -0.000011082              -0.000026067               0.999999999              -0.000014102              -0.000028596               0.999999999              -0.000017605              -0.000031307               0.999999999              -0.000021647              -0.000034345               0.999999999               0.000007906              -0.000024333               0.999999999               0.000003567              -0.000022088               0.999999999               0.000001533              -0.000021652               0.999999999               0.000000431              -0.000022191               0.999999999              -0.000000311              -0.000023308               0.999999999              -0.000000945              -0.000024811               0.999999999              -0.000001667              -0.000026750               0.999999999              -0.000002545              -0.000029096               0.999999999              -0.000003729              -0.000032119               0.999999999              -0.000005326              -0.000035600               0.999999999              -0.000007257              -0.000039425               0.999999999              -0.000009577              -0.000043301               0.999999999              -0.000012285              -0.000047424               0.999999999              -0.000015343              -0.000052046               0.999999999              -0.000018851              -0.000056899               0.999999999              -0.000022865              -0.000062097               0.999999999              -0.000027351              -0.000067713               0.999999999               0.000007559              -0.000036176               0.999999999               0.000003963              -0.000032819               0.999999999               0.000002241              -0.000032302               0.999999999               0.000001141              -0.000033262               0.999999999               0.000000212              -0.000035100               0.999999999              -0.000000842              -0.000037540               0.999999999              -0.000002078              -0.000040590               0.999999999              -0.000003661              -0.000044320               0.999999999              -0.000005701              -0.000048876               0.999999999              -0.000008112              -0.000054085               0.999999999              -0.000010880              -0.000059606               0.999999999              -0.000013972              -0.000065269               0.999999999              -0.000017423              -0.000071354               0.999999999              -0.000021256              -0.000077995               0.999999999              -0.000025478              -0.000084918               0.999999999              -0.000030066              -0.000092279               0.999999999              -0.000035055              -0.000100041               0.999999999               0.000007117              -0.000047672               0.999999999               0.000004444              -0.000043187               0.999999999               0.000003069              -0.000042729               0.999999999               0.000001927              -0.000044276               0.999999999               0.000000669              -0.000046977               0.999999999              -0.000000831              -0.000050521               0.999999999              -0.000002728              -0.000054838               0.999999999              -0.000005131              -0.000060110               0.999999999              -0.000008028              -0.000066334               0.999999999              -0.000011389              -0.000073180               0.999999999              -0.000015019              -0.000080369               0.999999999              -0.000018948              -0.000087682               0.999999999              -0.000023232              -0.000095657               0.999999999              -0.000027803              -0.000104214               0.999999999              -0.000032718              -0.000113211               0.999999999              -0.000038038              -0.000122719               0.999999999              -0.000043847              -0.000132700               0.999999999               0.000006529              -0.000058649               0.999999999               0.000005020              -0.000053146               0.999999999               0.000003899              -0.000052869               0.999999999               0.000002579              -0.000055145               0.999999999               0.000000956              -0.000058821               0.999999999              -0.000001099              -0.000063612               0.999999999              -0.000003694              -0.000069424               0.999999999              -0.000006897              -0.000076394               0.999999999              -0.000010666              -0.000084371               0.999999999              -0.000014857              -0.000092932               0.999999999              -0.000019305              -0.000101691               0.999999999              -0.000024067              -0.000110855               0.999999999              -0.000029187              -0.000120836               0.999999999              -0.000034704              -0.000131448               0.999999999              -0.000040611              -0.000142642               0.999999999              -0.000046998              -0.000154504               0.999999999              -0.000053893              -0.000166969               0.999999999               0.000005849              -0.000068991               0.999999999               0.000005622              -0.000062648               0.999999999               0.000004617              -0.000062701               0.999999999               0.000003020              -0.000065754               0.999999999               0.000000925              -0.000070533               0.999999999              -0.000001721              -0.000076699               0.999999999              -0.000005001              -0.000084136               0.999999999              -0.000008997              -0.000093003               0.999999999              -0.000013553              -0.000102766               0.999999999              -0.000018473              -0.000113093               0.999999999              -0.000023673              -0.000123809               0.999999999              -0.000029198              -0.000135146               0.999999999              -0.000035159              -0.000147500               0.999999999              -0.000041576              -0.000160728               0.999999999              -0.000048482              -0.000174582               0.999999999              -0.000055892              -0.000189236               0.999999999              -0.000063790              -0.000204752               0.999999999               0.000005147              -0.000078637               0.999999999               0.000006153              -0.000071660               0.999999999               0.000005164              -0.000072151               0.999999999               0.000003178              -0.000076039               0.999999999               0.000000579              -0.000082016               0.999999999              -0.000002648              -0.000089642               0.999999999              -0.000006671              -0.000098911               0.999999999              -0.000011458              -0.000109652               0.999999999              -0.000016719              -0.000121348               0.999999999              -0.000022250              -0.000133743               0.999999999              -0.000028000              -0.000146825               0.999999999              -0.000034113              -0.000160974               0.999999999              -0.000040733              -0.000176489               0.999999999              -0.000047946              -0.000192913               0.999999999              -0.000055803              -0.000210158               0.999999999              -0.000064212              -0.000228406               0.999999999              -0.000073150              -0.000247484               0.999999999               0.000004357              -0.000087384               0.999999999               0.000006617              -0.000080195               0.999999999               0.000005441              -0.000081141               0.999999999               0.000003065              -0.000085947               0.999999999               0.000000006              -0.000093196               0.999999999              -0.000003842              -0.000102440               0.999999999              -0.000008621              -0.000113660               0.999999999              -0.000014128              -0.000126383               0.999999999              -0.000019879              -0.000140259               0.999999999              -0.000025779              -0.000155147               0.999999999              -0.000031899              -0.000171413               0.999999999              -0.000038508              -0.000189169               0.999999999              -0.000045868              -0.000208239               0.999999999              -0.000053890              -0.000228467               0.999999999              -0.000062498              -0.000249770               0.999999999              -0.000071731              -0.000272073               0.999999999              -0.000081302              -0.000295075               0.999999999               0.000003402              -0.000095498               0.999999999               0.000006739              -0.000088847               0.999999999               0.000006031              -0.000089039               0.999999999               0.000004022              -0.000092959               0.999999999               0.000001364              -0.000099304               0.999999999              -0.000001871              -0.000107560               0.999999999              -0.000005935              -0.000117590               0.999999999              -0.000010689              -0.000129138               0.999999999              -0.000015714              -0.000142008               0.999999999              -0.000020790              -0.000156056               0.999999999              -0.000025855              -0.000171295               0.999999999              -0.000031231              -0.000187684               0.999999999              -0.000037158              -0.000205441               0.999999999              -0.000043502              -0.000224466               0.999999999              -0.000050328              -0.000244590               0.999999999              -0.000057845              -0.000265654               0.999999999              -0.000065786              -0.000287633               0.999999999               0.000002548              -0.000102800               0.999999999               0.000006482              -0.000097030               0.999999999               0.000006293              -0.000096886               0.999999999               0.000004745              -0.000100122               0.999999999               0.000002555              -0.000105683               0.999999999              -0.000000104              -0.000113084               0.999999999              -0.000003444              -0.000122097               0.999999999              -0.000007320              -0.000132600               0.999999999              -0.000011556              -0.000144490               0.999999999              -0.000016016              -0.000157616               0.999999999              -0.000020369              -0.000171849               0.999999999              -0.000024666              -0.000187236               0.999999999              -0.000029261              -0.000203805               0.999999999              -0.000034269              -0.000221535               0.999999999              -0.000039563              -0.000240411               0.999999999              -0.000045245              -0.000260237               0.999999999              -0.000051477              -0.000280929               0.999999999               0.000001775              -0.000109099               0.999999999               0.000005905              -0.000104579               0.999999999               0.000006159              -0.000104386               0.999999999               0.000005083              -0.000107175               0.999999999               0.000003418              -0.000112157               0.999999999               0.000001318              -0.000118819               0.999999999              -0.000001277              -0.000127006               0.999999999              -0.000004366              -0.000136637               0.999999999              -0.000007848              -0.000147570               0.999999999              -0.000011623              -0.000159788               0.999999999              -0.000015309              -0.000173197               0.999999999              -0.000018830              -0.000187740               0.999999999              -0.000022369              -0.000203348               0.999999999              -0.000026182              -0.000219988               0.999999999              -0.000030056              -0.000237625               0.999999999              -0.000034076              -0.000256247               0.999999999              -0.000038571              -0.000275711               0.999999999               0.000001139              -0.000114326               0.999999999               0.000005050              -0.000111196               0.999999999               0.000005584              -0.000111261               0.999999999               0.000004961              -0.000113812               0.999999999               0.000003792              -0.000118388               0.999999999               0.000002271              -0.000124498               0.999999999               0.000000300              -0.000132040               0.999999999              -0.000002086              -0.000140928               0.999999999              -0.000004830              -0.000151099               0.999999999              -0.000007752              -0.000162573               0.999999999              -0.000010777              -0.000175306               0.999999999              -0.000013617              -0.000189185               0.999999999              -0.000016367              -0.000204001               0.999999999              -0.000019118              -0.000219716               0.999999999              -0.000021822              -0.000236272               0.999999999              -0.000024536              -0.000253720               0.999999999              -0.000027423              -0.000272046               0.999999999               0.000000694              -0.000118496               0.999999999               0.000003971              -0.000116649               0.999999999               0.000004599              -0.000117129               0.999999999               0.000004324              -0.000119667               0.999999999               0.000003602              -0.000123953               0.999999999               0.000002566              -0.000129696               0.999999999               0.000001151              -0.000136821               0.999999999              -0.000000549              -0.000145188               0.999999999              -0.000002476              -0.000154845               0.999999999              -0.000004639              -0.000165795               0.999999999              -0.000006948              -0.000177939               0.999999999              -0.000009182              -0.000191179               0.999999999              -0.000011263              -0.000205320               0.999999999              -0.000013089              -0.000220246               0.999999999              -0.000014837              -0.000236043               0.999999999              -0.000016585              -0.000252685               0.999999999              -0.000018228              -0.000270167               0.999999999               0.000000378              -0.000121486               0.999999999               0.000002715              -0.000120732               0.999999999               0.000003295              -0.000121635               0.999999999               0.000003188              -0.000124267               0.999999999               0.000002812              -0.000128409               0.999999999               0.000002192              -0.000133949               0.999999999               0.000001299              -0.000140839               0.999999999               0.000000260              -0.000148957               0.999999999              -0.000000979              -0.000158252               0.999999999              -0.000002479              -0.000168769               0.999999999              -0.000004002              -0.000180506               0.999999999              -0.000005513              -0.000193259               0.999999999              -0.000006884              -0.000206864               0.999999999              -0.000007994              -0.000221279               0.999999999              -0.000009034              -0.000236603               0.999999999              -0.000010070              -0.000252775               0.999999999              -0.000010884              -0.000269790               0.999999999               0.000000157              -0.000123272               0.999999999               0.000001373              -0.000123266               0.999999999               0.000001726              -0.000124474               0.999999999               0.000001684              -0.000127210               0.999999999               0.000001546              -0.000131332               0.999999999               0.000001241              -0.000136768               0.999999999               0.000000865              -0.000143534               0.999999999               0.000000353              -0.000151533               0.999999999              -0.000000335              -0.000160668               0.999999999              -0.000001020              -0.000170954               0.999999999              -0.000001770              -0.000182383               0.999999999              -0.000002496              -0.000194813               0.999999999              -0.000003185              -0.000208164               0.999999999              -0.000003782              -0.000222417               0.999999999              -0.000004286              -0.000237500               0.999999999              -0.000004699              -0.000253347               0.999999999              -0.000004947              -0.000270086               0.999999999               0.000000000              -0.000123880               0.999999999              -0.000000000              -0.000124125               0.999999999               0.000000000              -0.000125437               0.999999999               0.000000000              -0.000128244               0.999999999               0.000000000              -0.000132343               0.999999999              -0.000000000              -0.000137741               0.999999999               0.000000000              -0.000144498               0.999999999               0.000000000              -0.000152435               0.999999999              -0.000000000              -0.000161570               0.999999999              -0.000000000              -0.000171821               0.999999999              -0.000000000              -0.000183063               0.999999999              -0.000000000              -0.000195387               0.999999999              -0.000000000              -0.000208743               0.999999999              -0.000000000              -0.000222909               0.999999999              -0.000000000              -0.000237854               0.999999999              -0.000000000              -0.000253664               0.999999999               0.000000000              -0.000270369               0.999999999              -0.000008156              -0.000000000               0.999999999              -0.000003238              -0.000000000               0.999999999              -0.000000921              -0.000000000               0.999999999               0.000000243              -0.000000000               0.999999999               0.000000826              -0.000000000               0.999999999               0.000001147              -0.000000000               0.999999999               0.000001349              -0.000000000               0.999999999               0.000001584              -0.000000000               0.999999999               0.000002016              -0.000000000               0.999999999               0.000002744              -0.000000000               0.999999999               0.000003853              -0.000000000               0.999999999               0.000005363              -0.000000000               0.999999999               0.000007279              -0.000000000               0.999999999               0.000009589              -0.000000000               0.999999999               0.000012314              -0.000000000               0.999999999               0.000015619               0.000000000               0.999999999               0.000019541               0.000000000               0.999999999              -0.000008118              -0.000012242               0.999999999              -0.000003319              -0.000011100               0.999999999              -0.000001061              -0.000010875               0.999999999               0.000000059              -0.000011085               0.999999999               0.000000693              -0.000011625               0.999999999               0.000001092              -0.000012333               0.999999999               0.000001427              -0.000013249               0.999999999               0.000001842              -0.000014425               0.999999999               0.000002458              -0.000015881               0.999999999               0.000003419              -0.000017650               0.999999999               0.000004767              -0.000019615               0.999999999               0.000006476              -0.000021617               0.999999999               0.000008558              -0.000023708               0.999999999               0.000011082              -0.000026067               0.999999999               0.000014102              -0.000028596               0.999999999               0.000017605              -0.000031307               0.999999999               0.000021647              -0.000034345               0.999999999              -0.000007906              -0.000024333               0.999999999              -0.000003567              -0.000022088               0.999999999              -0.000001533              -0.000021652               0.999999999              -0.000000431              -0.000022191               0.999999999               0.000000311              -0.000023308               0.999999999               0.000000945              -0.000024811               0.999999999               0.000001667              -0.000026750               0.999999999               0.000002545              -0.000029096               0.999999999               0.000003729              -0.000032119               0.999999999               0.000005326              -0.000035600               0.999999999               0.000007257              -0.000039425               0.999999999               0.000009577              -0.000043301               0.999999999               0.000012285              -0.000047424               0.999999999               0.000015343              -0.000052046               0.999999999               0.000018851              -0.000056899               0.999999999               0.000022865              -0.000062097               0.999999999               0.000027351              -0.000067713               0.999999999              -0.000007559              -0.000036176               0.999999999              -0.000003963              -0.000032819               0.999999999              -0.000002241              -0.000032302               0.999999999              -0.000001141              -0.000033262               0.999999999              -0.000000212              -0.000035100               0.999999999               0.000000842              -0.000037540               0.999999999               0.000002078              -0.000040590               0.999999999               0.000003661              -0.000044320               0.999999999               0.000005701              -0.000048876               0.999999999               0.000008112              -0.000054085               0.999999999               0.000010880              -0.000059606               0.999999999               0.000013972              -0.000065269               0.999999999               0.000017423              -0.000071354               0.999999999               0.000021256              -0.000077995               0.999999999               0.000025478              -0.000084918               0.999999999               0.000030066              -0.000092279               0.999999999               0.000035055              -0.000100041               0.999999999              -0.000007117              -0.000047672               0.999999999              -0.000004444              -0.000043187               0.999999999              -0.000003069              -0.000042729               0.999999999              -0.000001927              -0.000044276               0.999999999              -0.000000669              -0.000046977               0.999999999               0.000000831              -0.000050521               0.999999999               0.000002728              -0.000054838               0.999999999               0.000005131              -0.000060110               0.999999999               0.000008028              -0.000066334               0.999999999               0.000011389              -0.000073180               0.999999999               0.000015019              -0.000080369               0.999999999               0.000018948              -0.000087682               0.999999999               0.000023232              -0.000095657               0.999999999               0.000027803              -0.000104214               0.999999999               0.000032718              -0.000113211               0.999999999               0.000038038              -0.000122719               0.999999999               0.000043847              -0.000132700               0.999999999              -0.000006529              -0.000058649               0.999999999              -0.000005020              -0.000053146               0.999999999              -0.000003899              -0.000052869               0.999999999              -0.000002579              -0.000055145               0.999999999              -0.000000956              -0.000058821               0.999999999               0.000001099              -0.000063612               0.999999999               0.000003694              -0.000069424               0.999999999               0.000006897              -0.000076394               0.999999999               0.000010666              -0.000084371               0.999999999               0.000014857              -0.000092932               0.999999999               0.000019305              -0.000101691               0.999999999               0.000024067              -0.000110855               0.999999999               0.000029187              -0.000120836               0.999999999               0.000034704              -0.000131448               0.999999999               0.000040611              -0.000142642               0.999999999               0.000046998              -0.000154504               0.999999999               0.000053893              -0.000166969               0.999999999              -0.000005849              -0.000068991               0.999999999              -0.000005622              -0.000062648               0.999999999              -0.000004617              -0.000062701               0.999999999              -0.000003020              -0.000065754               0.999999999              -0.000000925              -0.000070533               0.999999999               0.000001721              -0.000076699               0.999999999               0.000005001              -0.000084136               0.999999999               0.000008997              -0.000093003               0.999999999               0.000013553              -0.000102766               0.999999999               0.000018473              -0.000113093               0.999999999               0.000023673              -0.000123809               0.999999999               0.000029198              -0.000135146               0.999999999               0.000035159              -0.000147500               0.999999999               0.000041576              -0.000160728               0.999999999               0.000048482              -0.000174582               0.999999999               0.000055892              -0.000189236               0.999999999               0.000063790              -0.000204752               0.999999999              -0.000005147              -0.000078637               0.999999999              -0.000006153              -0.000071660               0.999999999              -0.000005164              -0.000072151               0.999999999              -0.000003178              -0.000076039               0.999999999              -0.000000579              -0.000082016               0.999999999               0.000002648              -0.000089642               0.999999999               0.000006671              -0.000098911               0.999999999               0.000011458              -0.000109652               0.999999999               0.000016719              -0.000121348               0.999999999               0.000022250              -0.000133743               0.999999999               0.000028000              -0.000146825               0.999999999               0.000034113              -0.000160974               0.999999999               0.000040733              -0.000176489               0.999999999               0.000047946              -0.000192913               0.999999999               0.000055803              -0.000210158               0.999999999               0.000064212              -0.000228406               0.999999999               0.000073150              -0.000247484               0.999999999              -0.000004357              -0.000087384               0.999999999              -0.000006617              -0.000080195               0.999999999              -0.000005441              -0.000081141               0.999999999              -0.000003065              -0.000085947               0.999999999              -0.000000006              -0.000093196               0.999999999               0.000003842              -0.000102440               0.999999999               0.000008621              -0.000113660               0.999999999               0.000014128              -0.000126383               0.999999999               0.000019879              -0.000140259               0.999999999               0.000025779              -0.000155147               0.999999999               0.000031899              -0.000171413               0.999999999               0.000038508              -0.000189169               0.999999999               0.000045868              -0.000208239               0.999999999               0.000053890              -0.000228467               0.999999999               0.000062498              -0.000249770               0.999999999               0.000071731              -0.000272073               0.999999999               0.000081302              -0.000295075               0.999999999              -0.000003402              -0.000095498               0.999999999              -0.000006739              -0.000088847               0.999999999              -0.000006031              -0.000089039               0.999999999              -0.000004022              -0.000092959               0.999999999              -0.000001364              -0.000099304               0.999999999               0.000001871              -0.000107560               0.999999999               0.000005935              -0.000117590               0.999999999               0.000010689              -0.000129138               0.999999999               0.000015714              -0.000142008               0.999999999               0.000020790              -0.000156056               0.999999999               0.000025855              -0.000171295               0.999999999               0.000031231              -0.000187684               0.999999999               0.000037158              -0.000205441               0.999999999               0.000043502              -0.000224466               0.999999999               0.000050328              -0.000244590               0.999999999               0.000057845              -0.000265654               0.999999999               0.000065786              -0.000287633               0.999999999              -0.000002548              -0.000102800               0.999999999              -0.000006482              -0.000097030               0.999999999              -0.000006293              -0.000096886               0.999999999              -0.000004745              -0.000100122               0.999999999              -0.000002555              -0.000105683               0.999999999               0.000000104              -0.000113084               0.999999999               0.000003444              -0.000122097               0.999999999               0.000007320              -0.000132600               0.999999999               0.000011556              -0.000144490               0.999999999               0.000016016              -0.000157616               0.999999999               0.000020369              -0.000171849               0.999999999               0.000024666              -0.000187236               0.999999999               0.000029261              -0.000203805               0.999999999               0.000034269              -0.000221535               0.999999999               0.000039563              -0.000240411               0.999999999               0.000045245              -0.000260237               0.999999999               0.000051477              -0.000280929               0.999999999              -0.000001775              -0.000109099               0.999999999              -0.000005905              -0.000104579               0.999999999              -0.000006159              -0.000104386               0.999999999              -0.000005083              -0.000107175               0.999999999              -0.000003418              -0.000112157               0.999999999              -0.000001318              -0.000118819               0.999999999               0.000001277              -0.000127006               0.999999999               0.000004366              -0.000136637               0.999999999               0.000007848              -0.000147570               0.999999999               0.000011623              -0.000159788               0.999999999               0.000015309              -0.000173197               0.999999999               0.000018830              -0.000187740               0.999999999               0.000022369              -0.000203348               0.999999999               0.000026182              -0.000219988               0.999999999               0.000030056              -0.000237625               0.999999999               0.000034076              -0.000256247               0.999999999               0.000038571              -0.000275711               0.999999999              -0.000001139              -0.000114326               0.999999999              -0.000005050              -0.000111196               0.999999999              -0.000005584              -0.000111261               0.999999999              -0.000004961              -0.000113812               0.999999999              -0.000003792              -0.000118388               0.999999999              -0.000002271              -0.000124498               0.999999999              -0.000000300              -0.000132040               0.999999999               0.000002086              -0.000140928               0.999999999               0.000004830              -0.000151099               0.999999999               0.000007752              -0.000162573               0.999999999               0.000010777              -0.000175306               0.999999999               0.000013617              -0.000189185               0.999999999               0.000016367              -0.000204001               0.999999999               0.000019118              -0.000219716               0.999999999               0.000021822              -0.000236272               0.999999999               0.000024536              -0.000253720               0.999999999               0.000027423              -0.000272046               0.999999999              -0.000000694              -0.000118496               0.999999999              -0.000003971              -0.000116649               0.999999999              -0.000004599              -0.000117129               0.999999999              -0.000004324              -0.000119667               0.999999999              -0.000003602              -0.000123953               0.999999999              -0.000002566              -0.000129696               0.999999999              -0.000001151              -0.000136821               0.999999999               0.000000549              -0.000145188               0.999999999               0.000002476              -0.000154845               0.999999999               0.000004639              -0.000165795               0.999999999               0.000006948              -0.000177939               0.999999999               0.000009182              -0.000191179               0.999999999               0.000011263              -0.000205320               0.999999999               0.000013089              -0.000220246               0.999999999               0.000014837              -0.000236043               0.999999999               0.000016585              -0.000252685               0.999999999               0.000018228              -0.000270167               0.999999999              -0.000000378              -0.000121486               0.999999999              -0.000002715              -0.000120732               0.999999999              -0.000003295              -0.000121635               0.999999999              -0.000003188              -0.000124267               0.999999999              -0.000002812              -0.000128409               0.999999999              -0.000002192              -0.000133949               0.999999999              -0.000001299              -0.000140839               0.999999999              -0.000000260              -0.000148957               0.999999999               0.000000979              -0.000158252               0.999999999               0.000002479              -0.000168769               0.999999999               0.000004002              -0.000180506               0.999999999               0.000005513              -0.000193259               0.999999999               0.000006884              -0.000206864               0.999999999               0.000007994              -0.000221279               0.999999999               0.000009034              -0.000236603               0.999999999               0.000010070              -0.000252775               0.999999999               0.000010884              -0.000269790               0.999999999              -0.000000157              -0.000123272               0.999999999              -0.000001373              -0.000123266               0.999999999              -0.000001726              -0.000124474               0.999999999              -0.000001684              -0.000127210               0.999999999              -0.000001546              -0.000131332               0.999999999              -0.000001241              -0.000136768               0.999999999              -0.000000865              -0.000143534               0.999999999              -0.000000353              -0.000151533               0.999999999               0.000000335              -0.000160668               0.999999999               0.000001020              -0.000170954               0.999999999               0.000001770              -0.000182383               0.999999999               0.000002496              -0.000194813               0.999999999               0.000003185              -0.000208164               0.999999999               0.000003782              -0.000222417               0.999999999               0.000004286              -0.000237500               0.999999999               0.000004699              -0.000253347               0.999999999               0.000004947              -0.000270086               0.999999999               0.000000000              -0.000123880               0.999999999              -0.000000000              -0.000124125               0.999999999               0.000000000              -0.000125437               0.999999999               0.000000000              -0.000128244               0.999999999               0.000000000              -0.000132343               0.999999999              -0.000000000              -0.000137741               0.999999999               0.000000000              -0.000144498               0.999999999               0.000000000              -0.000152435               0.999999999              -0.000000000              -0.000161570               0.999999999              -0.000000000              -0.000171821               0.999999999              -0.000000000              -0.000183063               0.999999999              -0.000000000              -0.000195387               0.999999999              -0.000000000              -0.000208743               0.999999999              -0.000000000              -0.000222909               0.999999999              -0.000000000              -0.000237854               0.999999999              -0.000000000              -0.000253664               0.999999999               0.000000000              -0.000270369               0.999999999              -0.000008156              -0.000000000               0.999999999              -0.000003238              -0.000000000               0.999999999              -0.000000921              -0.000000000               0.999999999               0.000000243              -0.000000000               0.999999999               0.000000826              -0.000000000               0.999999999               0.000001147              -0.000000000               0.999999999               0.000001349              -0.000000000               0.999999999               0.000001584              -0.000000000               0.999999999               0.000002016              -0.000000000               0.999999999               0.000002744              -0.000000000               0.999999999               0.000003853              -0.000000000               0.999999999               0.000005363              -0.000000000               0.999999999               0.000007279              -0.000000000               0.999999999               0.000009589              -0.000000000               0.999999999               0.000012314              -0.000000000               0.999999999               0.000015619               0.000000000               0.999999999               0.000019541               0.000000000               0.999999999              -0.000008118               0.000012242               0.999999999              -0.000003319               0.000011100               0.999999999              -0.000001061               0.000010875               0.999999999               0.000000059               0.000011085               0.999999999               0.000000693               0.000011625               0.999999999               0.000001092               0.000012333               0.999999999               0.000001427               0.000013249               0.999999999               0.000001842               0.000014425               0.999999999               0.000002458               0.000015881               0.999999999               0.000003419               0.000017650               0.999999999               0.000004767               0.000019615               0.999999999               0.000006476               0.000021617               0.999999999               0.000008558               0.000023708               0.999999999               0.000011082               0.000026067               0.999999999               0.000014102               0.000028596               0.999999999               0.000017605               0.000031307               0.999999999               0.000021647               0.000034345               0.999999999              -0.000007906               0.000024333               0.999999999              -0.000003567               0.000022088               0.999999999              -0.000001533               0.000021652               0.999999999              -0.000000431               0.000022191               0.999999999               0.000000311               0.000023308               0.999999999               0.000000945               0.000024811               0.999999999               0.000001667               0.000026750               0.999999999               0.000002545               0.000029096               0.999999999               0.000003729               0.000032119               0.999999999               0.000005326               0.000035600               0.999999999               0.000007257               0.000039425               0.999999999               0.000009577               0.000043301               0.999999999               0.000012285               0.000047424               0.999999999               0.000015343               0.000052046               0.999999999               0.000018851               0.000056899               0.999999999               0.000022865               0.000062097               0.999999999               0.000027351               0.000067713               0.999999999              -0.000007559               0.000036176               0.999999999              -0.000003963               0.000032819               0.999999999              -0.000002241               0.000032302               0.999999999              -0.000001141               0.000033262               0.999999999              -0.000000212               0.000035100               0.999999999               0.000000842               0.000037540               0.999999999               0.000002078               0.000040590               0.999999999               0.000003661               0.000044320               0.999999999               0.000005701               0.000048876               0.999999999               0.000008112               0.000054085               0.999999999               0.000010880               0.000059606               0.999999999               0.000013972               0.000065269               0.999999999               0.000017423               0.000071354               0.999999999               0.000021256               0.000077995               0.999999999               0.000025478               0.000084918               0.999999999               0.000030066               0.000092279               0.999999999               0.000035055               0.000100041               0.999999999              -0.000007117               0.000047672               0.999999999              -0.000004444               0.000043187               0.999999999              -0.000003069               0.000042729               0.999999999              -0.000001927               0.000044276               0.999999999              -0.000000669               0.000046977               0.999999999               0.000000831               0.000050521               0.999999999               0.000002728               0.000054838               0.999999999               0.000005131               0.000060110               0.999999999               0.000008028               0.000066334               0.999999999               0.000011389               0.000073180               0.999999999               0.000015019               0.000080369               0.999999999               0.000018948               0.000087682               0.999999999               0.000023232               0.000095657               0.999999999               0.000027803               0.000104214               0.999999999               0.000032718               0.000113211               0.999999999               0.000038038               0.000122719               0.999999999               0.000043847               0.000132700               0.999999999              -0.000006529               0.000058649               0.999999999              -0.000005020               0.000053146               0.999999999              -0.000003899               0.000052869               0.999999999              -0.000002579               0.000055145               0.999999999              -0.000000956               0.000058821               0.999999999               0.000001099               0.000063612               0.999999999               0.000003694               0.000069424               0.999999999               0.000006897               0.000076394               0.999999999               0.000010666               0.000084371               0.999999999               0.000014857               0.000092932               0.999999999               0.000019305               0.000101691               0.999999999               0.000024067               0.000110855               0.999999999               0.000029187               0.000120836               0.999999999               0.000034704               0.000131448               0.999999999               0.000040611               0.000142642               0.999999999               0.000046998               0.000154504               0.999999999               0.000053893               0.000166969               0.999999999              -0.000005849               0.000068991               0.999999999              -0.000005622               0.000062648               0.999999999              -0.000004617               0.000062701               0.999999999              -0.000003020               0.000065754               0.999999999              -0.000000925               0.000070533               0.999999999               0.000001721               0.000076699               0.999999999               0.000005001               0.000084136               0.999999999               0.000008997               0.000093003               0.999999999               0.000013553               0.000102766               0.999999999               0.000018473               0.000113093               0.999999999               0.000023673               0.000123809               0.999999999               0.000029198               0.000135146               0.999999999               0.000035159               0.000147500               0.999999999               0.000041576               0.000160728               0.999999999               0.000048482               0.000174582               0.999999999               0.000055892               0.000189236               0.999999999               0.000063790               0.000204752               0.999999999              -0.000005147               0.000078637               0.999999999              -0.000006153               0.000071660               0.999999999              -0.000005164               0.000072151               0.999999999              -0.000003178               0.000076039               0.999999999              -0.000000579               0.000082016               0.999999999               0.000002648               0.000089642               0.999999999               0.000006671               0.000098911               0.999999999               0.000011458               0.000109652               0.999999999               0.000016719               0.000121348               0.999999999               0.000022250               0.000133743               0.999999999               0.000028000               0.000146825               0.999999999               0.000034113               0.000160974               0.999999999               0.000040733               0.000176489               0.999999999               0.000047946               0.000192913               0.999999999               0.000055803               0.000210158               0.999999999               0.000064212               0.000228406               0.999999999               0.000073150               0.000247484               0.999999999              -0.000004357               0.000087384               0.999999999              -0.000006617               0.000080195               0.999999999              -0.000005441               0.000081141               0.999999999              -0.000003065               0.000085947               0.999999999              -0.000000006               0.000093196               0.999999999               0.000003842               0.000102440               0.999999999               0.000008621               0.000113660               0.999999999               0.000014128               0.000126383               0.999999999               0.000019879               0.000140259               0.999999999               0.000025779               0.000155147               0.999999999               0.000031899               0.000171413               0.999999999               0.000038508               0.000189169               0.999999999               0.000045868               0.000208239               0.999999999               0.000053890               0.000228467               0.999999999               0.000062498               0.000249770               0.999999999               0.000071731               0.000272073               0.999999999               0.000081302               0.000295075               0.999999999              -0.000003402               0.000095498               0.999999999              -0.000006739               0.000088847               0.999999999              -0.000006031               0.000089039               0.999999999              -0.000004022               0.000092959               0.999999999              -0.000001364               0.000099304               0.999999999               0.000001871               0.000107560               0.999999999               0.000005935               0.000117590               0.999999999               0.000010689               0.000129138               0.999999999               0.000015714               0.000142008               0.999999999               0.000020790               0.000156056               0.999999999               0.000025855               0.000171295               0.999999999               0.000031231               0.000187684               0.999999999               0.000037158               0.000205441               0.999999999               0.000043502               0.000224466               0.999999999               0.000050328               0.000244590               0.999999999               0.000057845               0.000265654               0.999999999               0.000065786               0.000287633               0.999999999              -0.000002548               0.000102800               0.999999999              -0.000006482               0.000097030               0.999999999              -0.000006293               0.000096886               0.999999999              -0.000004745               0.000100122               0.999999999              -0.000002555               0.000105683               0.999999999               0.000000104               0.000113084               0.999999999               0.000003444               0.000122097               0.999999999               0.000007320               0.000132600               0.999999999               0.000011556               0.000144490               0.999999999               0.000016016               0.000157616               0.999999999               0.000020369               0.000171849               0.999999999               0.000024666               0.000187236               0.999999999               0.000029261               0.000203805               0.999999999               0.000034269               0.000221535               0.999999999               0.000039563               0.000240411               0.999999999               0.000045245               0.000260237               0.999999999               0.000051477               0.000280929               0.999999999              -0.000001775               0.000109099               0.999999999              -0.000005905               0.000104579               0.999999999              -0.000006159               0.000104386               0.999999999              -0.000005083               0.000107175               0.999999999              -0.000003418               0.000112157               0.999999999              -0.000001318               0.000118819               0.999999999               0.000001277               0.000127006               0.999999999               0.000004366               0.000136637               0.999999999               0.000007848               0.000147570               0.999999999               0.000011623               0.000159788               0.999999999               0.000015309               0.000173197               0.999999999               0.000018830               0.000187740               0.999999999               0.000022369               0.000203348               0.999999999               0.000026182               0.000219988               0.999999999               0.000030056               0.000237625               0.999999999               0.000034076               0.000256247               0.999999999               0.000038571               0.000275711               0.999999999              -0.000001139               0.000114326               0.999999999              -0.000005050               0.000111196               0.999999999              -0.000005584               0.000111261               0.999999999              -0.000004961               0.000113812               0.999999999              -0.000003792               0.000118388               0.999999999              -0.000002271               0.000124498               0.999999999              -0.000000300               0.000132040               0.999999999               0.000002086               0.000140928               0.999999999               0.000004830               0.000151099               0.999999999               0.000007752               0.000162573               0.999999999               0.000010777               0.000175306               0.999999999               0.000013617               0.000189185               0.999999999               0.000016367               0.000204001               0.999999999               0.000019118               0.000219716               0.999999999               0.000021822               0.000236272               0.999999999               0.000024536               0.000253720               0.999999999               0.000027423               0.000272046               0.999999999              -0.000000694               0.000118496               0.999999999              -0.000003971               0.000116649               0.999999999              -0.000004599               0.000117129               0.999999999              -0.000004324               0.000119667               0.999999999              -0.000003602               0.000123953               0.999999999              -0.000002566               0.000129696               0.999999999              -0.000001151               0.000136821               0.999999999               0.000000549               0.000145188               0.999999999               0.000002476               0.000154845               0.999999999               0.000004639               0.000165795               0.999999999               0.000006948               0.000177939               0.999999999               0.000009182               0.000191179               0.999999999               0.000011263               0.000205320               0.999999999               0.000013089               0.000220246               0.999999999               0.000014837               0.000236043               0.999999999               0.000016585               0.000252685               0.999999999               0.000018228               0.000270167               0.999999999              -0.000000378               0.000121486               0.999999999              -0.000002715               0.000120732               0.999999999              -0.000003295               0.000121635               0.999999999              -0.000003188               0.000124267               0.999999999              -0.000002812               0.000128409               0.999999999              -0.000002192               0.000133949               0.999999999              -0.000001299               0.000140839               0.999999999              -0.000000260               0.000148957               0.999999999               0.000000979               0.000158252               0.999999999               0.000002479               0.000168769               0.999999999               0.000004002               0.000180506               0.999999999               0.000005513               0.000193259               0.999999999               0.000006884               0.000206864               0.999999999               0.000007994               0.000221279               0.999999999               0.000009034               0.000236603               0.999999999               0.000010070               0.000252775               0.999999999               0.000010884               0.000269790               0.999999999              -0.000000157               0.000123272               0.999999999              -0.000001373               0.000123266               0.999999999              -0.000001726               0.000124474               0.999999999              -0.000001684               0.000127210               0.999999999              -0.000001546               0.000131332               0.999999999              -0.000001241               0.000136768               0.999999999              -0.000000865               0.000143534               0.999999999              -0.000000353               0.000151533               0.999999999               0.000000335               0.000160668               0.999999999               0.000001020               0.000170954               0.999999999               0.000001770               0.000182383               0.999999999               0.000002496               0.000194813               0.999999999               0.000003185               0.000208164               0.999999999               0.000003782               0.000222417               0.999999999               0.000004286               0.000237500               0.999999999               0.000004699               0.000253347               0.999999999               0.000004947               0.000270086               0.999999999               0.000000000               0.000123880               0.999999999              -0.000000000               0.000124125               0.999999999              -0.000000000               0.000125437               0.999999999              -0.000000000               0.000128244               0.999999999              -0.000000000               0.000132343               0.999999999              -0.000000000               0.000137741               0.999999999               0.000000000               0.000144498               0.999999999               0.000000000               0.000152435               0.999999999               0.000000000               0.000161570               0.999999999               0.000000000               0.000171821               0.999999999               0.000000000               0.000183063               0.999999999               0.000000000               0.000195387               0.999999999               0.000000000               0.000208743               0.999999999               0.000000000               0.000222909               0.999999999              -0.000000000               0.000237854               0.999999999              -0.000000000               0.000253664               0.999999999              -0.000000000               0.000270369               0.999999999 </DataArray>
<DataArray type="Float64"                                    Name="stress"                                                      NumberOfComponents="10" format="ascii">
              0.000204286               0.002310150               0.000000000              -0.000212161               0.000840763               0.000628602               0.000000000               0.000000000               0.000000000               0.000000000               0.000238147               0.001935853              -0.000000000              -0.000152676               0.000696170               0.000543494               0.000000000               0.000000000               0.000000000               0.000000000               0.000346967               0.001632621              -0.000000000              -0.000073965               0.000568857               0.000494892               0.000000000               0.000000000               0.000000000               0.000000000               0.000385319               0.001458867              -0.000000000              -0.000037864               0.000498905               0.000461042               0.000000000               0.000000000               0.000000000               0.000000000               0.000396650               0.001354924              -0.000000000              -0.000020622               0.000458511               0.000437889               0.000000000               0.000000000               0.000000000               0.000000000               0.000395199               0.001288861              -0.000000000              -0.000012908               0.000433919               0.000421011               0.000000000               0.000000000               0.000000000               0.000000000               0.000385684               0.001250678              -0.000000000              -0.000011703               0.000420790               0.000409086               0.000000000               0.000000000               0.000000000               0.000000000               0.000366447               0.001235040              -0.000000000              -0.000016962               0.000417330               0.000400368               0.000000000               0.000000000               0.000000000               0.000000000               0.000338088               0.001237762              -0.000000000              -0.000027937               0.000421896               0.000393958               0.000000000               0.000000000               0.000000000               0.000000000               0.000304087               0.001255550              -0.000000000              -0.000042911               0.000432816               0.000389905               0.000000000               0.000000000               0.000000000               0.000000000               0.000268030               0.001279976              -0.000000000              -0.000059486               0.000446483               0.000386997               0.000000000               0.000000000               0.000000000               0.000000000               0.000230699               0.001303246              -0.000000000              -0.000076393               0.000459875               0.000383482               0.000000000               0.000000000               0.000000000               0.000000000               0.000192296               0.001327620              -0.000000000              -0.000093841               0.000473816               0.000379975               0.000000000               0.000000000               0.000000000               0.000000000               0.000153455               0.001358662              -0.000000000              -0.000112287               0.000490312               0.000378025               0.000000000               0.000000000               0.000000000               0.000000000               0.000107091               0.001391265              -0.000000000              -0.000133749               0.000508333               0.000374585               0.000000000               0.000000000               0.000000000               0.000000000               0.000052462               0.001425269              -0.000000000              -0.000158485               0.000527913               0.000369428               0.000000000               0.000000000               0.000000000               0.000000000               0.000028919               0.001455691               0.000000000              -0.000171116               0.000542264               0.000371148               0.000000000               0.000000000               0.000000000               0.000000000               0.000216061               0.002272802              -0.000180127              -0.000203077               0.000825285               0.000622209               0.000000000               0.000000000               0.000000000               0.000000000               0.000242706               0.001910370              -0.000122916              -0.000147781               0.000686044               0.000538263               0.000000000               0.000000000               0.000000000               0.000000000               0.000343863               0.001618576              -0.000064442              -0.000073373               0.000563978               0.000490605               0.000000000               0.000000000               0.000000000               0.000000000               0.000378188               0.001453802              -0.000037408              -0.000039905               0.000497898               0.000457993               0.000000000               0.000000000               0.000000000               0.000000000               0.000386213               0.001353806              -0.000025448              -0.000024396               0.000459396               0.000435000               0.000000000               0.000000000               0.000000000               0.000000000               0.000383206               0.001291760              -0.000020313              -0.000017768               0.000436505               0.000418737               0.000000000               0.000000000               0.000000000               0.000000000               0.000372509               0.001256802              -0.000017139              -0.000017409               0.000424733               0.000407324               0.000000000               0.000000000               0.000000000               0.000000000               0.000353464               0.001242125              -0.000013755              -0.000022716               0.000421610               0.000398893               0.000000000               0.000000000               0.000000000               0.000000000               0.000325821               0.001246848              -0.000010712              -0.000033673               0.000426836               0.000393163               0.000000000               0.000000000               0.000000000               0.000000000               0.000292656               0.001262851              -0.000010463              -0.000048110               0.000436983               0.000388873               0.000000000               0.000000000               0.000000000               0.000000000               0.000259310               0.001284216              -0.000014544              -0.000063286               0.000449163               0.000385877               0.000000000               0.000000000               0.000000000               0.000000000               0.000225040               0.001304669              -0.000019192              -0.000078693               0.000461116               0.000382423               0.000000000               0.000000000               0.000000000               0.000000000               0.000188312               0.001327276              -0.000017982              -0.000095292               0.000474185               0.000378893               0.000000000               0.000000000               0.000000000               0.000000000               0.000147272               0.001354680              -0.000015216              -0.000114108               0.000489592               0.000375484               0.000000000               0.000000000               0.000000000               0.000000000               0.000101323               0.001382820              -0.000013817              -0.000134856               0.000505887               0.000371031               0.000000000               0.000000000               0.000000000               0.000000000               0.000051849               0.001412814              -0.000008566              -0.000157158               0.000523319               0.000366161               0.000000000               0.000000000               0.000000000               0.000000000               0.000030017               0.001438259              -0.000005066              -0.000168526               0.000535590               0.000367064               0.000000000               0.000000000               0.000000000               0.000000000               0.000255448               0.002169455              -0.000343093              -0.000175389               0.000781607               0.000606219               0.000000000               0.000000000               0.000000000               0.000000000               0.000259272               0.001837846              -0.000234258              -0.000132503               0.000656777               0.000524273               0.000000000               0.000000000               0.000000000               0.000000000               0.000334366               0.001580227              -0.000123108              -0.000072141               0.000550784               0.000478643               0.000000000               0.000000000               0.000000000               0.000000000               0.000356765               0.001437135              -0.000073609              -0.000045855               0.000494325               0.000448470               0.000000000               0.000000000               0.000000000               0.000000000               0.000358267               0.001350796              -0.000051756              -0.000034499               0.000461761               0.000427261               0.000000000               0.000000000               0.000000000               0.000000000               0.000350635               0.001299334              -0.000041729              -0.000030929               0.000443416               0.000412488               0.000000000               0.000000000               0.000000000               0.000000000               0.000337427               0.001272221              -0.000035550              -0.000032492               0.000434900               0.000402408               0.000000000               0.000000000               0.000000000               0.000000000               0.000317836               0.001263710              -0.000028155              -0.000038775               0.000434158               0.000395382               0.000000000               0.000000000               0.000000000               0.000000000               0.000290913               0.001269841              -0.000022170              -0.000049638               0.000439822               0.000390184               0.000000000               0.000000000               0.000000000               0.000000000               0.000263312               0.001283394              -0.000022038              -0.000061682               0.000448354               0.000386672               0.000000000               0.000000000               0.000000000               0.000000000               0.000235203               0.001297351              -0.000028285              -0.000073968               0.000457102               0.000383134               0.000000000               0.000000000               0.000000000               0.000000000               0.000203503               0.001310934              -0.000033791              -0.000087553               0.000466158               0.000378605               0.000000000               0.000000000               0.000000000               0.000000000               0.000172529               0.001329642              -0.000029425              -0.000101507               0.000477045               0.000375539               0.000000000               0.000000000               0.000000000               0.000000000               0.000137052               0.001349901              -0.000024362              -0.000117343               0.000489077               0.000371734               0.000000000               0.000000000               0.000000000               0.000000000               0.000093231               0.001367512              -0.000020387              -0.000135977               0.000501158               0.000365181               0.000000000               0.000000000               0.000000000               0.000000000               0.000046820               0.001385311              -0.000011189              -0.000155606               0.000513634               0.000358028               0.000000000               0.000000000               0.000000000               0.000000000               0.000026001               0.001399844              -0.000006275              -0.000165230               0.000521687               0.000356457               0.000000000               0.000000000               0.000000000               0.000000000               0.000311730               0.002012396              -0.000474347              -0.000134651               0.000715676               0.000581025               0.000000000               0.000000000               0.000000000               0.000000000               0.000282675               0.001726265              -0.000325620              -0.000109780               0.000612009               0.000502229               0.000000000               0.000000000               0.000000000               0.000000000               0.000320711               0.001522802              -0.000174263              -0.000070083               0.000530957               0.000460873               0.000000000               0.000000000               0.000000000               0.000000000               0.000326456               0.001410912              -0.000108332              -0.000053943               0.000488280               0.000434337               0.000000000               0.000000000               0.000000000               0.000000000               0.000319642               0.001345397              -0.000079434              -0.000048309               0.000464564               0.000416255               0.000000000               0.000000000               0.000000000               0.000000000               0.000307336               0.001309229              -0.000065080              -0.000048403               0.000452540               0.000404137               0.000000000               0.000000000               0.000000000               0.000000000               0.000290580               0.001293146              -0.000054485              -0.000052676               0.000448603               0.000395927               0.000000000               0.000000000               0.000000000               0.000000000               0.000267669               0.001294236              -0.000043575              -0.000061404               0.000451876               0.000390472               0.000000000               0.000000000               0.000000000               0.000000000               0.000243513               0.001302769              -0.000034562              -0.000071528               0.000458095               0.000386566               0.000000000               0.000000000               0.000000000               0.000000000               0.000223032               0.001312983              -0.000033820              -0.000080486               0.000464485               0.000383999               0.000000000               0.000000000               0.000000000               0.000000000               0.000201811               0.001320316              -0.000040130              -0.000089360               0.000469888               0.000380528               0.000000000               0.000000000               0.000000000               0.000000000               0.000176210               0.001327516              -0.000041294              -0.000099860               0.000475788               0.000375927               0.000000000               0.000000000               0.000000000               0.000000000               0.000148751               0.001340378              -0.000032436              -0.000111765               0.000484043               0.000372278               0.000000000               0.000000000               0.000000000               0.000000000               0.000117576               0.001352890              -0.000024974              -0.000125020               0.000492632               0.000367612               0.000000000               0.000000000               0.000000000               0.000000000               0.000082583               0.001365464              -0.000018277              -0.000139714               0.000501721               0.000362008               0.000000000               0.000000000               0.000000000               0.000000000               0.000043994               0.001377535              -0.000007899              -0.000155694               0.000511072               0.000355378               0.000000000               0.000000000               0.000000000               0.000000000               0.000025970               0.001387464              -0.000003945              -0.000163694               0.000517048               0.000353354               0.000000000               0.000000000               0.000000000               0.000000000               0.000370506               0.001812632              -0.000567788              -0.000087640               0.000633418               0.000545778               0.000000000               0.000000000               0.000000000               0.000000000               0.000305585               0.001588563              -0.000392413              -0.000083976               0.000557508               0.000473532               0.000000000               0.000000000               0.000000000               0.000000000               0.000304857               0.001452617              -0.000215733              -0.000067256               0.000506619               0.000439364               0.000000000               0.000000000               0.000000000               0.000000000               0.000294193               0.001377738              -0.000141417              -0.000061895               0.000479873               0.000417978               0.000000000               0.000000000               0.000000000               0.000000000               0.000281121               0.001335048              -0.000107168              -0.000061460               0.000465498               0.000404038               0.000000000               0.000000000               0.000000000               0.000000000               0.000264733               0.001316574              -0.000088614              -0.000065297               0.000460619               0.000395322               0.000000000               0.000000000               0.000000000               0.000000000               0.000243133               0.001315350              -0.000073595              -0.000073244               0.000462860               0.000389617               0.000000000               0.000000000               0.000000000               0.000000000               0.000219406               0.001326992              -0.000058056              -0.000083597               0.000470192               0.000386595               0.000000000               0.000000000               0.000000000               0.000000000               0.000196375               0.001339452              -0.000047622              -0.000093790               0.000477743               0.000383952               0.000000000               0.000000000               0.000000000               0.000000000               0.000180109               0.001346936              -0.000046179              -0.000100826               0.000482583               0.000381757               0.000000000               0.000000000               0.000000000               0.000000000               0.000165536               0.001350148              -0.000050021              -0.000106692               0.000485609               0.000378917               0.000000000               0.000000000               0.000000000               0.000000000               0.000145246               0.001356891              -0.000045713              -0.000115144               0.000490674               0.000375530               0.000000000               0.000000000               0.000000000               0.000000000               0.000124431               0.001370340              -0.000032867              -0.000124631               0.000498319               0.000373689               0.000000000               0.000000000               0.000000000               0.000000000               0.000102141               0.001384129              -0.000023574              -0.000134713               0.000506276               0.000371563               0.000000000               0.000000000               0.000000000               0.000000000               0.000074083               0.001398972              -0.000015264              -0.000147090               0.000515349               0.000368259               0.000000000               0.000000000               0.000000000               0.000000000               0.000039153               0.001413853              -0.000006424              -0.000162049               0.000525296               0.000363247               0.000000000               0.000000000               0.000000000               0.000000000               0.000023815               0.001426953              -0.000004757              -0.000169438               0.000532126               0.000362687               0.000000000               0.000000000               0.000000000               0.000000000               0.000427177               0.001590413              -0.000617977              -0.000038611               0.000543002               0.000504392               0.000000000               0.000000000               0.000000000               0.000000000               0.000324787               0.001439796              -0.000433501              -0.000058180               0.000499320               0.000441141               0.000000000               0.000000000               0.000000000               0.000000000               0.000286280               0.001377918              -0.000248784              -0.000064885               0.000480930               0.000416045               0.000000000               0.000000000               0.000000000               0.000000000               0.000265909               0.001339013              -0.000171425              -0.000067661               0.000468887               0.000401226               0.000000000               0.000000000               0.000000000               0.000000000               0.000249955               0.001319811              -0.000133396              -0.000071243               0.000463680               0.000392437               0.000000000               0.000000000               0.000000000               0.000000000               0.000230891               0.001319458              -0.000110139              -0.000078348               0.000465931               0.000387583               0.000000000               0.000000000               0.000000000               0.000000000               0.000206635               0.001333992              -0.000089815              -0.000089261               0.000474413               0.000385152               0.000000000               0.000000000               0.000000000               0.000000000               0.000182180               0.001356379              -0.000071446              -0.000101230               0.000485865               0.000384635               0.000000000               0.000000000               0.000000000               0.000000000               0.000160926               0.001371409              -0.000060380              -0.000111079               0.000494158               0.000383079               0.000000000               0.000000000               0.000000000               0.000000000               0.000147491               0.001380496              -0.000058650              -0.000117252               0.000499245               0.000381992               0.000000000               0.000000000               0.000000000               0.000000000               0.000136437               0.001390302              -0.000058777              -0.000122624               0.000504304               0.000381680               0.000000000               0.000000000               0.000000000               0.000000000               0.000120430               0.001408561              -0.000048307              -0.000130908               0.000513152               0.000382243               0.000000000               0.000000000               0.000000000               0.000000000               0.000101496               0.001432286              -0.000033671              -0.000140975               0.000524416               0.000383441               0.000000000               0.000000000               0.000000000               0.000000000               0.000082049               0.001458144              -0.000025213              -0.000151499               0.000536543               0.000385044               0.000000000               0.000000000               0.000000000               0.000000000               0.000057886               0.001483311              -0.000016947              -0.000163706               0.000549001               0.000385295               0.000000000               0.000000000               0.000000000               0.000000000               0.000027477               0.001508734              -0.000007705              -0.000178288               0.000562336               0.000384048               0.000000000               0.000000000               0.000000000               0.000000000               0.000016530               0.001530416              -0.000006531              -0.000185103               0.000571834               0.000386732               0.000000000               0.000000000               0.000000000               0.000000000               0.000469245               0.001366317              -0.000627946               0.000005176               0.000453709               0.000458885               0.000000000               0.000000000               0.000000000               0.000000000               0.000338894               0.001292213              -0.000452549              -0.000034442               0.000442214               0.000407772               0.000000000               0.000000000               0.000000000               0.000000000               0.000268412               0.001303356              -0.000274594              -0.000062265               0.000455203               0.000392938               0.000000000               0.000000000               0.000000000               0.000000000               0.000243526               0.001298373              -0.000197117              -0.000070974               0.000456445               0.000385471               0.000000000               0.000000000               0.000000000               0.000000000               0.000228477               0.001303016              -0.000155638              -0.000077198               0.000460067               0.000382869               0.000000000               0.000000000               0.000000000               0.000000000               0.000208542               0.001320065              -0.000126996              -0.000086805               0.000468952               0.000382147               0.000000000               0.000000000               0.000000000               0.000000000               0.000183817               0.001349484              -0.000102066              -0.000099754               0.000483075               0.000383321               0.000000000               0.000000000               0.000000000               0.000000000               0.000160252               0.001378617              -0.000082579              -0.000112232               0.000496945               0.000384713               0.000000000               0.000000000               0.000000000               0.000000000               0.000143449               0.001398929              -0.000071767              -0.000121072               0.000506662               0.000385590               0.000000000               0.000000000               0.000000000               0.000000000               0.000133434               0.001418823              -0.000066771              -0.000127315               0.000515374               0.000388060               0.000000000               0.000000000               0.000000000               0.000000000               0.000124152               0.001448496              -0.000061101              -0.000134505               0.000527662               0.000393158               0.000000000               0.000000000               0.000000000               0.000000000               0.000108796               0.001489814              -0.000046048              -0.000145428               0.000545076               0.000399648               0.000000000               0.000000000               0.000000000               0.000000000               0.000088826               0.001536792              -0.000030127              -0.000158789               0.000565188               0.000406400               0.000000000               0.000000000               0.000000000               0.000000000               0.000066951               0.001582943              -0.000022921              -0.000172761               0.000585230               0.000412469               0.000000000               0.000000000               0.000000000               0.000000000               0.000044324               0.001628193              -0.000016765              -0.000186902               0.000605026               0.000418124               0.000000000               0.000000000               0.000000000               0.000000000               0.000021153               0.001673773              -0.000007152              -0.000201289               0.000625015               0.000423726               0.000000000               0.000000000               0.000000000               0.000000000               0.000015558               0.001706728              -0.000005862              -0.000207506               0.000638072               0.000430566               0.000000000               0.000000000               0.000000000               0.000000000               0.000491120               0.001149639              -0.000605446               0.000040464               0.000369721               0.000410185               0.000000000               0.000000000               0.000000000               0.000000000               0.000345808               0.001153552              -0.000453710              -0.000014517               0.000389352               0.000374836               0.000000000               0.000000000               0.000000000               0.000000000               0.000255304               0.001231556              -0.000293900              -0.000058205               0.000429916               0.000371711               0.000000000               0.000000000               0.000000000               0.000000000               0.000229843               0.001259991              -0.000217375              -0.000071308               0.000443762               0.000372454               0.000000000               0.000000000               0.000000000               0.000000000               0.000215516               0.001287260              -0.000171465              -0.000080089               0.000455779               0.000375690               0.000000000               0.000000000               0.000000000               0.000000000               0.000194656               0.001322665              -0.000138110              -0.000092337               0.000471663               0.000379326               0.000000000               0.000000000               0.000000000               0.000000000               0.000170548               0.001365764              -0.000111495              -0.000106765               0.000490838               0.000384073               0.000000000               0.000000000               0.000000000               0.000000000               0.000151882               0.001401435              -0.000090683              -0.000118223               0.000506548               0.000388325               0.000000000               0.000000000               0.000000000               0.000000000               0.000142389               0.001435344              -0.000076354              -0.000126022               0.000520450               0.000394429               0.000000000               0.000000000               0.000000000               0.000000000               0.000137898               0.001478579              -0.000064953              -0.000133110               0.000537225               0.000404115               0.000000000               0.000000000               0.000000000               0.000000000               0.000131108               0.001540645              -0.000052314              -0.000143415               0.000561348               0.000417933               0.000000000               0.000000000               0.000000000               0.000000000               0.000114783               0.001613357              -0.000034655              -0.000158626               0.000590656               0.000432030               0.000000000               0.000000000               0.000000000               0.000000000               0.000091480               0.001682538              -0.000021150              -0.000176012               0.000619511               0.000443499               0.000000000               0.000000000               0.000000000               0.000000000               0.000064963               0.001747296              -0.000016785              -0.000194050               0.000647110               0.000453059               0.000000000               0.000000000               0.000000000               0.000000000               0.000039662               0.001812337              -0.000011739              -0.000211668               0.000674662               0.000462994               0.000000000               0.000000000               0.000000000               0.000000000               0.000018525               0.001874204              -0.000005110              -0.000227328               0.000700505               0.000473176               0.000000000               0.000000000               0.000000000               0.000000000               0.000013037               0.001913069              -0.000005811              -0.000234244               0.000715765               0.000481521               0.000000000               0.000000000               0.000000000               0.000000000               0.000502849               0.000955037              -0.000558918               0.000069188               0.000295280               0.000364467               0.000000000               0.000000000               0.000000000               0.000000000               0.000352810               0.001027594              -0.000444610               0.000003854               0.000341243               0.000345097               0.000000000               0.000000000               0.000000000               0.000000000               0.000253121               0.001166943              -0.000313538              -0.000050948               0.000405960               0.000355012               0.000000000               0.000000000               0.000000000               0.000000000               0.000227980               0.001226800              -0.000236411              -0.000067857               0.000431548               0.000363691               0.000000000               0.000000000               0.000000000               0.000000000               0.000212225               0.001274607              -0.000186123              -0.000079741               0.000451445               0.000371704               0.000000000               0.000000000               0.000000000               0.000000000               0.000190475               0.001328678              -0.000150183              -0.000094657               0.000474440               0.000379784               0.000000000               0.000000000               0.000000000               0.000000000               0.000168203               0.001382570              -0.000122568              -0.000109745               0.000497434               0.000387689               0.000000000               0.000000000               0.000000000               0.000000000               0.000155916               0.001429272              -0.000098222              -0.000120190               0.000516483               0.000396292               0.000000000               0.000000000               0.000000000               0.000000000               0.000154052               0.001481150              -0.000076570              -0.000127374               0.000536170               0.000408796               0.000000000               0.000000000               0.000000000               0.000000000               0.000155264               0.001552383              -0.000056654              -0.000135824               0.000562730               0.000426907               0.000000000               0.000000000               0.000000000               0.000000000               0.000151123               0.001642018              -0.000038269              -0.000148581               0.000596861               0.000448280               0.000000000               0.000000000               0.000000000               0.000000000               0.000134241               0.001729955              -0.000024138              -0.000165903               0.000631947               0.000466044               0.000000000               0.000000000               0.000000000               0.000000000               0.000111362               0.001810473              -0.000014759              -0.000184548               0.000665001               0.000480453               0.000000000               0.000000000               0.000000000               0.000000000               0.000087634               0.001888826              -0.000008635              -0.000203240               0.000697349               0.000494109               0.000000000               0.000000000               0.000000000               0.000000000               0.000062871               0.001964256              -0.000004637              -0.000221955               0.000728730               0.000506775               0.000000000               0.000000000               0.000000000               0.000000000               0.000043339               0.002030840              -0.000001468              -0.000237602               0.000756141               0.000518538               0.000000000               0.000000000               0.000000000               0.000000000               0.000034321               0.002064962              -0.000000326              -0.000245249               0.000770063               0.000524814               0.000000000               0.000000000               0.000000000               0.000000000               0.000498318               0.000763139              -0.000499636               0.000091475               0.000223885               0.000315360               0.000000000               0.000000000               0.000000000               0.000000000               0.000362907               0.000878504              -0.000430473               0.000026276               0.000284073               0.000310349               0.000000000               0.000000000               0.000000000               0.000000000               0.000261762               0.001064131              -0.000337163              -0.000034856               0.000366325               0.000331469               0.000000000               0.000000000               0.000000000               0.000000000               0.000233946               0.001156582              -0.000262685              -0.000056843               0.000404471               0.000347628               0.000000000               0.000000000               0.000000000               0.000000000               0.000219182               0.001225290              -0.000209018              -0.000070968               0.000432082               0.000361114               0.000000000               0.000000000               0.000000000               0.000000000               0.000200427               0.001293190              -0.000171736              -0.000086489               0.000459888               0.000373400               0.000000000               0.000000000               0.000000000               0.000000000               0.000179133               0.001357612              -0.000143379              -0.000102526               0.000486708               0.000384182               0.000000000               0.000000000               0.000000000               0.000000000               0.000164402               0.001421030              -0.000115720              -0.000115978               0.000512331               0.000396354               0.000000000               0.000000000               0.000000000               0.000000000               0.000164166               0.001493288              -0.000089921              -0.000125098               0.000539457               0.000414359               0.000000000               0.000000000               0.000000000               0.000000000               0.000173793               0.001579059              -0.000066813              -0.000132210               0.000570418               0.000438208               0.000000000               0.000000000               0.000000000               0.000000000               0.000177612               0.001667940              -0.000046360              -0.000141888               0.000603270               0.000461383               0.000000000               0.000000000               0.000000000               0.000000000               0.000170585               0.001759538              -0.000032667              -0.000155973               0.000638498               0.000482525               0.000000000               0.000000000               0.000000000               0.000000000               0.000157859               0.001854122              -0.000021769              -0.000172568               0.000675557               0.000502989               0.000000000               0.000000000               0.000000000               0.000000000               0.000141480               0.001942085              -0.000011609              -0.000189705               0.000710590               0.000520885               0.000000000               0.000000000               0.000000000               0.000000000               0.000120358               0.002019691              -0.000007199              -0.000207327               0.000742333               0.000535006               0.000000000               0.000000000               0.000000000               0.000000000               0.000098028               0.002088823              -0.000004397              -0.000224342               0.000771048               0.000546706               0.000000000               0.000000000               0.000000000               0.000000000               0.000081669               0.002118344               0.000000501              -0.000234166               0.000784163               0.000549997               0.000000000               0.000000000               0.000000000               0.000000000               0.000469463               0.000579603              -0.000428231               0.000103597               0.000158667               0.000262264               0.000000000               0.000000000               0.000000000               0.000000000               0.000369835               0.000727758              -0.000404523               0.000047717               0.000226678               0.000274395               0.000000000               0.000000000               0.000000000               0.000000000               0.000280330               0.000945091              -0.000351080              -0.000013013               0.000319365               0.000306352               0.000000000               0.000000000               0.000000000               0.000000000               0.000251342               0.001068995              -0.000286174              -0.000039371               0.000369452               0.000330080               0.000000000               0.000000000               0.000000000               0.000000000               0.000235767               0.001159608              -0.000232997              -0.000056538               0.000405378               0.000348840               0.000000000               0.000000000               0.000000000               0.000000000               0.000219623               0.001239196              -0.000194514              -0.000072541               0.000437242               0.000364701               0.000000000               0.000000000               0.000000000               0.000000000               0.000199900               0.001316103              -0.000164689              -0.000089550               0.000468547               0.000378996               0.000000000               0.000000000               0.000000000               0.000000000               0.000185992               0.001396155              -0.000137015              -0.000104772               0.000500304               0.000395532               0.000000000               0.000000000               0.000000000               0.000000000               0.000185507               0.001480971              -0.000112448              -0.000115556               0.000532171               0.000416615               0.000000000               0.000000000               0.000000000               0.000000000               0.000198163               0.001570306              -0.000088260              -0.000121977               0.000564089               0.000442112               0.000000000               0.000000000               0.000000000               0.000000000               0.000212580               0.001663872              -0.000063776              -0.000128266               0.000597374               0.000469108               0.000000000               0.000000000               0.000000000               0.000000000               0.000217949               0.001762316              -0.000046342              -0.000138558               0.000633619               0.000495061               0.000000000               0.000000000               0.000000000               0.000000000               0.000212992               0.001858020              -0.000034546              -0.000152380               0.000670127               0.000517747               0.000000000               0.000000000               0.000000000               0.000000000               0.000204774               0.001949135              -0.000022342              -0.000166851               0.000705322               0.000538471               0.000000000               0.000000000               0.000000000               0.000000000               0.000188120               0.002029215              -0.000010440              -0.000183106               0.000737434               0.000554327               0.000000000               0.000000000               0.000000000               0.000000000               0.000162590               0.002097216              -0.000003950              -0.000201180               0.000766125               0.000564945               0.000000000               0.000000000               0.000000000               0.000000000               0.000140965               0.002122783               0.000001204              -0.000212486               0.000778416               0.000565930               0.000000000               0.000000000               0.000000000               0.000000000               0.000418233               0.000416703              -0.000343879               0.000104748               0.000103983               0.000208732               0.000000000               0.000000000               0.000000000               0.000000000               0.000364023               0.000581554              -0.000360021               0.000063813               0.000172578               0.000236392               0.000000000               0.000000000               0.000000000               0.000000000               0.000301290               0.000813544              -0.000344702               0.000011290               0.000267415               0.000278705               0.000000000               0.000000000               0.000000000               0.000000000               0.000276879               0.000963958              -0.000293467              -0.000016665               0.000326871               0.000310206               0.000000000               0.000000000               0.000000000               0.000000000               0.000260976               0.001074555              -0.000245572              -0.000036453               0.000370333               0.000333879               0.000000000               0.000000000               0.000000000               0.000000000               0.000245538               0.001167199              -0.000208172              -0.000053823               0.000407004               0.000353180               0.000000000               0.000000000               0.000000000               0.000000000               0.000231221               0.001259601              -0.000179565              -0.000070742               0.000443443               0.000372701               0.000000000               0.000000000               0.000000000               0.000000000               0.000221935               0.001352511              -0.000155293              -0.000085838               0.000479445               0.000393607               0.000000000               0.000000000               0.000000000               0.000000000               0.000220804               0.001448776              -0.000133316              -0.000098295               0.000515686               0.000417391               0.000000000               0.000000000               0.000000000               0.000000000               0.000228610               0.001550841              -0.000109390              -0.000108126               0.000552984               0.000444858               0.000000000               0.000000000               0.000000000               0.000000000               0.000245978               0.001657269              -0.000083999              -0.000114917               0.000590723               0.000475806               0.000000000               0.000000000               0.000000000               0.000000000               0.000260850               0.001760521              -0.000063279              -0.000122246               0.000627583               0.000505337               0.000000000               0.000000000               0.000000000               0.000000000               0.000265095               0.001854913              -0.000049330              -0.000132453               0.000662449               0.000529996               0.000000000               0.000000000               0.000000000               0.000000000               0.000260224               0.001941958              -0.000033971              -0.000145160               0.000695700               0.000550539               0.000000000               0.000000000               0.000000000               0.000000000               0.000248759               0.002022616              -0.000015536              -0.000159542               0.000727379               0.000567837               0.000000000               0.000000000               0.000000000               0.000000000               0.000230111               0.002095025              -0.000004734              -0.000175586               0.000756863               0.000581277               0.000000000               0.000000000               0.000000000               0.000000000               0.000208672               0.002121238               0.000001369              -0.000186902               0.000769373               0.000582471               0.000000000               0.000000000               0.000000000               0.000000000               0.000346661               0.000284773              -0.000257275               0.000094400               0.000063456               0.000157856               0.000000000               0.000000000               0.000000000               0.000000000               0.000346127               0.000448925              -0.000300442               0.000073681               0.000125080               0.000198761               0.000000000               0.000000000               0.000000000               0.000000000               0.000321004               0.000680079              -0.000315172               0.000035366               0.000214902               0.000250268               0.000000000               0.000000000               0.000000000               0.000000000               0.000305982               0.000847425              -0.000279666               0.000008815               0.000279534               0.000288349               0.000000000               0.000000000               0.000000000               0.000000000               0.000292715               0.000974497              -0.000239711              -0.000012044               0.000328844               0.000316800               0.000000000               0.000000000               0.000000000               0.000000000               0.000280581               0.001082884              -0.000207987              -0.000030143               0.000371005               0.000340862               0.000000000               0.000000000               0.000000000               0.000000000               0.000272136               0.001190183              -0.000184254              -0.000046722               0.000412298               0.000365576               0.000000000               0.000000000               0.000000000               0.000000000               0.000264914               0.001295949              -0.000163262              -0.000062651               0.000452862               0.000390211               0.000000000               0.000000000               0.000000000               0.000000000               0.000262304               0.001407614              -0.000143419              -0.000077588               0.000495062               0.000417475               0.000000000               0.000000000               0.000000000               0.000000000               0.000267820               0.001525254              -0.000123467              -0.000090224               0.000538488               0.000448264               0.000000000               0.000000000               0.000000000               0.000000000               0.000283546               0.001642085              -0.000101152              -0.000098931               0.000580333               0.000481402               0.000000000               0.000000000               0.000000000               0.000000000               0.000300227               0.001746355              -0.000078888              -0.000105709               0.000617349               0.000511640               0.000000000               0.000000000               0.000000000               0.000000000               0.000308763               0.001835912              -0.000060227              -0.000113703               0.000649866               0.000536163               0.000000000               0.000000000               0.000000000               0.000000000               0.000306782               0.001917262              -0.000040886              -0.000124614               0.000680619               0.000556005               0.000000000               0.000000000               0.000000000               0.000000000               0.000302967               0.001998455              -0.000022256              -0.000136194               0.000711543               0.000575349               0.000000000               0.000000000               0.000000000               0.000000000               0.000297294               0.002079568              -0.000008425              -0.000148460               0.000742669               0.000594209               0.000000000               0.000000000               0.000000000               0.000000000               0.000283129               0.002112809               0.000000073              -0.000157927               0.000756905               0.000598978               0.000000000               0.000000000               0.000000000               0.000000000               0.000267389               0.000183156              -0.000178083               0.000077375               0.000035259               0.000112635               0.000000000               0.000000000               0.000000000               0.000000000               0.000320588               0.000336906              -0.000231520               0.000078106               0.000086265               0.000164372               0.000000000               0.000000000               0.000000000               0.000000000               0.000334896               0.000555816              -0.000261523               0.000056108               0.000166567               0.000222675               0.000000000               0.000000000               0.000000000               0.000000000               0.000334718               0.000729837              -0.000241015               0.000034289               0.000231847               0.000266136               0.000000000               0.000000000               0.000000000               0.000000000               0.000327623               0.000869948              -0.000211591               0.000014115               0.000285275               0.000299390               0.000000000               0.000000000               0.000000000               0.000000000               0.000321620               0.000996856              -0.000188236              -0.000003999               0.000333615               0.000329616               0.000000000               0.000000000               0.000000000               0.000000000               0.000316030               0.001118209              -0.000170104              -0.000021265               0.000379821               0.000358556               0.000000000               0.000000000               0.000000000               0.000000000               0.000309571               0.001236978              -0.000152928              -0.000038533               0.000425166               0.000386633               0.000000000               0.000000000               0.000000000               0.000000000               0.000308319               0.001362057              -0.000137773              -0.000054637               0.000472227               0.000417590               0.000000000               0.000000000               0.000000000               0.000000000               0.000315076               0.001489009              -0.000123492              -0.000067973               0.000518989               0.000451016               0.000000000               0.000000000               0.000000000               0.000000000               0.000324624               0.001608298              -0.000105576              -0.000079303               0.000562528               0.000483225               0.000000000               0.000000000               0.000000000               0.000000000               0.000335839               0.001711802              -0.000084577              -0.000088036               0.000599940               0.000511905               0.000000000               0.000000000               0.000000000               0.000000000               0.000343178               0.001799167              -0.000062081              -0.000096204               0.000631784               0.000535581               0.000000000               0.000000000               0.000000000               0.000000000               0.000347708               0.001885349              -0.000041794              -0.000105278               0.000663536               0.000558258               0.000000000               0.000000000               0.000000000               0.000000000               0.000354868               0.001976659              -0.000027812              -0.000114007               0.000696882               0.000582875               0.000000000               0.000000000               0.000000000               0.000000000               0.000362490               0.002067718              -0.000014711              -0.000122531               0.000730076               0.000607545               0.000000000               0.000000000               0.000000000               0.000000000               0.000358904               0.002108804              -0.000005547              -0.000129011               0.000745931               0.000616920               0.000000000               0.000000000               0.000000000               0.000000000               0.000198270               0.000115347              -0.000108789               0.000059932               0.000018471               0.000078403               0.000000000               0.000000000               0.000000000               0.000000000               0.000294326               0.000252626              -0.000156162               0.000078793               0.000057943               0.000136737               0.000000000               0.000000000               0.000000000               0.000000000               0.000343534               0.000453570              -0.000187198               0.000072128               0.000127146               0.000199274               0.000000000               0.000000000               0.000000000               0.000000000               0.000358052               0.000627716              -0.000177775               0.000055804               0.000190635               0.000246440               0.000000000               0.000000000               0.000000000               0.000000000               0.000359854               0.000777982              -0.000159551               0.000037697               0.000246759               0.000284456               0.000000000               0.000000000               0.000000000               0.000000000               0.000360125               0.000920427              -0.000144531               0.000019993               0.000300142               0.000320135               0.000000000               0.000000000               0.000000000               0.000000000               0.000356685               0.001055047              -0.000131606               0.000001876               0.000351054               0.000352930               0.000000000               0.000000000               0.000000000               0.000000000               0.000353788               0.001182929              -0.000120865              -0.000015196               0.000399371               0.000384175               0.000000000               0.000000000               0.000000000               0.000000000               0.000355487               0.001312690              -0.000112544              -0.000030779               0.000447819               0.000417040               0.000000000               0.000000000               0.000000000               0.000000000               0.000358565               0.001444343              -0.000101830              -0.000046081               0.000496803               0.000450722               0.000000000               0.000000000               0.000000000               0.000000000               0.000361710               0.001565695              -0.000087714              -0.000060070               0.000541917               0.000481846               0.000000000               0.000000000               0.000000000               0.000000000               0.000364910               0.001668753              -0.000071540              -0.000071753               0.000580163               0.000508410               0.000000000               0.000000000               0.000000000               0.000000000               0.000371900               0.001762502              -0.000053213              -0.000080850               0.000614445               0.000533595               0.000000000               0.000000000               0.000000000               0.000000000               0.000386344               0.001861279              -0.000038481              -0.000087781               0.000649680               0.000561900               0.000000000               0.000000000               0.000000000               0.000000000               0.000403330               0.001962059              -0.000029204              -0.000094008               0.000685349               0.000591341               0.000000000               0.000000000               0.000000000               0.000000000               0.000419685               0.002060806              -0.000017657              -0.000100219               0.000720335               0.000620116               0.000000000               0.000000000               0.000000000               0.000000000               0.000424721               0.002108514              -0.000009425              -0.000104293               0.000737595               0.000633302               0.000000000               0.000000000               0.000000000               0.000000000               0.000149536               0.000079883              -0.000050828               0.000046090               0.000011264               0.000057354               0.000000000               0.000000000               0.000000000               0.000000000               0.000273123               0.000200300              -0.000078149               0.000077383               0.000040972               0.000118354               0.000000000               0.000000000               0.000000000               0.000000000               0.000349149               0.000386237              -0.000097710               0.000082650               0.000101194               0.000183845               0.000000000               0.000000000               0.000000000               0.000000000               0.000372592               0.000558998              -0.000094728               0.000069846               0.000163049               0.000232895               0.000000000               0.000000000               0.000000000               0.000000000               0.000381696               0.000713995              -0.000086222               0.000053886               0.000220034               0.000273920               0.000000000               0.000000000               0.000000000               0.000000000               0.000387134               0.000865511              -0.000078379               0.000036986               0.000276172               0.000313158               0.000000000               0.000000000               0.000000000               0.000000000               0.000388904               0.001010485              -0.000071855               0.000019528               0.000330316               0.000349844               0.000000000               0.000000000               0.000000000               0.000000000               0.000388667               0.001144879              -0.000068218               0.000002640               0.000380743               0.000383383               0.000000000               0.000000000               0.000000000               0.000000000               0.000387661               0.001275842              -0.000064230              -0.000014107               0.000429979               0.000415871               0.000000000               0.000000000               0.000000000               0.000000000               0.000386136               0.001405227              -0.000057780              -0.000030852               0.000478688               0.000447836               0.000000000               0.000000000               0.000000000               0.000000000               0.000386658               0.001526937              -0.000049489              -0.000045870               0.000524264               0.000478394               0.000000000               0.000000000               0.000000000               0.000000000               0.000389819               0.001638328              -0.000040960              -0.000058609               0.000565640               0.000507032               0.000000000               0.000000000               0.000000000               0.000000000               0.000399028               0.001744163              -0.000033069              -0.000068385               0.000604177               0.000535792               0.000000000               0.000000000               0.000000000               0.000000000               0.000415630               0.001847503              -0.000025679              -0.000075076               0.000640854               0.000565777               0.000000000               0.000000000               0.000000000               0.000000000               0.000435049               0.001947140              -0.000019029              -0.000080249               0.000675790               0.000595541               0.000000000               0.000000000               0.000000000               0.000000000               0.000458507               0.002051211              -0.000011214              -0.000084461               0.000711884               0.000627423               0.000000000               0.000000000               0.000000000               0.000000000               0.000471551               0.002105345              -0.000006397              -0.000086336               0.000730553               0.000644217               0.000000000               0.000000000               0.000000000               0.000000000               0.000131195               0.000068319               0.000000000               0.000040658               0.000009220               0.000049878               0.000000000               0.000000000               0.000000000               0.000000000               0.000264686               0.000181984               0.000000000               0.000076508               0.000035158               0.000111666               0.000000000               0.000000000               0.000000000               0.000000000               0.000351344               0.000363352               0.000000000               0.000086334               0.000092338               0.000178672               0.000000000               0.000000000               0.000000000               0.000000000               0.000377317               0.000534645              -0.000000000               0.000074663               0.000153326               0.000227988               0.000000000               0.000000000               0.000000000               0.000000000               0.000389088               0.000689971              -0.000000000               0.000059661               0.000210101               0.000269762               0.000000000               0.000000000               0.000000000               0.000000000               0.000396669               0.000845772               0.000000000               0.000043029               0.000267578               0.000310607               0.000000000               0.000000000               0.000000000               0.000000000               0.000402377               0.000994562               0.000000000               0.000026571               0.000322661               0.000349231               0.000000000               0.000000000               0.000000000               0.000000000               0.000401850               0.001131636               0.000000000               0.000009239               0.000374129               0.000383368               0.000000000               0.000000000               0.000000000               0.000000000               0.000397375               0.001263605               0.000000000              -0.000008935               0.000424176               0.000415241               0.000000000               0.000000000               0.000000000               0.000000000               0.000395319               0.001388325               0.000000000              -0.000025296               0.000471202               0.000445906               0.000000000               0.000000000               0.000000000               0.000000000               0.000395967               0.001509719               0.000000000              -0.000040227               0.000516644               0.000476416               0.000000000               0.000000000               0.000000000               0.000000000               0.000402261               0.001630425               0.000000000              -0.000052955               0.000561121               0.000508166               0.000000000               0.000000000               0.000000000               0.000000000               0.000411262               0.001739696               0.000000000              -0.000063238               0.000600972               0.000537734               0.000000000               0.000000000               0.000000000               0.000000000               0.000424219               0.001838826              -0.000000000              -0.000070771               0.000636526               0.000565755               0.000000000               0.000000000               0.000000000               0.000000000               0.000444356               0.001939791              -0.000000000              -0.000075840               0.000671871               0.000596030               0.000000000               0.000000000               0.000000000               0.000000000               0.000473537               0.002049661              -0.000000000              -0.000078631               0.000709424               0.000630793               0.000000000               0.000000000               0.000000000               0.000000000               0.000491169               0.002106558              -0.000000000              -0.000079131               0.000728556               0.000649425               0.000000000               0.000000000               0.000000000               0.000000000               0.000000000               0.000000000               0.000000000               0.000000000               0.000000000               0.000000000               0.000000000               0.000000000               0.000000000               0.000000000               0.000000000               0.000000000               0.000000000               0.000000000               0.000000000               0.000000000               0.000000000               0.000000000               0.000000000               0.000000000               0.000000000               0.000000000               0.000000000               0.000000000               0.000000000               0.000000000               0.000000000               0.000000000               0.000000000               0.000000000               0.000000000               0.000000000               0.000000000               0.000000000               0.000000000               0.000000000               0.000000000               0.000000000               0.000000000               0.000000000               0.000000000               0.000000000               0.000000000               0.000000000               0.000000000               0.000000000               0.000000000               0.000000000               0.000000000               0.000000000               0.000000000               0.000000000               0.000000000               0.000000000               0.000000000               0.000000000               0.000000000               0.000000000               0.000000000               0.000000000               0.000000000               0.000000000               0.000000000               0.000000000               0.000000000               0.000000000               0.000000000               0.000000000               0.000000000               0.000000000               0.000000000               0.000000000               0.000000000               0.000000000               0.000000000               0.000000000               0.000000000               0.000000000               0.000000000               0.000000000               0.000000000               0.000000000               0.000000000               0.000000000               0.000000000               0.000000000               0.000000000               0.000000000               0.000000000               0.000000000               0.000000000               0.000000000               0.000000000               0.000000000               0.000000000               0.000000000               0.000000000               0.000000000               0.000000000               0.000000000               0.000000000               0.000000000               0.000000000               0.000000000               0.000000000               0.000000000               0.000000000               0.000000000               0.000000000               0.000000000               0.000000000               0.000000000               0.000000000               0.000000000               0.000000000               0.000000000               0.000000000               0.000000000               0.000000000               0.000000000               0.000000000               0.000000000               0.000000000               0.000000000               0.000000000               0.000000000               0.000000000               0.000000000               0.000000000               0.000000000               0.000000000               0.000000000               0.000000000               0.000000000               0.000000000               0.000000000               0.000000000               0.000000000               0.000000000               0.000000000               0.000000000               0.000000000               0.000000000               0.000000000               0.000000000               0.000000000               0.000000000               0.000000000               0.000000000               0.000000000               0.000000000               0.000000000               0.000000000               0.000000000               0.000000000               0.000000000               0.000000000               0.000000000               0.000000000               0.000000000               0.000000000               0.000000000               0.000000000               0.000000000               0.000000000               0.000000000               0.000000000               0.000000000               0.000000000               0.000000000               0.000216061               0.002272802               0.000180127              -0.000203077               0.000825285               0.000622209               0.000000000               0.000000000               0.000000000               0.000000000               0.000242706               0.001910370               0.000122916              -0.000147781               0.000686044               0.000538263               0.000000000               0.000000000               0.000000000               0.000000000               0.000343863               0.001618576               0.000064442              -0.000073373               0.000563978               0.000490605               0.000000000               0.000000000               0.000000000               0.000000000               0.000378188               0.001453802               0.000037408              -0.000039905               0.000497898               0.000457993               0.000000000               0.000000000               0.000000000               0.000000000               0.000386213               0.001353806               0.000025448              -0.000024396               0.000459396               0.000435000               0.000000000               0.000000000               0.000000000               0.000000000               0.000383206               0.001291760               0.000020313              -0.000017768               0.000436505               0.000418737               0.000000000               0.000000000               0.000000000               0.000000000               0.000372509               0.001256802               0.000017139              -0.000017409               0.000424733               0.000407324               0.000000000               0.000000000               0.000000000               0.000000000               0.000353464               0.001242125               0.000013755              -0.000022716               0.000421610               0.000398893               0.000000000               0.000000000               0.000000000               0.000000000               0.000325821               0.001246848               0.000010712              -0.000033673               0.000426836               0.000393163               0.000000000               0.000000000               0.000000000               0.000000000               0.000292656               0.001262851               0.000010463              -0.000048110               0.000436983               0.000388873               0.000000000               0.000000000               0.000000000               0.000000000               0.000259310               0.001284216               0.000014544              -0.000063286               0.000449163               0.000385877               0.000000000               0.000000000               0.000000000               0.000000000               0.000225040               0.001304669               0.000019192              -0.000078693               0.000461116               0.000382423               0.000000000               0.000000000               0.000000000               0.000000000               0.000188312               0.001327276               0.000017982              -0.000095292               0.000474185               0.000378893               0.000000000               0.000000000               0.000000000               0.000000000               0.000147272               0.001354680               0.000015216              -0.000114108               0.000489592               0.000375484               0.000000000               0.000000000               0.000000000               0.000000000               0.000101323               0.001382820               0.000013817              -0.000134856               0.000505887               0.000371031               0.000000000               0.000000000               0.000000000               0.000000000               0.000051849               0.001412814               0.000008566              -0.000157158               0.000523319               0.000366161               0.000000000               0.000000000               0.000000000               0.000000000               0.000030017               0.001438259               0.000005066              -0.000168526               0.000535590               0.000367064               0.000000000               0.000000000               0.000000000               0.000000000               0.000255448               0.002169455               0.000343093              -0.000175389               0.000781607               0.000606219               0.000000000               0.000000000               0.000000000               0.000000000               0.000259272               0.001837846               0.000234258              -0.000132503               0.000656777               0.000524273               0.000000000               0.000000000               0.000000000               0.000000000               0.000334366               0.001580227               0.000123108              -0.000072141               0.000550784               0.000478643               0.000000000               0.000000000               0.000000000               0.000000000               0.000356765               0.001437135               0.000073609              -0.000045855               0.000494325               0.000448470               0.000000000               0.000000000               0.000000000               0.000000000               0.000358267               0.001350796               0.000051756              -0.000034499               0.000461761               0.000427261               0.000000000               0.000000000               0.000000000               0.000000000               0.000350635               0.001299334               0.000041729              -0.000030929               0.000443416               0.000412488               0.000000000               0.000000000               0.000000000               0.000000000               0.000337427               0.001272221               0.000035550              -0.000032492               0.000434900               0.000402408               0.000000000               0.000000000               0.000000000               0.000000000               0.000317836               0.001263710               0.000028155              -0.000038775               0.000434158               0.000395382               0.000000000               0.000000000               0.000000000               0.000000000               0.000290913               0.001269841               0.000022170              -0.000049638               0.000439822               0.000390184               0.000000000               0.000000000               0.000000000               0.000000000               0.000263312               0.001283394               0.000022038              -0.000061682               0.000448354               0.000386672               0.000000000               0.000000000               0.000000000               0.000000000               0.000235203               0.001297351               0.000028285              -0.000073968               0.000457102               0.000383134               0.000000000               0.000000000               0.000000000               0.000000000               0.000203503               0.001310934               0.000033791              -0.000087553               0.000466158               0.000378605               0.000000000               0.000000000               0.000000000               0.000000000               0.000172529               0.001329642               0.000029425              -0.000101507               0.000477045               0.000375539               0.000000000               0.000000000               0.000000000               0.000000000               0.000137052               0.001349901               0.000024362              -0.000117343               0.000489077               0.000371734               0.000000000               0.000000000               0.000000000               0.000000000               0.000093231               0.001367512               0.000020387              -0.000135977               0.000501158               0.000365181               0.000000000               0.000000000               0.000000000               0.000000000               0.000046820               0.001385311               0.000011189              -0.000155606               0.000513634               0.000358028               0.000000000               0.000000000               0.000000000               0.000000000               0.000026001               0.001399844               0.000006275              -0.000165230               0.000521687               0.000356457               0.000000000               0.000000000               0.000000000               0.000000000               0.000311730               0.002012396               0.000474347              -0.000134651               0.000715676               0.000581025               0.000000000               0.000000000               0.000000000               0.000000000               0.000282675               0.001726265               0.000325620              -0.000109780               0.000612009               0.000502229               0.000000000               0.000000000               0.000000000               0.000000000               0.000320711               0.001522802               0.000174263              -0.000070083               0.000530957               0.000460873               0.000000000               0.000000000               0.000000000               0.000000000               0.000326456               0.001410912               0.000108332              -0.000053943               0.000488280               0.000434337               0.000000000               0.000000000               0.000000000               0.000000000               0.000319642               0.001345397               0.000079434              -0.000048309               0.000464564               0.000416255               0.000000000               0.000000000               0.000000000               0.000000000               0.000307336               0.001309229               0.000065080              -0.000048403               0.000452540               0.000404137               0.000000000               0.000000000               0.000000000               0.000000000               0.000290580               0.001293146               0.000054485              -0.000052676               0.000448603               0.000395927               0.000000000               0.000000000               0.000000000               0.000000000               0.000267669               0.001294236               0.000043575              -0.000061404               0.000451876               0.000390472               0.000000000               0.000000000               0.000000000               0.000000000               0.000243513               0.001302769               0.000034562              -0.000071528               0.000458095               0.000386566               0.000000000               0.000000000               0.000000000               0.000000000               0.000223032               0.001312983               0.000033820              -0.000080486               0.000464485               0.000383999               0.000000000               0.000000000               0.000000000               0.000000000               0.000201811               0.001320316               0.000040130              -0.000089360               0.000469888               0.000380528               0.000000000               0.000000000               0.000000000               0.000000000               0.000176210               0.001327516               0.000041294              -0.000099860               0.000475788               0.000375927               0.000000000               0.000000000               0.000000000               0.000000000               0.000148751               0.001340378               0.000032436              -0.000111765               0.000484043               0.000372278               0.000000000               0.000000000               0.000000000               0.000000000               0.000117576               0.001352890               0.000024974              -0.000125020               0.000492632               0.000367612               0.000000000               0.000000000               0.000000000               0.000000000               0.000082583               0.001365464               0.000018277              -0.000139714               0.000501721               0.000362008               0.000000000               0.000000000               0.000000000               0.000000000               0.000043994               0.001377535               0.000007899              -0.000155694               0.000511072               0.000355378               0.000000000               0.000000000               0.000000000               0.000000000               0.000025970               0.001387464               0.000003945              -0.000163694               0.000517048               0.000353354               0.000000000               0.000000000               0.000000000               0.000000000               0.000370506               0.001812632               0.000567788              -0.000087640               0.000633418               0.000545778               0.000000000               0.000000000               0.000000000               0.000000000               0.000305585               0.001588563               0.000392413              -0.000083976               0.000557508               0.000473532               0.000000000               0.000000000               0.000000000               0.000000000               0.000304857               0.001452617               0.000215733              -0.000067256               0.000506619               0.000439364               0.000000000               0.000000000               0.000000000               0.000000000               0.000294193               0.001377738               0.000141417              -0.000061895               0.000479873               0.000417978               0.000000000               0.000000000               0.000000000               0.000000000               0.000281121               0.001335048               0.000107168              -0.000061460               0.000465498               0.000404038               0.000000000               0.000000000               0.000000000               0.000000000               0.000264733               0.001316574               0.000088614              -0.000065297               0.000460619               0.000395322               0.000000000               0.000000000               0.000000000               0.000000000               0.000243133               0.001315350               0.000073595              -0.000073244               0.000462860               0.000389617               0.000000000               0.000000000               0.000000000               0.000000000               0.000219406               0.001326992               0.000058056              -0.000083597               0.000470192               0.000386595               0.000000000               0.000000000               0.000000000               0.000000000               0.000196375               0.001339452               0.000047622              -0.000093790               0.000477743               0.000383952               0.000000000               0.000000000               0.000000000               0.000000000               0.000180109               0.001346936               0.000046179              -0.000100826               0.000482583               0.000381757               0.000000000               0.000000000               0.000000000               0.000000000               0.000165536               0.001350148               0.000050021              -0.000106692               0.000485609               0.000378917               0.000000000               0.000000000               0.000000000               0.000000000               0.000145246               0.001356891               0.000045713              -0.000115144               0.000490674               0.000375530               0.000000000               0.000000000               0.000000000               0.000000000               0.000124431               0.001370340               0.000032867              -0.000124631               0.000498319               0.000373689               0.000000000               0.000000000               0.000000000               0.000000000               0.000102141               0.001384129               0.000023574              -0.000134713               0.000506276               0.000371563               0.000000000               0.000000000               0.000000000               0.000000000               0.000074083               0.001398972               0.000015264              -0.000147090               0.000515349               0.000368259               0.000000000               0.000000000               0.000000000               0.000000000               0.000039153               0.001413853               0.000006424              -0.000162049               0.000525296               0.000363247               0.000000000               0.000000000               0.000000000               0.000000000               0.000023815               0.001426953               0.000004757              -0.000169438               0.000532126               0.000362687               0.000000000               0.000000000               0.000000000               0.000000000               0.000427177               0.001590413               0.000617977              -0.000038611               0.000543002               0.000504392               0.000000000               0.000000000               0.000000000               0.000000000               0.000324787               0.001439796               0.000433501              -0.000058180               0.000499320               0.000441141               0.000000000               0.000000000               0.000000000               0.000000000               0.000286280               0.001377918               0.000248784              -0.000064885               0.000480930               0.000416045               0.000000000               0.000000000               0.000000000               0.000000000               0.000265909               0.001339013               0.000171425              -0.000067661               0.000468887               0.000401226               0.000000000               0.000000000               0.000000000               0.000000000               0.000249955               0.001319811               0.000133396              -0.000071243               0.000463680               0.000392437               0.000000000               0.000000000               0.000000000               0.000000000               0.000230891               0.001319458               0.000110139              -0.000078348               0.000465931               0.000387583               0.000000000               0.000000000               0.000000000               0.000000000               0.000206635               0.001333992               0.000089815              -0.000089261               0.000474413               0.000385152               0.000000000               0.000000000               0.000000000               0.000000000               0.000182180               0.001356379               0.000071446              -0.000101230               0.000485865               0.000384635               0.000000000               0.000000000               0.000000000               0.000000000               0.000160926               0.001371409               0.000060380              -0.000111079               0.000494158               0.000383079               0.000000000               0.000000000               0.000000000               0.000000000               0.000147491               0.001380496               0.000058650              -0.000117252               0.000499245               0.000381992               0.000000000               0.000000000               0.000000000               0.000000000               0.000136437               0.001390302               0.000058777              -0.000122624               0.000504304               0.000381680               0.000000000               0.000000000               0.000000000               0.000000000               0.000120430               0.001408561               0.000048307              -0.000130908               0.000513152               0.000382243               0.000000000               0.000000000               0.000000000               0.000000000               0.000101496               0.001432286               0.000033671              -0.000140975               0.000524416               0.000383441               0.000000000               0.000000000               0.000000000               0.000000000               0.000082049               0.001458144               0.000025213              -0.000151499               0.000536543               0.000385044               0.000000000               0.000000000               0.000000000               0.000000000               0.000057886               0.001483311               0.000016947              -0.000163706               0.000549001               0.000385295               0.000000000               0.000000000               0.000000000               0.000000000               0.000027477               0.001508734               0.000007705              -0.000178288               0.000562336               0.000384048               0.000000000               0.000000000               0.000000000               0.000000000               0.000016530               0.001530416               0.000006531              -0.000185103               0.000571834               0.000386732               0.000000000               0.000000000               0.000000000               0.000000000               0.000469245               0.001366317               0.000627946               0.000005176               0.000453709               0.000458885               0.000000000               0.000000000               0.000000000               0.000000000               0.000338894               0.001292213               0.000452549              -0.000034442               0.000442214               0.000407772               0.000000000               0.000000000               0.000000000               0.000000000               0.000268412               0.001303356               0.000274594              -0.000062265               0.000455203               0.000392938               0.000000000               0.000000000               0.000000000               0.000000000               0.000243526               0.001298373               0.000197117              -0.000070974               0.000456445               0.000385471               0.000000000               0.000000000               0.000000000               0.000000000               0.000228477               0.001303016               0.000155638              -0.000077198               0.000460067               0.000382869               0.000000000               0.000000000               0.000000000               0.000000000               0.000208542               0.001320065               0.000126996              -0.000086805               0.000468952               0.000382147               0.000000000               0.000000000               0.000000000               0.000000000               0.000183817               0.001349484               0.000102066              -0.000099754               0.000483075               0.000383321               0.000000000               0.000000000               0.000000000               0.000000000               0.000160252               0.001378617               0.000082579              -0.000112232               0.000496945               0.000384713               0.000000000               0.000000000               0.000000000               0.000000000               0.000143449               0.001398929               0.000071767              -0.000121072               0.000506662               0.000385590               0.000000000               0.000000000               0.000000000               0.000000000               0.000133434               0.001418823               0.000066771              -0.000127315               0.000515374               0.000388060               0.000000000               0.000000000               0.000000000               0.000000000               0.000124152               0.001448496               0.000061101              -0.000134505               0.000527662               0.000393158               0.000000000               0.000000000               0.000000000               0.000000000               0.000108796               0.001489814               0.000046048              -0.000145428               0.000545076               0.000399648               0.000000000               0.000000000               0.000000000               0.000000000               0.000088826               0.001536792               0.000030127              -0.000158789               0.000565188               0.000406400               0.000000000               0.000000000               0.000000000               0.000000000               0.000066951               0.001582943               0.000022921              -0.000172761               0.000585230               0.000412469               0.000000000               0.000000000               0.000000000               0.000000000               0.000044324               0.001628193               0.000016765              -0.000186902               0.000605026               0.000418124               0.000000000               0.000000000               0.000000000               0.000000000               0.000021153               0.001673773               0.000007152              -0.000201289               0.000625015               0.000423726               0.000000000               0.000000000               0.000000000               0.000000000               0.000015558               0.001706728               0.000005862              -0.000207506               0.000638072               0.000430566               0.000000000               0.000000000               0.000000000               0.000000000               0.000491120               0.001149639               0.000605446               0.000040464               0.000369721               0.000410185               0.000000000               0.000000000               0.000000000               0.000000000               0.000345808               0.001153552               0.000453710              -0.000014517               0.000389352               0.000374836               0.000000000               0.000000000               0.000000000               0.000000000               0.000255304               0.001231556               0.000293900              -0.000058205               0.000429916               0.000371711               0.000000000               0.000000000               0.000000000               0.000000000               0.000229843               0.001259991               0.000217375              -0.000071308               0.000443762               0.000372454               0.000000000               0.000000000               0.000000000               0.000000000               0.000215516               0.001287260               0.000171465              -0.000080089               0.000455779               0.000375690               0.000000000               0.000000000               0.000000000               0.000000000               0.000194656               0.001322665               0.000138110              -0.000092337               0.000471663               0.000379326               0.000000000               0.000000000               0.000000000               0.000000000               0.000170548               0.001365764               0.000111495              -0.000106765               0.000490838               0.000384073               0.000000000               0.000000000               0.000000000               0.000000000               0.000151882               0.001401435               0.000090683              -0.000118223               0.000506548               0.000388325               0.000000000               0.000000000               0.000000000               0.000000000               0.000142389               0.001435344               0.000076354              -0.000126022               0.000520450               0.000394429               0.000000000               0.000000000               0.000000000               0.000000000               0.000137898               0.001478579               0.000064953              -0.000133110               0.000537225               0.000404115               0.000000000               0.000000000               0.000000000               0.000000000               0.000131108               0.001540645               0.000052314              -0.000143415               0.000561348               0.000417933               0.000000000               0.000000000               0.000000000               0.000000000               0.000114783               0.001613357               0.000034655              -0.000158626               0.000590656               0.000432030               0.000000000               0.000000000               0.000000000               0.000000000               0.000091480               0.001682538               0.000021150              -0.000176012               0.000619511               0.000443499               0.000000000               0.000000000               0.000000000               0.000000000               0.000064963               0.001747296               0.000016785              -0.000194050               0.000647110               0.000453059               0.000000000               0.000000000               0.000000000               0.000000000               0.000039662               0.001812337               0.000011739              -0.000211668               0.000674662               0.000462994               0.000000000               0.000000000               0.000000000               0.000000000               0.000018525               0.001874204               0.000005110              -0.000227328               0.000700505               0.000473176               0.000000000               0.000000000               0.000000000               0.000000000               0.000013037               0.001913069               0.000005811              -0.000234244               0.000715765               0.000481521               0.000000000               0.000000000               0.000000000               0.000000000               0.000502849               0.000955037               0.000558918               0.000069188               0.000295280               0.000364467               0.000000000               0.000000000               0.000000000               0.000000000               0.000352810               0.001027594               0.000444610               0.000003854               0.000341243               0.000345097               0.000000000               0.000000000               0.000000000               0.000000000               0.000253121               0.001166943               0.000313538              -0.000050948               0.000405960               0.000355012               0.000000000               0.000000000               0.000000000               0.000000000               0.000227980               0.001226800               0.000236411              -0.000067857               0.000431548               0.000363691               0.000000000               0.000000000               0.000000000               0.000000000               0.000212225               0.001274607               0.000186123              -0.000079741               0.000451445               0.000371704               0.000000000               0.000000000               0.000000000               0.000000000               0.000190475               0.001328678               0.000150183              -0.000094657               0.000474440               0.000379784               0.000000000               0.000000000               0.000000000               0.000000000               0.000168203               0.001382570               0.000122568              -0.000109745               0.000497434               0.000387689               0.000000000               0.000000000               0.000000000               0.000000000               0.000155916               0.001429272               0.000098222              -0.000120190               0.000516483               0.000396292               0.000000000               0.000000000               0.000000000               0.000000000               0.000154052               0.001481150               0.000076570              -0.000127374               0.000536170               0.000408796               0.000000000               0.000000000               0.000000000               0.000000000               0.000155264               0.001552383               0.000056654              -0.000135824               0.000562730               0.000426907               0.000000000               0.000000000               0.000000000               0.000000000               0.000151123               0.001642018               0.000038269              -0.000148581               0.000596861               0.000448280               0.000000000               0.000000000               0.000000000               0.000000000               0.000134241               0.001729955               0.000024138              -0.000165903               0.000631947               0.000466044               0.000000000               0.000000000               0.000000000               0.000000000               0.000111362               0.001810473               0.000014759              -0.000184548               0.000665001               0.000480453               0.000000000               0.000000000               0.000000000               0.000000000               0.000087634               0.001888826               0.000008635              -0.000203240               0.000697349               0.000494109               0.000000000               0.000000000               0.000000000               0.000000000               0.000062871               0.001964256               0.000004637              -0.000221955               0.000728730               0.000506775               0.000000000               0.000000000               0.000000000               0.000000000               0.000043339               0.002030840               0.000001468              -0.000237602               0.000756141               0.000518538               0.000000000               0.000000000               0.000000000               0.000000000               0.000034321               0.002064962               0.000000326              -0.000245249               0.000770063               0.000524814               0.000000000               0.000000000               0.000000000               0.000000000               0.000498318               0.000763139               0.000499636               0.000091475               0.000223885               0.000315360               0.000000000               0.000000000               0.000000000               0.000000000               0.000362907               0.000878504               0.000430473               0.000026276               0.000284073               0.000310349               0.000000000               0.000000000               0.000000000               0.000000000               0.000261762               0.001064131               0.000337163              -0.000034856               0.000366325               0.000331469               0.000000000               0.000000000               0.000000000               0.000000000               0.000233946               0.001156582               0.000262685              -0.000056843               0.000404471               0.000347628               0.000000000               0.000000000               0.000000000               0.000000000               0.000219182               0.001225290               0.000209018              -0.000070968               0.000432082               0.000361114               0.000000000               0.000000000               0.000000000               0.000000000               0.000200427               0.001293190               0.000171736              -0.000086489               0.000459888               0.000373400               0.000000000               0.000000000               0.000000000               0.000000000               0.000179133               0.001357612               0.000143379              -0.000102526               0.000486708               0.000384182               0.000000000               0.000000000               0.000000000               0.000000000               0.000164402               0.001421030               0.000115720              -0.000115978               0.000512331               0.000396354               0.000000000               0.000000000               0.000000000               0.000000000               0.000164166               0.001493288               0.000089921              -0.000125098               0.000539457               0.000414359               0.000000000               0.000000000               0.000000000               0.000000000               0.000173793               0.001579059               0.000066813              -0.000132210               0.000570418               0.000438208               0.000000000               0.000000000               0.000000000               0.000000000               0.000177612               0.001667940               0.000046360              -0.000141888               0.000603270               0.000461383               0.000000000               0.000000000               0.000000000               0.000000000               0.000170585               0.001759538               0.000032667              -0.000155973               0.000638498               0.000482525               0.000000000               0.000000000               0.000000000               0.000000000               0.000157859               0.001854122               0.000021769              -0.000172568               0.000675557               0.000502989               0.000000000               0.000000000               0.000000000               0.000000000               0.000141480               0.001942085               0.000011609              -0.000189705               0.000710590               0.000520885               0.000000000               0.000000000               0.000000000               0.000000000               0.000120358               0.002019691               0.000007199              -0.000207327               0.000742333               0.000535006               0.000000000               0.000000000               0.000000000               0.000000000               0.000098028               0.002088823               0.000004397              -0.000224342               0.000771048               0.000546706               0.000000000               0.000000000               0.000000000               0.000000000               0.000081669               0.002118344              -0.000000501              -0.000234166               0.000784163               0.000549997               0.000000000               0.000000000               0.000000000               0.000000000               0.000469463               0.000579603               0.000428231               0.000103597               0.000158667               0.000262264               0.000000000               0.000000000               0.000000000               0.000000000               0.000369835               0.000727758               0.000404523               0.000047717               0.000226678               0.000274395               0.000000000               0.000000000               0.000000000               0.000000000               0.000280330               0.000945091               0.000351080              -0.000013013               0.000319365               0.000306352               0.000000000               0.000000000               0.000000000               0.000000000               0.000251342               0.001068995               0.000286174              -0.000039371               0.000369452               0.000330080               0.000000000               0.000000000               0.000000000               0.000000000               0.000235767               0.001159608               0.000232997              -0.000056538               0.000405378               0.000348840               0.000000000               0.000000000               0.000000000               0.000000000               0.000219623               0.001239196               0.000194514              -0.000072541               0.000437242               0.000364701               0.000000000               0.000000000               0.000000000               0.000000000               0.000199900               0.001316103               0.000164689              -0.000089550               0.000468547               0.000378996               0.000000000               0.000000000               0.000000000               0.000000000               0.000185992               0.001396155               0.000137015              -0.000104772               0.000500304               0.000395532               0.000000000               0.000000000               0.000000000               0.000000000               0.000185507               0.001480971               0.000112448              -0.000115556               0.000532171               0.000416615               0.000000000               0.000000000               0.000000000               0.000000000               0.000198163               0.001570306               0.000088260              -0.000121977               0.000564089               0.000442112               0.000000000               0.000000000               0.000000000               0.000000000               0.000212580               0.001663872               0.000063776              -0.000128266               0.000597374               0.000469108               0.000000000               0.000000000               0.000000000               0.000000000               0.000217949               0.001762316               0.000046342              -0.000138558               0.000633619               0.000495061               0.000000000               0.000000000               0.000000000               0.000000000               0.000212992               0.001858020               0.000034546              -0.000152380               0.000670127               0.000517747               0.000000000               0.000000000               0.000000000               0.000000000               0.000204774               0.001949135               0.000022342              -0.000166851               0.000705322               0.000538471               0.000000000               0.000000000               0.000000000               0.000000000               0.000188120               0.002029215               0.000010440              -0.000183106               0.000737434               0.000554327               0.000000000               0.000000000               0.000000000               0.000000000               0.000162590               0.002097216               0.000003950              -0.000201180               0.000766125               0.000564945               0.000000000               0.000000000               0.000000000               0.000000000               0.000140965               0.002122783              -0.000001204              -0.000212486               0.000778416               0.000565930               0.000000000               0.000000000               0.000000000               0.000000000               0.000418233               0.000416703               0.000343879               0.000104748               0.000103983               0.000208732               0.000000000               0.000000000               0.000000000               0.000000000               0.000364023               0.000581554               0.000360021               0.000063813               0.000172578               0.000236392               0.000000000               0.000000000               0.000000000               0.000000000               0.000301290               0.000813544               0.000344702               0.000011290               0.000267415               0.000278705               0.000000000               0.000000000               0.000000000               0.000000000               0.000276879               0.000963958               0.000293467              -0.000016665               0.000326871               0.000310206               0.000000000               0.000000000               0.000000000               0.000000000               0.000260976               0.001074555               0.000245572              -0.000036453               0.000370333               0.000333879               0.000000000               0.000000000               0.000000000               0.000000000               0.000245538               0.001167199               0.000208172              -0.000053823               0.000407004               0.000353180               0.000000000               0.000000000               0.000000000               0.000000000               0.000231221               0.001259601               0.000179565              -0.000070742               0.000443443               0.000372701               0.000000000               0.000000000               0.000000000               0.000000000               0.000221935               0.001352511               0.000155293              -0.000085838               0.000479445               0.000393607               0.000000000               0.000000000               0.000000000               0.000000000               0.000220804               0.001448776               0.000133316              -0.000098295               0.000515686               0.000417391               0.000000000               0.000000000               0.000000000               0.000000000               0.000228610               0.001550841               0.000109390              -0.000108126               0.000552984               0.000444858               0.000000000               0.000000000               0.000000000               0.000000000               0.000245978               0.001657269               0.000083999              -0.000114917               0.000590723               0.000475806               0.000000000               0.000000000               0.000000000               0.000000000               0.000260850               0.001760521               0.000063279              -0.000122246               0.000627583               0.000505337               0.000000000               0.000000000               0.000000000               0.000000000               0.000265095               0.001854913               0.000049330              -0.000132453               0.000662449               0.000529996               0.000000000               0.000000000               0.000000000               0.000000000               0.000260224               0.001941958               0.000033971              -0.000145160               0.000695700               0.000550539               0.000000000               0.000000000               0.000000000               0.000000000               0.000248759               0.002022616               0.000015536              -0.000159542               0.000727379               0.000567837               0.000000000               0.000000000               0.000000000               0.000000000               0.000230111               0.002095025               0.000004734              -0.000175586               0.000756863               0.000581277               0.000000000               0.000000000               0.000000000               0.000000000               0.000208672               0.002121238              -0.000001369              -0.000186902               0.000769373               0.000582471               0.000000000               0.000000000               0.000000000               0.000000000               0.000346661               0.000284773               0.000257275               0.000094400               0.000063456               0.000157856               0.000000000               0.000000000               0.000000000               0.000000000               0.000346127               0.000448925               0.000300442               0.000073681               0.000125080               0.000198761               0.000000000               0.000000000               0.000000000               0.000000000               0.000321004               0.000680079               0.000315172               0.000035366               0.000214902               0.000250268               0.000000000               0.000000000               0.000000000               0.000000000               0.000305982               0.000847425               0.000279666               0.000008815               0.000279534               0.000288349               0.000000000               0.000000000               0.000000000               0.000000000               0.000292715               0.000974497               0.000239711              -0.000012044               0.000328844               0.000316800               0.000000000               0.000000000               0.000000000               0.000000000               0.000280581               0.001082884               0.000207987              -0.000030143               0.000371005               0.000340862               0.000000000               0.000000000               0.000000000               0.000000000               0.000272136               0.001190183               0.000184254              -0.000046722               0.000412298               0.000365576               0.000000000               0.000000000               0.000000000               0.000000000               0.000264914               0.001295949               0.000163262              -0.000062651               0.000452862               0.000390211               0.000000000               0.000000000               0.000000000               0.000000000               0.000262304               0.001407614               0.000143419              -0.000077588               0.000495062               0.000417475               0.000000000               0.000000000               0.000000000               0.000000000               0.000267820               0.001525254               0.000123467              -0.000090224               0.000538488               0.000448264               0.000000000               0.000000000               0.000000000               0.000000000               0.000283546               0.001642085               0.000101152              -0.000098931               0.000580333               0.000481402               0.000000000               0.000000000               0.000000000               0.000000000               0.000300227               0.001746355               0.000078888              -0.000105709               0.000617349               0.000511640               0.000000000               0.000000000               0.000000000               0.000000000               0.000308763               0.001835912               0.000060227              -0.000113703               0.000649866               0.000536163               0.000000000               0.000000000               0.000000000               0.000000000               0.000306782               0.001917262               0.000040886              -0.000124614               0.000680619               0.000556005               0.000000000               0.000000000               0.000000000               0.000000000               0.000302967               0.001998455               0.000022256              -0.000136194               0.000711543               0.000575349               0.000000000               0.000000000               0.000000000               0.000000000               0.000297294               0.002079568               0.000008425              -0.000148460               0.000742669               0.000594209               0.000000000               0.000000000               0.000000000               0.000000000               0.000283129               0.002112809              -0.000000073              -0.000157927               0.000756905               0.000598978               0.000000000               0.000000000               0.000000000               0.000000000               0.000267389               0.000183156               0.000178083               0.000077375               0.000035259               0.000112635               0.000000000               0.000000000               0.000000000               0.000000000               0.000320588               0.000336906               0.000231520               0.000078106               0.000086265               0.000164372               0.000000000               0.000000000               0.000000000               0.000000000               0.000334896               0.000555816               0.000261523               0.000056108               0.000166567               0.000222675               0.000000000               0.000000000               0.000000000               0.000000000               0.000334718               0.000729837               0.000241015               0.000034289               0.000231847               0.000266136               0.000000000               0.000000000               0.000000000               0.000000000               0.000327623               0.000869948               0.000211591               0.000014115               0.000285275               0.000299390               0.000000000               0.000000000               0.000000000               0.000000000               0.000321620               0.000996856               0.000188236              -0.000003999               0.000333615               0.000329616               0.000000000               0.000000000               0.000000000               0.000000000               0.000316030               0.001118209               0.000170104              -0.000021265               0.000379821               0.000358556               0.000000000               0.000000000               0.000000000               0.000000000               0.000309571               0.001236978               0.000152928              -0.000038533               0.000425166               0.000386633               0.000000000               0.000000000               0.000000000               0.000000000               0.000308319               0.001362057               0.000137773              -0.000054637               0.000472227               0.000417590               0.000000000               0.000000000               0.000000000               0.000000000               0.000315076               0.001489009               0.000123492              -0.000067973               0.000518989               0.000451016               0.000000000               0.000000000               0.000000000               0.000000000               0.000324624               0.001608298               0.000105576              -0.000079303               0.000562528               0.000483225               0.000000000               0.000000000               0.000000000               0.000000000               0.000335839               0.001711802               0.000084577              -0.000088036               0.000599940               0.000511905               0.000000000               0.000000000               0.000000000               0.000000000               0.000343178               0.001799167               0.000062081              -0.000096204               0.000631784               0.000535581               0.000000000               0.000000000               0.000000000               0.000000000               0.000347708               0.001885349               0.000041794              -0.000105278               0.000663536               0.000558258               0.000000000               0.000000000               0.000000000               0.000000000               0.000354868               0.001976659               0.000027812              -0.000114007               0.000696882               0.000582875               0.000000000               0.000000000               0.000000000               0.000000000               0.000362490               0.002067718               0.000014711              -0.000122531               0.000730076               0.000607545               0.000000000               0.000000000               0.000000000               0.000000000               0.000358904               0.002108804               0.000005547              -0.000129011               0.000745931               0.000616920               0.000000000               0.000000000               0.000000000               0.000000000               0.000198270               0.000115347               0.000108789               0.000059932               0.000018471               0.000078403               0.000000000               0.000000000               0.000000000               0.000000000               0.000294326               0.000252626               0.000156162               0.000078793               0.000057943               0.000136737               0.000000000               0.000000000               0.000000000               0.000000000               0.000343534               0.000453570               0.000187198               0.000072128               0.000127146               0.000199274               0.000000000               0.000000000               0.000000000               0.000000000               0.000358052               0.000627716               0.000177775               0.000055804               0.000190635               0.000246440               0.000000000               0.000000000               0.000000000               0.000000000               0.000359854               0.000777982               0.000159551               0.000037697               0.000246759               0.000284456               0.000000000               0.000000000               0.000000000               0.000000000               0.000360125               0.000920427               0.000144531               0.000019993               0.000300142               0.000320135               0.000000000               0.000000000               0.000000000               0.000000000               0.000356685               0.001055047               0.000131606               0.000001876               0.000351054               0.000352930               0.000000000               0.000000000               0.000000000               0.000000000               0.000353788               0.001182929               0.000120865              -0.000015196               0.000399371               0.000384175               0.000000000               0.000000000               0.000000000               0.000000000               0.000355487               0.001312690               0.000112544              -0.000030779               0.000447819               0.000417040               0.000000000               0.000000000               0.000000000               0.000000000               0.000358565               0.001444343               0.000101830              -0.000046081               0.000496803               0.000450722               0.000000000               0.000000000               0.000000000               0.000000000               0.000361710               0.001565695               0.000087714              -0.000060070               0.000541917               0.000481846               0.000000000               0.000000000               0.000000000               0.000000000               0.000364910               0.001668753               0.000071540              -0.000071753               0.000580163               0.000508410               0.000000000               0.000000000               0.000000000               0.000000000               0.000371900               0.001762502               0.000053213              -0.000080850               0.000614445               0.000533595               0.000000000               0.000000000               0.000000000               0.000000000               0.000386344               0.001861279               0.000038481              -0.000087781               0.000649680               0.000561900               0.000000000               0.000000000               0.000000000               0.000000000               0.000403330               0.001962059               0.000029204              -0.000094008               0.000685349               0.000591341               0.000000000               0.000000000               0.000000000               0.000000000               0.000419685               0.002060806               0.000017657              -0.000100219               0.000720335               0.000620116               0.000000000               0.000000000               0.000000000               0.000000000               0.000424721               0.002108514               0.000009425              -0.000104293               0.000737595               0.000633302               0.000000000               0.000000000               0.000000000               0.000000000               0.000149536               0.000079883               0.000050828               0.000046090               0.000011264               0.000057354               0.000000000               0.000000000               0.000000000               0.000000000               0.000273123               0.000200300               0.000078149               0.000077383               0.000040972               0.000118354               0.000000000               0.000000000               0.000000000               0.000000000               0.000349149               0.000386237               0.000097710               0.000082650               0.000101194               0.000183845               0.000000000               0.000000000               0.000000000               0.000000000               0.000372592               0.000558998               0.000094728               0.000069846               0.000163049               0.000232895               0.000000000               0.000000000               0.000000000               0.000000000               0.000381696               0.000713995               0.000086222               0.000053886               0.000220034               0.000273920               0.000000000               0.000000000               0.000000000               0.000000000               0.000387134               0.000865511               0.000078379               0.000036986               0.000276172               0.000313158               0.000000000               0.000000000               0.000000000               0.000000000               0.000388904               0.001010485               0.000071855               0.000019528               0.000330316               0.000349844               0.000000000               0.000000000               0.000000000               0.000000000               0.000388667               0.001144879               0.000068218               0.000002640               0.000380743               0.000383383               0.000000000               0.000000000               0.000000000               0.000000000               0.000387661               0.001275842               0.000064230              -0.000014107               0.000429979               0.000415871               0.000000000               0.000000000               0.000000000               0.000000000               0.000386136               0.001405227               0.000057780              -0.000030852               0.000478688               0.000447836               0.000000000               0.000000000               0.000000000               0.000000000               0.000386658               0.001526937               0.000049489              -0.000045870               0.000524264               0.000478394               0.000000000               0.000000000               0.000000000               0.000000000               0.000389819               0.001638328               0.000040960              -0.000058609               0.000565640               0.000507032               0.000000000               0.000000000               0.000000000               0.000000000               0.000399028               0.001744163               0.000033069              -0.000068385               0.000604177               0.000535792               0.000000000               0.000000000               0.000000000               0.000000000               0.000415630               0.001847503               0.000025679              -0.000075076               0.000640854               0.000565777               0.000000000               0.000000000               0.000000000               0.000000000               0.000435049               0.001947140               0.000019029              -0.000080249               0.000675790               0.000595541               0.000000000               0.000000000               0.000000000               0.000000000               0.000458507               0.002051211               0.000011214              -0.000084461               0.000711884               0.000627423               0.000000000               0.000000000               0.000000000               0.000000000               0.000471551               0.002105345               0.000006397              -0.000086336               0.000730553               0.000644217               0.000000000               0.000000000               0.000000000               0.000000000               0.000131195               0.000068319               0.000000000               0.000040658               0.000009220               0.000049878               0.000000000               0.000000000               0.000000000               0.000000000               0.000264686               0.000181984               0.000000000               0.000076508               0.000035158               0.000111666               0.000000000               0.000000000               0.000000000               0.000000000               0.000351344               0.000363352              -0.000000000               0.000086334               0.000092338               0.000178672               0.000000000               0.000000000               0.000000000               0.000000000               0.000377317               0.000534645               0.000000000               0.000074663               0.000153326               0.000227988               0.000000000               0.000000000               0.000000000               0.000000000               0.000389088               0.000689971               0.000000000               0.000059661               0.000210101               0.000269762               0.000000000               0.000000000               0.000000000               0.000000000               0.000396669               0.000845772               0.000000000               0.000043029               0.000267578               0.000310607               0.000000000               0.000000000               0.000000000               0.000000000               0.000402377               0.000994562               0.000000000               0.000026571               0.000322661               0.000349231               0.000000000               0.000000000               0.000000000               0.000000000               0.000401850               0.001131636               0.000000000               0.000009239               0.000374129               0.000383368               0.000000000               0.000000000               0.000000000               0.000000000               0.000397375               0.001263605               0.000000000              -0.000008935               0.000424176               0.000415241               0.000000000               0.000000000               0.000000000               0.000000000               0.000395319               0.001388325               0.000000000              -0.000025296               0.000471202               0.000445906               0.000000000               0.000000000               0.000000000               0.000000000               0.000395967               0.001509719              -0.000000000              -0.000040227               0.000516644               0.000476416               0.000000000               0.000000000               0.000000000               0.000000000               0.000402261               0.001630425               0.000000000              -0.000052955               0.000561121               0.000508166               0.000000000               0.000000000               0.000000000               0.000000000               0.000411262               0.001739696               0.000000000              -0.000063238               0.000600972               0.000537734               0.000000000               0.000000000               0.000000000               0.000000000               0.000424219               0.001838826               0.000000000              -0.000070771               0.000636526               0.000565755               0.000000000               0.000000000               0.000000000               0.000000000               0.000444356               0.001939791               0.000000000              -0.000075840               0.000671871               0.000596030               0.000000000               0.000000000               0.000000000               0.000000000               0.000473537               0.002049661               0.000000000              -0.000078631               0.000709424               0.000630793               0.000000000               0.000000000               0.000000000               0.000000000               0.000491169               0.002106558              -0.000000000              -0.000079131               0.000728556               0.000649425               0.000000000               0.000000000               0.000000000               0.000000000               0.000204286               0.002310150               0.000000000              -0.000212161               0.000840763               0.000628602               0.000000000               0.000000000               0.000000000               0.000000000               0.000238147               0.001935853               0.000000000              -0.000152676               0.000696170               0.000543494               0.000000000               0.000000000               0.000000000               0.000000000               0.000346967               0.001632621               0.000000000              -0.000073965               0.000568857               0.000494892               0.000000000               0.000000000               0.000000000               0.000000000               0.000385319               0.001458867               0.000000000              -0.000037864               0.000498905               0.000461042               0.000000000               0.000000000               0.000000000               0.000000000               0.000396650               0.001354924               0.000000000              -0.000020622               0.000458511               0.000437889               0.000000000               0.000000000               0.000000000               0.000000000               0.000395199               0.001288861               0.000000000              -0.000012908               0.000433919               0.000421011               0.000000000               0.000000000               0.000000000               0.000000000               0.000385684               0.001250678               0.000000000              -0.000011703               0.000420790               0.000409086               0.000000000               0.000000000               0.000000000               0.000000000               0.000366447               0.001235040               0.000000000              -0.000016962               0.000417330               0.000400368               0.000000000               0.000000000               0.000000000               0.000000000               0.000338088               0.001237762               0.000000000              -0.000027937               0.000421896               0.000393958               0.000000000               0.000000000               0.000000000               0.000000000               0.000304087               0.001255550               0.000000000              -0.000042911               0.000432816               0.000389905               0.000000000               0.000000000               0.000000000               0.000000000               0.000268030               0.001279976              -0.000000000              -0.000059486               0.000446483               0.000386997               0.000000000               0.000000000               0.000000000               0.000000000               0.000230699               0.001303246              -0.000000000              -0.000076393               0.000459875               0.000383482               0.000000000               0.000000000               0.000000000               0.000000000               0.000192296               0.001327620              -0.000000000              -0.000093841               0.000473816               0.000379975               0.000000000               0.000000000               0.000000000               0.000000000               0.000153455               0.001358662              -0.000000000              -0.000112287               0.000490312               0.000378025               0.000000000               0.000000000               0.000000000               0.000000000               0.000107091               0.001391265              -0.000000000              -0.000133749               0.000508333               0.000374585               0.000000000               0.000000000               0.000000000               0.000000000               0.000052462               0.001425269              -0.000000000              -0.000158485               0.000527913               0.000369428               0.000000000               0.000000000               0.000000000               0.000000000               0.000028919               0.001455691              -0.000000000              -0.000171116               0.000542264               0.000371148               0.000000000               0.000000000               0.000000000               0.000000000               0.000216061               0.002272802              -0.000180127              -0.000203077               0.000825285               0.000622209               0.000000000               0.000000000               0.000000000               0.000000000               0.000242706               0.001910370              -0.000122916              -0.000147781               0.000686044               0.000538263               0.000000000               0.000000000               0.000000000               0.000000000               0.000343863               0.001618576              -0.000064442              -0.000073373               0.000563978               0.000490605               0.000000000               0.000000000               0.000000000               0.000000000               0.000378188               0.001453802              -0.000037408              -0.000039905               0.000497898               0.000457993               0.000000000               0.000000000               0.000000000               0.000000000               0.000386213               0.001353806              -0.000025448              -0.000024396               0.000459396               0.000435000               0.000000000               0.000000000               0.000000000               0.000000000               0.000383206               0.001291760              -0.000020313              -0.000017768               0.000436505               0.000418737               0.000000000               0.000000000               0.000000000               0.000000000               0.000372509               0.001256802              -0.000017139              -0.000017409               0.000424733               0.000407324               0.000000000               0.000000000               0.000000000               0.000000000               0.000353464               0.001242125              -0.000013755              -0.000022716               0.000421610               0.000398893               0.000000000               0.000000000               0.000000000               0.000000000               0.000325821               0.001246848              -0.000010712              -0.000033673               0.000426836               0.000393163               0.000000000               0.000000000               0.000000000               0.000000000               0.000292656               0.001262851              -0.000010463              -0.000048110               0.000436983               0.000388873               0.000000000               0.000000000               0.000000000               0.000000000               0.000259310               0.001284216              -0.000014544              -0.000063286               0.000449163               0.000385877               0.000000000               0.000000000               0.000000000               0.000000000               0.000225040               0.001304669              -0.000019192              -0.000078693               0.000461116               0.000382423               0.000000000               0.000000000               0.000000000               0.000000000               0.000188312               0.001327276              -0.000017982              -0.000095292               0.000474185               0.000378893               0.000000000               0.000000000               0.000000000               0.000000000               0.000147272               0.001354680              -0.000015216              -0.000114108               0.000489592               0.000375484               0.000000000               0.000000000               0.000000000               0.000000000               0.000101323               0.001382820              -0.000013817              -0.000134856               0.000505887               0.000371031               0.000000000               0.000000000               0.000000000               0.000000000               0.000051849               0.001412814              -0.000008566              -0.000157158               0.000523319               0.000366161               0.000000000               0.000000000               0.000000000               0.000000000               0.000030017               0.001438259              -0.000005066              -0.000168526               0.000535590               0.000367064               0.000000000               0.000000000               0.000000000               0.000000000               0.000255448               0.002169455              -0.000343093              -0.000175389               0.000781607               0.000606219               0.000000000               0.000000000               0.000000000               0.000000000               0.000259272               0.001837846              -0.000234258              -0.000132503               0.000656777               0.000524273               0.000000000               0.000000000               0.000000000               0.000000000               0.000334366               0.001580227              -0.000123108              -0.000072141               0.000550784               0.000478643               0.000000000               0.000000000               0.000000000               0.000000000               0.000356765               0.001437135              -0.000073609              -0.000045855               0.000494325               0.000448470               0.000000000               0.000000000               0.000000000               0.000000000               0.000358267               0.001350796              -0.000051756              -0.000034499               0.000461761               0.000427261               0.000000000               0.000000000               0.000000000               0.000000000               0.000350635               0.001299334              -0.000041729              -0.000030929               0.000443416               0.000412488               0.000000000               0.000000000               0.000000000               0.000000000               0.000337427               0.001272221              -0.000035550              -0.000032492               0.000434900               0.000402408               0.000000000               0.000000000               0.000000000               0.000000000               0.000317836               0.001263710              -0.000028155              -0.000038775               0.000434158               0.000395382               0.000000000               0.000000000               0.000000000               0.000000000               0.000290913               0.001269841              -0.000022170              -0.000049638               0.000439822               0.000390184               0.000000000               0.000000000               0.000000000               0.000000000               0.000263312               0.001283394              -0.000022038              -0.000061682               0.000448354               0.000386672               0.000000000               0.000000000               0.000000000               0.000000000               0.000235203               0.001297351              -0.000028285              -0.000073968               0.000457102               0.000383134               0.000000000               0.000000000               0.000000000               0.000000000               0.000203503               0.001310934              -0.000033791              -0.000087553               0.000466158               0.000378605               0.000000000               0.000000000               0.000000000               0.000000000               0.000172529               0.001329642              -0.000029425              -0.000101507               0.000477045               0.000375539               0.000000000               0.000000000               0.000000000               0.000000000               0.000137052               0.001349901              -0.000024362              -0.000117343               0.000489077               0.000371734               0.000000000               0.000000000               0.000000000               0.000000000               0.000093231               0.001367512              -0.000020387              -0.000135977               0.000501158               0.000365181               0.000000000               0.000000000               0.000000000               0.000000000               0.000046820               0.001385311              -0.000011189              -0.000155606               0.000513634               0.000358028               0.000000000               0.000000000               0.000000000               0.000000000               0.000026001               0.001399844              -0.000006275              -0.000165230               0.000521687               0.000356457               0.000000000               0.000000000               0.000000000               0.000000000               0.000311730               0.002012396              -0.000474347              -0.000134651               0.000715676               0.000581025               0.000000000               0.000000000               0.000000000               0.000000000               0.000282675               0.001726265              -0.000325620              -0.000109780               0.000612009               0.000502229               0.000000000               0.000000000               0.000000000               0.000000000               0.000320711               0.001522802              -0.000174263              -0.000070083               0.000530957               0.000460873               0.000000000               0.000000000               0.000000000               0.000000000               0.000326456               0.001410912              -0.000108332              -0.000053943               0.000488280               0.000434337               0.000000000               0.000000000               0.000000000               0.000000000               0.000319642               0.001345397              -0.000079434              -0.000048309               0.000464564               0.000416255               0.000000000               0.000000000               0.000000000               0.000000000               0.000307336               0.001309229              -0.000065080              -0.000048403               0.000452540               0.000404137               0.000000000               0.000000000               0.000000000               0.000000000               0.000290580               0.001293146              -0.000054485              -0.000052676               0.000448603               0.000395927               0.000000000               0.000000000               0.000000000               0.000000000               0.000267669               0.001294236              -0.000043575              -0.000061404               0.000451876               0.000390472               0.000000000               0.000000000               0.000000000               0.000000000               0.000243513               0.001302769              -0.000034562              -0.000071528               0.000458095               0.000386566               0.000000000               0.000000000               0.000000000               0.000000000               0.000223032               0.001312983              -0.000033820              -0.000080486               0.000464485               0.000383999               0.000000000               0.000000000               0.000000000               0.000000000               0.000201811               0.001320316              -0.000040130              -0.000089360               0.000469888               0.000380528               0.000000000               0.000000000               0.000000000               0.000000000               0.000176210               0.001327516              -0.000041294              -0.000099860               0.000475788               0.000375927               0.000000000               0.000000000               0.000000000               0.000000000               0.000148751               0.001340378              -0.000032436              -0.000111765               0.000484043               0.000372278               0.000000000               0.000000000               0.000000000               0.000000000               0.000117576               0.001352890              -0.000024974              -0.000125020               0.000492632               0.000367612               0.000000000               0.000000000               0.000000000               0.000000000               0.000082583               0.001365464              -0.000018277              -0.000139714               0.000501721               0.000362008               0.000000000               0.000000000               0.000000000               0.000000000               0.000043994               0.001377535              -0.000007899              -0.000155694               0.000511072               0.000355378               0.000000000               0.000000000               0.000000000               0.000000000               0.000025970               0.001387464              -0.000003945              -0.000163694               0.000517048               0.000353354               0.000000000               0.000000000               0.000000000               0.000000000               0.000370506               0.001812632              -0.000567788              -0.000087640               0.000633418               0.000545778               0.000000000               0.000000000               0.000000000               0.000000000               0.000305585               0.001588563              -0.000392413              -0.000083976               0.000557508               0.000473532               0.000000000               0.000000000               0.000000000               0.000000000               0.000304857               0.001452617              -0.000215733              -0.000067256               0.000506619               0.000439364               0.000000000               0.000000000               0.000000000               0.000000000               0.000294193               0.001377738              -0.000141417              -0.000061895               0.000479873               0.000417978               0.000000000               0.000000000               0.000000000               0.000000000               0.000281121               0.001335048              -0.000107168              -0.000061460               0.000465498               0.000404038               0.000000000               0.000000000               0.000000000               0.000000000               0.000264733               0.001316574              -0.000088614              -0.000065297               0.000460619               0.000395322               0.000000000               0.000000000               0.000000000               0.000000000               0.000243133               0.001315350              -0.000073595              -0.000073244               0.000462860               0.000389617               0.000000000               0.000000000               0.000000000               0.000000000               0.000219406               0.001326992              -0.000058056              -0.000083597               0.000470192               0.000386595               0.000000000               0.000000000               0.000000000               0.000000000               0.000196375               0.001339452              -0.000047622              -0.000093790               0.000477743               0.000383952               0.000000000               0.000000000               0.000000000               0.000000000               0.000180109               0.001346936              -0.000046179              -0.000100826               0.000482583               0.000381757               0.000000000               0.000000000               0.000000000               0.000000000               0.000165536               0.001350148              -0.000050021              -0.000106692               0.000485609               0.000378917               0.000000000               0.000000000               0.000000000               0.000000000               0.000145246               0.001356891              -0.000045713              -0.000115144               0.000490674               0.000375530               0.000000000               0.000000000               0.000000000               0.000000000               0.000124431               0.001370340              -0.000032867              -0.000124631               0.000498319               0.000373689               0.000000000               0.000000000               0.000000000               0.000000000               0.000102141               0.001384129              -0.000023574              -0.000134713               0.000506276               0.000371563               0.000000000               0.000000000               0.000000000               0.000000000               0.000074083               0.001398972              -0.000015264              -0.000147090               0.000515349               0.000368259               0.000000000               0.000000000               0.000000000               0.000000000               0.000039153               0.001413853              -0.000006424              -0.000162049               0.000525296               0.000363247               0.000000000               0.000000000               0.000000000               0.000000000               0.000023815               0.001426953              -0.000004757              -0.000169438               0.000532126               0.000362687               0.000000000               0.000000000               0.000000000               0.000000000               0.000427177               0.001590413              -0.000617977              -0.000038611               0.000543002               0.000504392               0.000000000               0.000000000               0.000000000               0.000000000               0.000324787               0.001439796              -0.000433501              -0.000058180               0.000499320               0.000441141               0.000000000               0.000000000               0.000000000               0.000000000               0.000286280               0.001377918              -0.000248784              -0.000064885               0.000480930               0.000416045               0.000000000               0.000000000               0.000000000               0.000000000               0.000265909               0.001339013              -0.000171425              -0.000067661               0.000468887               0.000401226               0.000000000               0.000000000               0.000000000               0.000000000               0.000249955               0.001319811              -0.000133396              -0.000071243               0.000463680               0.000392437               0.000000000               0.000000000               0.000000000               0.000000000               0.000230891               0.001319458              -0.000110139              -0.000078348               0.000465931               0.000387583               0.000000000               0.000000000               0.000000000               0.000000000               0.000206635               0.001333992              -0.000089815              -0.000089261               0.000474413               0.000385152               0.000000000               0.000000000               0.000000000               0.000000000               0.000182180               0.001356379              -0.000071446              -0.000101230               0.000485865               0.000384635               0.000000000               0.000000000               0.000000000               0.000000000               0.000160926               0.001371409              -0.000060380              -0.000111079               0.000494158               0.000383079               0.000000000               0.000000000               0.000000000               0.000000000               0.000147491               0.001380496              -0.000058650              -0.000117252               0.000499245               0.000381992               0.000000000               0.000000000               0.000000000               0.000000000               0.000136437               0.001390302              -0.000058777              -0.000122624               0.000504304               0.000381680               0.000000000               0.000000000               0.000000000               0.000000000               0.000120430               0.001408561              -0.000048307              -0.000130908               0.000513152               0.000382243               0.000000000               0.000000000               0.000000000               0.000000000               0.000101496               0.001432286              -0.000033671              -0.000140975               0.000524416               0.000383441               0.000000000               0.000000000               0.000000000               0.000000000               0.000082049               0.001458144              -0.000025213              -0.000151499               0.000536543               0.000385044               0.000000000               0.000000000               0.000000000               0.000000000               0.000057886               0.001483311              -0.000016947              -0.000163706               0.000549001               0.000385295               0.000000000               0.000000000               0.000000000               0.000000000               0.000027477               0.001508734              -0.000007705              -0.000178288               0.000562336               0.000384048               0.000000000               0.000000000               0.000000000               0.000000000               0.000016530               0.001530416              -0.000006531              -0.000185103               0.000571834               0.000386732               0.000000000               0.000000000               0.000000000               0.000000000               0.000469245               0.001366317              -0.000627946               0.000005176               0.000453709               0.000458885               0.000000000               0.000000000               0.000000000               0.000000000               0.000338894               0.001292213              -0.000452549              -0.000034442               0.000442214               0.000407772               0.000000000               0.000000000               0.000000000               0.000000000               0.000268412               0.001303356              -0.000274594              -0.000062265               0.000455203               0.000392938               0.000000000               0.000000000               0.000000000               0.000000000               0.000243526               0.001298373              -0.000197117              -0.000070974               0.000456445               0.000385471               0.000000000               0.000000000               0.000000000               0.000000000               0.000228477               0.001303016              -0.000155638              -0.000077198               0.000460067               0.000382869               0.000000000               0.000000000               0.000000000               0.000000000               0.000208542               0.001320065              -0.000126996              -0.000086805               0.000468952               0.000382147               0.000000000               0.000000000               0.000000000               0.000000000               0.000183817               0.001349484              -0.000102066              -0.000099754               0.000483075               0.000383321               0.000000000               0.000000000               0.000000000               0.000000000               0.000160252               0.001378617              -0.000082579              -0.000112232               0.000496945               0.000384713               0.000000000               0.000000000               0.000000000               0.000000000               0.000143449               0.001398929              -0.000071767              -0.000121072               0.000506662               0.000385590               0.000000000               0.000000000               0.000000000               0.000000000               0.000133434               0.001418823              -0.000066771              -0.000127315               0.000515374               0.000388060               0.000000000               0.000000000               0.000000000               0.000000000               0.000124152               0.001448496              -0.000061101              -0.000134505               0.000527662               0.000393158               0.000000000               0.000000000               0.000000000               0.000000000               0.000108796               0.001489814              -0.000046048              -0.000145428               0.000545076               0.000399648               0.000000000               0.000000000               0.000000000               0.000000000               0.000088826               0.001536792              -0.000030127              -0.000158789               0.000565188               0.000406400               0.000000000               0.000000000               0.000000000               0.000000000               0.000066951               0.001582943              -0.000022921              -0.000172761               0.000585230               0.000412469               0.000000000               0.000000000               0.000000000               0.000000000               0.000044324               0.001628193              -0.000016765              -0.000186902               0.000605026               0.000418124               0.000000000               0.000000000               0.000000000               0.000000000               0.000021153               0.001673773              -0.000007152              -0.000201289               0.000625015               0.000423726               0.000000000               0.000000000               0.000000000               0.000000000               0.000015558               0.001706728              -0.000005862              -0.000207506               0.000638072               0.000430566               0.000000000               0.000000000               0.000000000               0.000000000               0.000491120               0.001149639              -0.000605446               0.000040464               0.000369721               0.000410185               0.000000000               0.000000000               0.000000000               0.000000000               0.000345808               0.001153552              -0.000453710              -0.000014517               0.000389352               0.000374836               0.000000000               0.000000000               0.000000000               0.000000000               0.000255304               0.001231556              -0.000293900              -0.000058205               0.000429916               0.000371711               0.000000000               0.000000000               0.000000000               0.000000000               0.000229843               0.001259991              -0.000217375              -0.000071308               0.000443762               0.000372454               0.000000000               0.000000000               0.000000000               0.000000000               0.000215516               0.001287260              -0.000171465              -0.000080089               0.000455779               0.000375690               0.000000000               0.000000000               0.000000000               0.000000000               0.000194656               0.001322665              -0.000138110              -0.000092337               0.000471663               0.000379326               0.000000000               0.000000000               0.000000000               0.000000000               0.000170548               0.001365764              -0.000111495              -0.000106765               0.000490838               0.000384073               0.000000000               0.000000000               0.000000000               0.000000000               0.000151882               0.001401435              -0.000090683              -0.000118223               0.000506548               0.000388325               0.000000000               0.000000000               0.000000000               0.000000000               0.000142389               0.001435344              -0.000076354              -0.000126022               0.000520450               0.000394429               0.000000000               0.000000000               0.000000000               0.000000000               0.000137898               0.001478579              -0.000064953              -0.000133110               0.000537225               0.000404115               0.000000000               0.000000000               0.000000000               0.000000000               0.000131108               0.001540645              -0.000052314              -0.000143415               0.000561348               0.000417933               0.000000000               0.000000000               0.000000000               0.000000000               0.000114783               0.001613357              -0.000034655              -0.000158626               0.000590656               0.000432030               0.000000000               0.000000000               0.000000000               0.000000000               0.000091480               0.001682538              -0.000021150              -0.000176012               0.000619511               0.000443499               0.000000000               0.000000000               0.000000000               0.000000000               0.000064963               0.001747296              -0.000016785              -0.000194050               0.000647110               0.000453059               0.000000000               0.000000000               0.000000000               0.000000000               0.000039662               0.001812337              -0.000011739              -0.000211668               0.000674662               0.000462994               0.000000000               0.000000000               0.000000000               0.000000000               0.000018525               0.001874204              -0.000005110              -0.000227328               0.000700505               0.000473176               0.000000000               0.000000000               0.000000000               0.000000000               0.000013037               0.001913069              -0.000005811              -0.000234244               0.000715765               0.000481521               0.000000000               0.000000000               0.000000000               0.000000000               0.000502849               0.000955037              -0.000558918               0.000069188               0.000295280               0.000364467               0.000000000               0.000000000               0.000000000               0.000000000               0.000352810               0.001027594              -0.000444610               0.000003854               0.000341243               0.000345097               0.000000000               0.000000000               0.000000000               0.000000000               0.000253121               0.001166943              -0.000313538              -0.000050948               0.000405960               0.000355012               0.000000000               0.000000000               0.000000000               0.000000000               0.000227980               0.001226800              -0.000236411              -0.000067857               0.000431548               0.000363691               0.000000000               0.000000000               0.000000000               0.000000000               0.000212225               0.001274607              -0.000186123              -0.000079741               0.000451445               0.000371704               0.000000000               0.000000000               0.000000000               0.000000000               0.000190475               0.001328678              -0.000150183              -0.000094657               0.000474440               0.000379784               0.000000000               0.000000000               0.000000000               0.000000000               0.000168203               0.001382570              -0.000122568              -0.000109745               0.000497434               0.000387689               0.000000000               0.000000000               0.000000000               0.000000000               0.000155916               0.001429272              -0.000098222              -0.000120190               0.000516483               0.000396292               0.000000000               0.000000000               0.000000000               0.000000000               0.000154052               0.001481150              -0.000076570              -0.000127374               0.000536170               0.000408796               0.000000000               0.000000000               0.000000000               0.000000000               0.000155264               0.001552383              -0.000056654              -0.000135824               0.000562730               0.000426907               0.000000000               0.000000000               0.000000000               0.000000000               0.000151123               0.001642018              -0.000038269              -0.000148581               0.000596861               0.000448280               0.000000000               0.000000000               0.000000000               0.000000000               0.000134241               0.001729955              -0.000024138              -0.000165903               0.000631947               0.000466044               0.000000000               0.000000000               0.000000000               0.000000000               0.000111362               0.001810473              -0.000014759              -0.000184548               0.000665001               0.000480453               0.000000000               0.000000000               0.000000000               0.000000000               0.000087634               0.001888826              -0.000008635              -0.000203240               0.000697349               0.000494109               0.000000000               0.000000000               0.000000000               0.000000000               0.000062871               0.001964256              -0.000004637              -0.000221955               0.000728730               0.000506775               0.000000000               0.000000000               0.000000000               0.000000000               0.000043339               0.002030840              -0.000001468              -0.000237602               0.000756141               0.000518538               0.000000000               0.000000000               0.000000000               0.000000000               0.000034321               0.002064962              -0.000000326              -0.000245249               0.000770063               0.000524814               0.000000000               0.000000000               0.000000000               0.000000000               0.000498318               0.000763139              -0.000499636               0.000091475               0.000223885               0.000315360               0.000000000               0.000000000               0.000000000               0.000000000               0.000362907               0.000878504              -0.000430473               0.000026276               0.000284073               0.000310349               0.000000000               0.000000000               0.000000000               0.000000000               0.000261762               0.001064131              -0.000337163              -0.000034856               0.000366325               0.000331469               0.000000000               0.000000000               0.000000000               0.000000000               0.000233946               0.001156582              -0.000262685              -0.000056843               0.000404471               0.000347628               0.000000000               0.000000000               0.000000000               0.000000000               0.000219182               0.001225290              -0.000209018              -0.000070968               0.000432082               0.000361114               0.000000000               0.000000000               0.000000000               0.000000000               0.000200427               0.001293190              -0.000171736              -0.000086489               0.000459888               0.000373400               0.000000000               0.000000000               0.000000000               0.000000000               0.000179133               0.001357612              -0.000143379              -0.000102526               0.000486708               0.000384182               0.000000000               0.000000000               0.000000000               0.000000000               0.000164402               0.001421030              -0.000115720              -0.000115978               0.000512331               0.000396354               0.000000000               0.000000000               0.000000000               0.000000000               0.000164166               0.001493288              -0.000089921              -0.000125098               0.000539457               0.000414359               0.000000000               0.000000000               0.000000000               0.000000000               0.000173793               0.001579059              -0.000066813              -0.000132210               0.000570418               0.000438208               0.000000000               0.000000000               0.000000000               0.000000000               0.000177612               0.001667940              -0.000046360              -0.000141888               0.000603270               0.000461383               0.000000000               0.000000000               0.000000000               0.000000000               0.000170585               0.001759538              -0.000032667              -0.000155973               0.000638498               0.000482525               0.000000000               0.000000000               0.000000000               0.000000000               0.000157859               0.001854122              -0.000021769              -0.000172568               0.000675557               0.000502989               0.000000000               0.000000000               0.000000000               0.000000000               0.000141480               0.001942085              -0.000011609              -0.000189705               0.000710590               0.000520885               0.000000000               0.000000000               0.000000000               0.000000000               0.000120358               0.002019691              -0.000007199              -0.000207327               0.000742333               0.000535006               0.000000000               0.000000000               0.000000000               0.000000000               0.000098028               0.002088823              -0.000004397              -0.000224342               0.000771048               0.000546706               0.000000000               0.000000000               0.000000000               0.000000000               0.000081669               0.002118344               0.000000501              -0.000234166               0.000784163               0.000549997               0.000000000               0.000000000               0.000000000               0.000000000               0.000469463               0.000579603              -0.000428231               0.000103597               0.000158667               0.000262264               0.000000000               0.000000000               0.000000000               0.000000000               0.000369835               0.000727758              -0.000404523               0.000047717               0.000226678               0.000274395               0.000000000               0.000000000               0.000000000               0.000000000               0.000280330               0.000945091              -0.000351080              -0.000013013               0.000319365               0.000306352               0.000000000               0.000000000               0.000000000               0.000000000               0.000251342               0.001068995              -0.000286174              -0.000039371               0.000369452               0.000330080               0.000000000               0.000000000               0.000000000               0.000000000               0.000235767               0.001159608              -0.000232997              -0.000056538               0.000405378               0.000348840               0.000000000               0.000000000               0.000000000               0.000000000               0.000219623               0.001239196              -0.000194514              -0.000072541               0.000437242               0.000364701               0.000000000               0.000000000               0.000000000               0.000000000               0.000199900               0.001316103              -0.000164689              -0.000089550               0.000468547               0.000378996               0.000000000               0.000000000               0.000000000               0.000000000               0.000185992               0.001396155              -0.000137015              -0.000104772               0.000500304               0.000395532               0.000000000               0.000000000               0.000000000               0.000000000               0.000185507               0.001480971              -0.000112448              -0.000115556               0.000532171               0.000416615               0.000000000               0.000000000               0.000000000               0.000000000               0.000198163               0.001570306              -0.000088260              -0.000121977               0.000564089               0.000442112               0.000000000               0.000000000               0.000000000               0.000000000               0.000212580               0.001663872              -0.000063776              -0.000128266               0.000597374               0.000469108               0.000000000               0.000000000               0.000000000               0.000000000               0.000217949               0.001762316              -0.000046342              -0.000138558               0.000633619               0.000495061               0.000000000               0.000000000               0.000000000               0.000000000               0.000212992               0.001858020              -0.000034546              -0.000152380               0.000670127               0.000517747               0.000000000               0.000000000               0.000000000               0.000000000               0.000204774               0.001949135              -0.000022342              -0.000166851               0.000705322               0.000538471               0.000000000               0.000000000               0.000000000               0.000000000               0.000188120               0.002029215              -0.000010440              -0.000183106               0.000737434               0.000554327               0.000000000               0.000000000               0.000000000               0.000000000               0.000162590               0.002097216              -0.000003950              -0.000201180               0.000766125               0.000564945               0.000000000               0.000000000               0.000000000               0.000000000               0.000140965               0.002122783               0.000001204              -0.000212486               0.000778416               0.000565930               0.000000000               0.000000000               0.000000000               0.000000000               0.000418233               0.000416703              -0.000343879               0.000104748               0.000103983               0.000208732               0.000000000               0.000000000               0.000000000               0.000000000               0.000364023               0.000581554              -0.000360021               0.000063813               0.000172578               0.000236392               0.000000000               0.000000000               0.000000000               0.000000000               0.000301290               0.000813544              -0.000344702               0.000011290               0.000267415               0.000278705               0.000000000               0.000000000               0.000000000               0.000000000               0.000276879               0.000963958              -0.000293467              -0.000016665               0.000326871               0.000310206               0.000000000               0.000000000               0.000000000               0.000000000               0.000260976               0.001074555              -0.000245572              -0.000036453               0.000370333               0.000333879               0.000000000               0.000000000               0.000000000               0.000000000               0.000245538               0.001167199              -0.000208172              -0.000053823               0.000407004               0.000353180               0.000000000               0.000000000               0.000000000               0.000000000               0.000231221               0.001259601              -0.000179565              -0.000070742               0.000443443               0.000372701               0.000000000               0.000000000               0.000000000               0.000000000               0.000221935               0.001352511              -0.000155293              -0.000085838               0.000479445               0.000393607               0.000000000               0.000000000               0.000000000               0.000000000               0.000220804               0.001448776              -0.000133316              -0.000098295               0.000515686               0.000417391               0.000000000               0.000000000               0.000000000               0.000000000               0.000228610               0.001550841              -0.000109390              -0.000108126               0.000552984               0.000444858               0.000000000               0.000000000               0.000000000               0.000000000               0.000245978               0.001657269              -0.000083999              -0.000114917               0.000590723               0.000475806               0.000000000               0.000000000               0.000000000               0.000000000               0.000260850               0.001760521              -0.000063279              -0.000122246               0.000627583               0.000505337               0.000000000               0.000000000               0.000000000               0.000000000               0.000265095               0.001854913              -0.000049330              -0.000132453               0.000662449               0.000529996               0.000000000               0.000000000               0.000000000               0.000000000               0.000260224               0.001941958              -0.000033971              -0.000145160               0.000695700               0.000550539               0.000000000               0.000000000               0.000000000               0.000000000               0.000248759               0.002022616              -0.000015536              -0.000159542               0.000727379               0.000567837               0.000000000               0.000000000               0.000000000               0.000000000               0.000230111               0.002095025              -0.000004734              -0.000175586               0.000756863               0.000581277               0.000000000               0.000000000               0.000000000               0.000000000               0.000208672               0.002121238               0.000001369              -0.000186902               0.000769373               0.000582471               0.000000000               0.000000000               0.000000000               0.000000000               0.000346661               0.000284773              -0.000257275               0.000094400               0.000063456               0.000157856               0.000000000               0.000000000               0.000000000               0.000000000               0.000346127               0.000448925              -0.000300442               0.000073681               0.000125080               0.000198761               0.000000000               0.000000000               0.000000000               0.000000000               0.000321004               0.000680079              -0.000315172               0.000035366               0.000214902               0.000250268               0.000000000               0.000000000               0.000000000               0.000000000               0.000305982               0.000847425              -0.000279666               0.000008815               0.000279534               0.000288349               0.000000000               0.000000000               0.000000000               0.000000000               0.000292715               0.000974497              -0.000239711              -0.000012044               0.000328844               0.000316800               0.000000000               0.000000000               0.000000000               0.000000000               0.000280581               0.001082884              -0.000207987              -0.000030143               0.000371005               0.000340862               0.000000000               0.000000000               0.000000000               0.000000000               0.000272136               0.001190183              -0.000184254              -0.000046722               0.000412298               0.000365576               0.000000000               0.000000000               0.000000000               0.000000000               0.000264914               0.001295949              -0.000163262              -0.000062651               0.000452862               0.000390211               0.000000000               0.000000000               0.000000000               0.000000000               0.000262304               0.001407614              -0.000143419              -0.000077588               0.000495062               0.000417475               0.000000000               0.000000000               0.000000000               0.000000000               0.000267820               0.001525254              -0.000123467              -0.000090224               0.000538488               0.000448264               0.000000000               0.000000000               0.000000000               0.000000000               0.000283546               0.001642085              -0.000101152              -0.000098931               0.000580333               0.000481402               0.000000000               0.000000000               0.000000000               0.000000000               0.000300227               0.001746355              -0.000078888              -0.000105709               0.000617349               0.000511640               0.000000000               0.000000000               0.000000000               0.000000000               0.000308763               0.001835912              -0.000060227              -0.000113703               0.000649866               0.000536163               0.000000000               0.000000000               0.000000000               0.000000000               0.000306782               0.001917262              -0.000040886              -0.000124614               0.000680619               0.000556005               0.000000000               0.000000000               0.000000000               0.000000000               0.000302967               0.001998455              -0.000022256              -0.000136194               0.000711543               0.000575349               0.000000000               0.000000000               0.000000000               0.000000000               0.000297294               0.002079568              -0.000008425              -0.000148460               0.000742669               0.000594209               0.000000000               0.000000000               0.000000000               0.000000000               0.000283129               0.002112809               0.000000073              -0.000157927               0.000756905               0.000598978               0.000000000               0.000000000               0.000000000               0.000000000               0.000267389               0.000183156              -0.000178083               0.000077375               0.000035259               0.000112635               0.000000000               0.000000000               0.000000000               0.000000000               0.000320588               0.000336906              -0.000231520               0.000078106               0.000086265               0.000164372               0.000000000               0.000000000               0.000000000               0.000000000               0.000334896               0.000555816              -0.000261523               0.000056108               0.000166567               0.000222675               0.000000000               0.000000000               0.000000000               0.000000000               0.000334718               0.000729837              -0.000241015               0.000034289               0.000231847               0.000266136               0.000000000               0.000000000               0.000000000               0.000000000               0.000327623               0.000869948              -0.000211591               0.000014115               0.000285275               0.000299390               0.000000000               0.000000000               0.000000000               0.000000000               0.000321620               0.000996856              -0.000188236              -0.000003999               0.000333615               0.000329616               0.000000000               0.000000000               0.000000000               0.000000000               0.000316030               0.001118209              -0.000170104              -0.000021265               0.000379821               0.000358556               0.000000000               0.000000000               0.000000000               0.000000000               0.000309571               0.001236978              -0.000152928              -0.000038533               0.000425166               0.000386633               0.000000000               0.000000000               0.000000000               0.000000000               0.000308319               0.001362057              -0.000137773              -0.000054637               0.000472227               0.000417590               0.000000000               0.000000000               0.000000000               0.000000000               0.000315076               0.001489009              -0.000123492              -0.000067973               0.000518989               0.000451016               0.000000000               0.000000000               0.000000000               0.000000000               0.000324624               0.001608298              -0.000105576              -0.000079303               0.000562528               0.000483225               0.000000000               0.000000000               0.000000000               0.000000000               0.000335839               0.001711802              -0.000084577              -0.000088036               0.000599940               0.000511905               0.000000000               0.000000000               0.000000000               0.000000000               0.000343178               0.001799167              -0.000062081              -0.000096204               0.000631784               0.000535581               0.000000000               0.000000000               0.000000000               0.000000000               0.000347708               0.001885349              -0.000041794              -0.000105278               0.000663536               0.000558258               0.000000000               0.000000000               0.000000000               0.000000000               0.000354868               0.001976659              -0.000027812              -0.000114007               0.000696882               0.000582875               0.000000000               0.000000000               0.000000000               0.000000000               0.000362490               0.002067718              -0.000014711              -0.000122531               0.000730076               0.000607545               0.000000000               0.000000000               0.000000000               0.000000000               0.000358904               0.002108804              -0.000005547              -0.000129011               0.000745931               0.000616920               0.000000000               0.000000000               0.000000000               0.000000000               0.000198270               0.000115347              -0.000108789               0.000059932               0.000018471               0.000078403               0.000000000               0.000000000               0.000000000               0.000000000               0.000294326               0.000252626              -0.000156162               0.000078793               0.000057943               0.000136737               0.000000000               0.000000000               0.000000000               0.000000000               0.000343534               0.000453570              -0.000187198               0.000072128               0.000127146               0.000199274               0.000000000               0.000000000               0.000000000               0.000000000               0.000358052               0.000627716              -0.000177775               0.000055804               0.000190635               0.000246440               0.000000000               0.000000000               0.000000000               0.000000000               0.000359854               0.000777982              -0.000159551               0.000037697               0.000246759               0.000284456               0.000000000               0.000000000               0.000000000               0.000000000               0.000360125               0.000920427              -0.000144531               0.000019993               0.000300142               0.000320135               0.000000000               0.000000000               0.000000000               0.000000000               0.000356685               0.001055047              -0.000131606               0.000001876               0.000351054               0.000352930               0.000000000               0.000000000               0.000000000               0.000000000               0.000353788               0.001182929              -0.000120865              -0.000015196               0.000399371               0.000384175               0.000000000               0.000000000               0.000000000               0.000000000               0.000355487               0.001312690              -0.000112544              -0.000030779               0.000447819               0.000417040               0.000000000               0.000000000               0.000000000               0.000000000               0.000358565               0.001444343              -0.000101830              -0.000046081               0.000496803               0.000450722               0.000000000               0.000000000               0.000000000               0.000000000               0.000361710               0.001565695              -0.000087714              -0.000060070               0.000541917               0.000481846               0.000000000               0.000000000               0.000000000               0.000000000               0.000364910               0.001668753              -0.000071540              -0.000071753               0.000580163               0.000508410               0.000000000               0.000000000               0.000000000               0.000000000               0.000371900               0.001762502              -0.000053213              -0.000080850               0.000614445               0.000533595               0.000000000               0.000000000               0.000000000               0.000000000               0.000386344               0.001861279              -0.000038481              -0.000087781               0.000649680               0.000561900               0.000000000               0.000000000               0.000000000               0.000000000               0.000403330               0.001962059              -0.000029204              -0.000094008               0.000685349               0.000591341               0.000000000               0.000000000               0.000000000               0.000000000               0.000419685               0.002060806              -0.000017657              -0.000100219               0.000720335               0.000620116               0.000000000               0.000000000               0.000000000               0.000000000               0.000424721               0.002108514              -0.000009425              -0.000104293               0.000737595               0.000633302               0.000000000               0.000000000               0.000000000               0.000000000               0.000149536               0.000079883              -0.000050828               0.000046090               0.000011264               0.000057354               0.000000000               0.000000000               0.000000000               0.000000000               0.000273123               0.000200300              -0.000078149               0.000077383               0.000040972               0.000118354               0.000000000               0.000000000               0.000000000               0.000000000               0.000349149               0.000386237              -0.000097710               0.000082650               0.000101194               0.000183845               0.000000000               0.000000000               0.000000000               0.000000000               0.000372592               0.000558998              -0.000094728               0.000069846               0.000163049               0.000232895               0.000000000               0.000000000               0.000000000               0.000000000               0.000381696               0.000713995              -0.000086222               0.000053886               0.000220034               0.000273920               0.000000000               0.000000000               0.000000000               0.000000000               0.000387134               0.000865511              -0.000078379               0.000036986               0.000276172               0.000313158               0.000000000               0.000000000               0.000000000               0.000000000               0.000388904               0.001010485              -0.000071855               0.000019528               0.000330316               0.000349844               0.000000000               0.000000000               0.000000000               0.000000000               0.000388667               0.001144879              -0.000068218               0.000002640               0.000380743               0.000383383               0.000000000               0.000000000               0.000000000               0.000000000               0.000387661               0.001275842              -0.000064230              -0.000014107               0.000429979               0.000415871               0.000000000               0.000000000               0.000000000               0.000000000               0.000386136               0.001405227              -0.000057780              -0.000030852               0.000478688               0.000447836               0.000000000               0.000000000               0.000000000               0.000000000               0.000386658               0.001526937              -0.000049489              -0.000045870               0.000524264               0.000478394               0.000000000               0.000000000               0.000000000               0.000000000               0.000389819               0.001638328              -0.000040960              -0.000058609               0.000565640               0.000507032               0.000000000               0.000000000               0.000000000               0.000000000               0.000399028               0.001744163              -0.000033069              -0.000068385               0.000604177               0.000535792               0.000000000               0.000000000               0.000000000               0.000000000               0.000415630               0.001847503              -0.000025679              -0.000075076               0.000640854               0.000565777               0.000000000               0.000000000               0.000000000               0.000000000               0.000435049               0.001947140              -0.000019029              -0.000080249               0.000675790               0.000595541               0.000000000               0.000000000               0.000000000               0.000000000               0.000458507               0.002051211              -0.000011214              -0.000084461               0.000711884               0.000627423               0.000000000               0.000000000               0.000000000               0.000000000               0.000471551               0.002105345              -0.000006397              -0.000086336               0.000730553               0.000644217               0.000000000               0.000000000               0.000000000               0.000000000               0.000000000               0.000000000               0.000000000               0.000000000               0.000000000               0.000000000               0.000000000               0.000000000               0.000000000               0.000000000               0.000000000               0.000000000               0.000000000               0.000000000               0.000000000               0.000000000               0.000000000               0.000000000               0.000000000               0.000000000               0.000000000               0.000000000               0.000000000               0.000000000               0.000000000               0.000000000               0.000000000               0.000000000               0.000000000               0.000000000               0.000000000               0.000000000               0.000000000               0.000000000               0.000000000               0.000000000               0.000000000               0.000000000               0.000000000               0.000000000               0.000000000               0.000000000               0.000000000               0.000000000               0.000000000               0.000000000               0.000000000               0.000000000               0.000000000               0.000000000               0.000000000               0.000000000               0.000000000               0.000000000               0.000000000               0.000000000               0.000000000               0.000000000               0.000000000               0.000000000               0.000000000               0.000000000               0.000000000               0.000000000               0.000000000               0.000000000               0.000000000               0.000000000               0.000000000               0.000000000               0.000000000               0.000000000               0.000000000               0.000000000               0.000000000               0.000000000               0.000000000               0.000000000               0.000000000               0.000000000               0.000000000               0.000000000               0.000000000               0.000000000               0.000000000               0.000000000               0.000000000               0.000000000               0.000000000               0.000000000               0.000000000               0.000000000               0.000000000               0.000000000               0.000000000               0.000000000               0.000000000               0.000000000               0.000000000               0.000000000               0.000000000               0.000000000               0.000000000               0.000000000               0.000000000               0.000000000               0.000000000               0.000000000               0.000000000               0.000000000               0.000000000               0.000000000               0.000000000               0.000000000               0.000000000               0.000000000               0.000000000               0.000000000               0.000000000               0.000000000               0.000000000               0.000000000               0.000000000               0.000000000               0.000000000               0.000000000               0.000000000               0.000000000               0.000000000               0.000000000               0.000000000               0.000000000               0.000000000               0.000000000               0.000000000               0.000000000               0.000000000               0.000000000               0.000000000               0.000000000               0.000000000               0.000000000               0.000000000               0.000000000               0.000000000               0.000000000               0.000000000               0.000000000               0.000000000               0.000000000               0.000000000               0.000000000               0.000000000               0.000000000               0.000000000               0.000000000               0.000000000               0.000000000               0.000000000               0.000000000               0.000000000               0.000000000               0.000000000               0.000000000               0.000000000               0.000000000               0.000000000               0.000000000               0.000000000               0.000000000               0.000000000               0.000000000               0.000000000               0.000000000               0.000000000               0.000000000               0.000000000               0.000000000               0.000000000               0.000000000               0.000000000               0.000000000               0.000000000               0.000000000               0.000000000               0.000000000               0.000000000               0.000000000               0.000000000               0.000000000               0.000000000               0.000000000               0.000000000               0.000000000               0.000000000               0.000000000               0.000000000               0.000000000               0.000000000               0.000000000               0.000000000               0.000000000               0.000000000               0.000000000               0.000000000               0.000000000               0.000000000               0.000000000               0.000000000               0.000000000               0.000000000               0.000000000               0.000000000               0.000000000               0.000000000               0.000000000               0.000000000               0.000000000               0.000000000               0.000000000               0.000000000               0.000000000               0.000000000               0.000000000               0.000000000               0.000000000               0.000000000               0.000000000               0.000000000               0.000000000               0.000000000               0.000000000               0.000000000               0.000000000               0.000000000               0.000000000               0.000000000               0.000000000               0.000000000               0.000000000               0.000000000               0.000000000               0.000000000               0.000000000               0.000000000               0.000000000               0.000000000               0.000000000               0.000000000               0.000000000               0.000000000               0.000000000               0.000000000               0.000000000               0.000000000               0.000000000               0.000000000               0.000000000               0.000000000               0.000000000               0.000000000               0.000000000               0.000000000               0.000000000               0.000000000               0.000000000               0.000000000               0.000000000               0.000000000               0.000000000               0.000000000               0.000000000               0.000000000               0.000000000               0.000000000               0.000000000               0.000000000               0.000000000               0.000000000               0.000000000               0.000000000               0.000000000               0.000000000               0.000000000               0.000000000               0.000000000               0.000000000               0.000000000               0.000000000               0.000000000               0.000000000               0.000000000               0.000000000               0.000000000               0.000000000               0.000000000               0.000000000               0.000000000               0.000000000               0.000000000               0.000000000               0.000000000               0.000000000               0.000000000               0.000000000               0.000000000               0.000000000               0.000000000               0.000000000               0.000000000               0.000000000               0.000000000               0.000000000               0.000000000               0.000000000               0.000000000               0.000000000               0.000000000               0.000000000               0.000000000               0.000000000               0.000000000               0.000000000               0.000000000               0.000000000               0.000000000               0.000000000               0.000000000               0.000000000               0.000000000               0.000000000               0.000000000               0.000000000               0.000000000               0.000000000               0.000000000               0.000000000               0.000000000               0.000000000               0.000000000               0.000216061               0.002272802               0.000180127              -0.000203077               0.000825285               0.000622209               0.000000000               0.000000000               0.000000000               0.000000000               0.000242706               0.001910370               0.000122916              -0.000147781               0.000686044               0.000538263               0.000000000               0.000000000               0.000000000               0.000000000               0.000343863               0.001618576               0.000064442              -0.000073373               0.000563978               0.000490605               0.000000000               0.000000000               0.000000000               0.000000000               0.000378188               0.001453802               0.000037408              -0.000039905               0.000497898               0.000457993               0.000000000               0.000000000               0.000000000               0.000000000               0.000386213               0.001353806               0.000025448              -0.000024396               0.000459396               0.000435000               0.000000000               0.000000000               0.000000000               0.000000000               0.000383206               0.001291760               0.000020313              -0.000017768               0.000436505               0.000418737               0.000000000               0.000000000               0.000000000               0.000000000               0.000372509               0.001256802               0.000017139              -0.000017409               0.000424733               0.000407324               0.000000000               0.000000000               0.000000000               0.000000000               0.000353464               0.001242125               0.000013755              -0.000022716               0.000421610               0.000398893               0.000000000               0.000000000               0.000000000               0.000000000               0.000325821               0.001246848               0.000010712              -0.000033673               0.000426836               0.000393163               0.000000000               0.000000000               0.000000000               0.000000000               0.000292656               0.001262851               0.000010463              -0.000048110               0.000436983               0.000388873               0.000000000               0.000000000               0.000000000               0.000000000               0.000259310               0.001284216               0.000014544              -0.000063286               0.000449163               0.000385877               0.000000000               0.000000000               0.000000000               0.000000000               0.000225040               0.001304669               0.000019192              -0.000078693               0.000461116               0.000382423               0.000000000               0.000000000               0.000000000               0.000000000               0.000188312               0.001327276               0.000017982              -0.000095292               0.000474185               0.000378893               0.000000000               0.000000000               0.000000000               0.000000000               0.000147272               0.001354680               0.000015216              -0.000114108               0.000489592               0.000375484               0.000000000               0.000000000               0.000000000               0.000000000               0.000101323               0.001382820               0.000013817              -0.000134856               0.000505887               0.000371031               0.000000000               0.000000000               0.000000000               0.000000000               0.000051849               0.001412814               0.000008566              -0.000157158               0.000523319               0.000366161               0.000000000               0.000000000               0.000000000               0.000000000               0.000030017               0.001438259               0.000005066              -0.000168526               0.000535590               0.000367064               0.000000000               0.000000000               0.000000000               0.000000000               0.000255448               0.002169455               0.000343093              -0.000175389               0.000781607               0.000606219               0.000000000               0.000000000               0.000000000               0.000000000               0.000259272               0.001837846               0.000234258              -0.000132503               0.000656777               0.000524273               0.000000000               0.000000000               0.000000000               0.000000000               0.000334366               0.001580227               0.000123108              -0.000072141               0.000550784               0.000478643               0.000000000               0.000000000               0.000000000               0.000000000               0.000356765               0.001437135               0.000073609              -0.000045855               0.000494325               0.000448470               0.000000000               0.000000000               0.000000000               0.000000000               0.000358267               0.001350796               0.000051756              -0.000034499               0.000461761               0.000427261               0.000000000               0.000000000               0.000000000               0.000000000               0.000350635               0.001299334               0.000041729              -0.000030929               0.000443416               0.000412488               0.000000000               0.000000000               0.000000000               0.000000000               0.000337427               0.001272221               0.000035550              -0.000032492               0.000434900               0.000402408               0.000000000               0.000000000               0.000000000               0.000000000               0.000317836               0.001263710               0.000028155              -0.000038775               0.000434158               0.000395382               0.000000000               0.000000000               0.000000000               0.000000000               0.000290913               0.001269841               0.000022170              -0.000049638               0.000439822               0.000390184               0.000000000               0.000000000               0.000000000               0.000000000               0.000263312               0.001283394               0.000022038              -0.000061682               0.000448354               0.000386672               0.000000000               0.000000000               0.000000000               0.000000000               0.000235203               0.001297351               0.000028285              -0.000073968               0.000457102               0.000383134               0.000000000               0.000000000               0.000000000               0.000000000               0.000203503               0.001310934               0.000033791              -0.000087553               0.000466158               0.000378605               0.000000000               0.000000000               0.000000000               0.000000000               0.000172529               0.001329642               0.000029425              -0.000101507               0.000477045               0.000375539               0.000000000               0.000000000               0.000000000               0.000000000               0.000137052               0.001349901               0.000024362              -0.000117343               0.000489077               0.000371734               0.000000000               0.000000000               0.000000000               0.000000000               0.000093231               0.001367512               0.000020387              -0.000135977               0.000501158               0.000365181               0.000000000               0.000000000               0.000000000               0.000000000               0.000046820               0.001385311               0.000011189              -0.000155606               0.000513634               0.000358028               0.000000000               0.000000000               0.000000000               0.000000000               0.000026001               0.001399844               0.000006275              -0.000165230               0.000521687               0.000356457               0.000000000               0.000000000               0.000000000               0.000000000               0.000311730               0.002012396               0.000474347              -0.000134651               0.000715676               0.000581025               0.000000000               0.000000000               0.000000000               0.000000000               0.000282675               0.001726265               0.000325620              -0.000109780               0.000612009               0.000502229               0.000000000               0.000000000               0.000000000               0.000000000               0.000320711               0.001522802               0.000174263              -0.000070083               0.000530957               0.000460873               0.000000000               0.000000000               0.000000000               0.000000000               0.000326456               0.001410912               0.000108332              -0.000053943               0.000488280               0.000434337               0.000000000               0.000000000               0.000000000               0.000000000               0.000319642               0.001345397               0.000079434              -0.000048309               0.000464564               0.000416255               0.000000000               0.000000000               0.000000000               0.000000000               0.000307336               0.001309229               0.000065080              -0.000048403               0.000452540               0.000404137               0.000000000               0.000000000               0.000000000               0.000000000               0.000290580               0.001293146               0.000054485              -0.000052676               0.000448603               0.000395927               0.000000000               0.000000000               0.000000000               0.000000000               0.000267669               0.001294236               0.000043575              -0.000061404               0.000451876               0.000390472               0.000000000               0.000000000               0.000000000               0.000000000               0.000243513               0.001302769               0.000034562              -0.000071528               0.000458095               0.000386566               0.000000000               0.000000000               0.000000000               0.000000000               0.000223032               0.001312983               0.000033820              -0.000080486               0.000464485               0.000383999               0.000000000               0.000000000               0.000000000               0.000000000               0.000201811               0.001320316               0.000040130              -0.000089360               0.000469888               0.000380528               0.000000000               0.000000000               0.000000000               0.000000000               0.000176210               0.001327516               0.000041294              -0.000099860               0.000475788               0.000375927               0.000000000               0.000000000               0.000000000               0.000000000               0.000148751               0.001340378               0.000032436              -0.000111765               0.000484043               0.000372278               0.000000000               0.000000000               0.000000000               0.000000000               0.000117576               0.001352890               0.000024974              -0.000125020               0.000492632               0.000367612               0.000000000               0.000000000               0.000000000               0.000000000               0.000082583               0.001365464               0.000018277              -0.000139714               0.000501721               0.000362008               0.000000000               0.000000000               0.000000000               0.000000000               0.000043994               0.001377535               0.000007899              -0.000155694               0.000511072               0.000355378               0.000000000               0.000000000               0.000000000               0.000000000               0.000025970               0.001387464               0.000003945              -0.000163694               0.000517048               0.000353354               0.000000000               0.000000000               0.000000000               0.000000000               0.000370506               0.001812632               0.000567788              -0.000087640               0.000633418               0.000545778               0.000000000               0.000000000               0.000000000               0.000000000               0.000305585               0.001588563               0.000392413              -0.000083976               0.000557508               0.000473532               0.000000000               0.000000000               0.000000000               0.000000000               0.000304857               0.001452617               0.000215733              -0.000067256               0.000506619               0.000439364               0.000000000               0.000000000               0.000000000               0.000000000               0.000294193               0.001377738               0.000141417              -0.000061895               0.000479873               0.000417978               0.000000000               0.000000000               0.000000000               0.000000000               0.000281121               0.001335048               0.000107168              -0.000061460               0.000465498               0.000404038               0.000000000               0.000000000               0.000000000               0.000000000               0.000264733               0.001316574               0.000088614              -0.000065297               0.000460619               0.000395322               0.000000000               0.000000000               0.000000000               0.000000000               0.000243133               0.001315350               0.000073595              -0.000073244               0.000462860               0.000389617               0.000000000               0.000000000               0.000000000               0.000000000               0.000219406               0.001326992               0.000058056              -0.000083597               0.000470192               0.000386595               0.000000000               0.000000000               0.000000000               0.000000000               0.000196375               0.001339452               0.000047622              -0.000093790               0.000477743               0.000383952               0.000000000               0.000000000               0.000000000               0.000000000               0.000180109               0.001346936               0.000046179              -0.000100826               0.000482583               0.000381757               0.000000000               0.000000000               0.000000000               0.000000000               0.000165536               0.001350148               0.000050021              -0.000106692               0.000485609               0.000378917               0.000000000               0.000000000               0.000000000               0.000000000               0.000145246               0.001356891               0.000045713              -0.000115144               0.000490674               0.000375530               0.000000000               0.000000000               0.000000000               0.000000000               0.000124431               0.001370340               0.000032867              -0.000124631               0.000498319               0.000373689               0.000000000               0.000000000               0.000000000               0.000000000               0.000102141               0.001384129               0.000023574              -0.000134713               0.000506276               0.000371563               0.000000000               0.000000000               0.000000000               0.000000000               0.000074083               0.001398972               0.000015264              -0.000147090               0.000515349               0.000368259               0.000000000               0.000000000               0.000000000               0.000000000               0.000039153               0.001413853               0.000006424              -0.000162049               0.000525296               0.000363247               0.000000000               0.000000000               0.000000000               0.000000000               0.000023815               0.001426953               0.000004757              -0.000169438               0.000532126               0.000362687               0.000000000               0.000000000               0.000000000               0.000000000               0.000427177               0.001590413               0.000617977              -0.000038611               0.000543002               0.000504392               0.000000000               0.000000000               0.000000000               0.000000000               0.000324787               0.001439796               0.000433501              -0.000058180               0.000499320               0.000441141               0.000000000               0.000000000               0.000000000               0.000000000               0.000286280               0.001377918               0.000248784              -0.000064885               0.000480930               0.000416045               0.000000000               0.000000000               0.000000000               0.000000000               0.000265909               0.001339013               0.000171425              -0.000067661               0.000468887               0.000401226               0.000000000               0.000000000               0.000000000               0.000000000               0.000249955               0.001319811               0.000133396              -0.000071243               0.000463680               0.000392437               0.000000000               0.000000000               0.000000000               0.000000000               0.000230891               0.001319458               0.000110139              -0.000078348               0.000465931               0.000387583               0.000000000               0.000000000               0.000000000               0.000000000               0.000206635               0.001333992               0.000089815              -0.000089261               0.000474413               0.000385152               0.000000000               0.000000000               0.000000000               0.000000000               0.000182180               0.001356379               0.000071446              -0.000101230               0.000485865               0.000384635               0.000000000               0.000000000               0.000000000               0.000000000               0.000160926               0.001371409               0.000060380              -0.000111079               0.000494158               0.000383079               0.000000000               0.000000000               0.000000000               0.000000000               0.000147491               0.001380496               0.000058650              -0.000117252               0.000499245               0.000381992               0.000000000               0.000000000               0.000000000               0.000000000               0.000136437               0.001390302               0.000058777              -0.000122624               0.000504304               0.000381680               0.000000000               0.000000000               0.000000000               0.000000000               0.000120430               0.001408561               0.000048307              -0.000130908               0.000513152               0.000382243               0.000000000               0.000000000               0.000000000               0.000000000               0.000101496               0.001432286               0.000033671              -0.000140975               0.000524416               0.000383441               0.000000000               0.000000000               0.000000000               0.000000000               0.000082049               0.001458144               0.000025213              -0.000151499               0.000536543               0.000385044               0.000000000               0.000000000               0.000000000               0.000000000               0.000057886               0.001483311               0.000016947              -0.000163706               0.000549001               0.000385295               0.000000000               0.000000000               0.000000000               0.000000000               0.000027477               0.001508734               0.000007705              -0.000178288               0.000562336               0.000384048               0.000000000               0.000000000               0.000000000               0.000000000               0.000016530               0.001530416               0.000006531              -0.000185103               0.000571834               0.000386732               0.000000000               0.000000000               0.000000000               0.000000000               0.000469245               0.001366317               0.000627946               0.000005176               0.000453709               0.000458885               0.000000000               0.000000000               0.000000000               0.000000000               0.000338894               0.001292213               0.000452549              -0.000034442               0.000442214               0.000407772               0.000000000               0.000000000               0.000000000               0.000000000               0.000268412               0.001303356               0.000274594              -0.000062265               0.000455203               0.000392938               0.000000000               0.000000000               0.000000000               0.000000000               0.000243526               0.001298373               0.000197117              -0.000070974               0.000456445               0.000385471               0.000000000               0.000000000               0.000000000               0.000000000               0.000228477               0.001303016               0.000155638              -0.000077198               0.000460067               0.000382869               0.000000000               0.000000000               0.000000000               0.000000000               0.000208542               0.001320065               0.000126996              -0.000086805               0.000468952               0.000382147               0.000000000               0.000000000               0.000000000               0.000000000               0.000183817               0.001349484               0.000102066              -0.000099754               0.000483075               0.000383321               0.000000000               0.000000000               0.000000000               0.000000000               0.000160252               0.001378617               0.000082579              -0.000112232               0.000496945               0.000384713               0.000000000               0.000000000               0.000000000               0.000000000               0.000143449               0.001398929               0.000071767              -0.000121072               0.000506662               0.000385590               0.000000000               0.000000000               0.000000000               0.000000000               0.000133434               0.001418823               0.000066771              -0.000127315               0.000515374               0.000388060               0.000000000               0.000000000               0.000000000               0.000000000               0.000124152               0.001448496               0.000061101              -0.000134505               0.000527662               0.000393158               0.000000000               0.000000000               0.000000000               0.000000000               0.000108796               0.001489814               0.000046048              -0.000145428               0.000545076               0.000399648               0.000000000               0.000000000               0.000000000               0.000000000               0.000088826               0.001536792               0.000030127              -0.000158789               0.000565188               0.000406400               0.000000000               0.000000000               0.000000000               0.000000000               0.000066951               0.001582943               0.000022921              -0.000172761               0.000585230               0.000412469               0.000000000               0.000000000               0.000000000               0.000000000               0.000044324               0.001628193               0.000016765              -0.000186902               0.000605026               0.000418124               0.000000000               0.000000000               0.000000000               0.000000000               0.000021153               0.001673773               0.000007152              -0.000201289               0.000625015               0.000423726               0.000000000               0.000000000               0.000000000               0.000000000               0.000015558               0.001706728               0.000005862              -0.000207506               0.000638072               0.000430566               0.000000000               0.000000000               0.000000000               0.000000000               0.000491120               0.001149639               0.000605446               0.000040464               0.000369721               0.000410185               0.000000000               0.000000000               0.000000000               0.000000000               0.000345808               0.001153552               0.000453710              -0.000014517               0.000389352               0.000374836               0.000000000               0.000000000               0.000000000               0.000000000               0.000255304               0.001231556               0.000293900              -0.000058205               0.000429916               0.000371711               0.000000000               0.000000000               0.000000000               0.000000000               0.000229843               0.001259991               0.000217375              -0.000071308               0.000443762               0.000372454               0.000000000               0.000000000               0.000000000               0.000000000               0.000215516               0.001287260               0.000171465              -0.000080089               0.000455779               0.000375690               0.000000000               0.000000000               0.000000000               0.000000000               0.000194656               0.001322665               0.000138110              -0.000092337               0.000471663               0.000379326               0.000000000               0.000000000               0.000000000               0.000000000               0.000170548               0.001365764               0.000111495              -0.000106765               0.000490838               0.000384073               0.000000000               0.000000000               0.000000000               0.000000000               0.000151882               0.001401435               0.000090683              -0.000118223               0.000506548               0.000388325               0.000000000               0.000000000               0.000000000               0.000000000               0.000142389               0.001435344               0.000076354              -0.000126022               0.000520450               0.000394429               0.000000000               0.000000000               0.000000000               0.000000000               0.000137898               0.001478579               0.000064953              -0.000133110               0.000537225               0.000404115               0.000000000               0.000000000               0.000000000               0.000000000               0.000131108               0.001540645               0.000052314              -0.000143415               0.000561348               0.000417933               0.000000000               0.000000000               0.000000000               0.000000000               0.000114783               0.001613357               0.000034655              -0.000158626               0.000590656               0.000432030               0.000000000               0.000000000               0.000000000               0.000000000               0.000091480               0.001682538               0.000021150              -0.000176012               0.000619511               0.000443499               0.000000000               0.000000000               0.000000000               0.000000000               0.000064963               0.001747296               0.000016785              -0.000194050               0.000647110               0.000453059               0.000000000               0.000000000               0.000000000               0.000000000               0.000039662               0.001812337               0.000011739              -0.000211668               0.000674662               0.000462994               0.000000000               0.000000000               0.000000000               0.000000000               0.000018525               0.001874204               0.000005110              -0.000227328               0.000700505               0.000473176               0.000000000               0.000000000               0.000000000               0.000000000               0.000013037               0.001913069               0.000005811              -0.000234244               0.000715765               0.000481521               0.000000000               0.000000000               0.000000000               0.000000000               0.000502849               0.000955037               0.000558918               0.000069188               0.000295280               0.000364467               0.000000000               0.000000000               0.000000000               0.000000000               0.000352810               0.001027594               0.000444610               0.000003854               0.000341243               0.000345097               0.000000000               0.000000000               0.000000000               0.000000000               0.000253121               0.001166943               0.000313538              -0.000050948               0.000405960               0.000355012               0.000000000               0.000000000               0.000000000               0.000000000               0.000227980               0.001226800               0.000236411              -0.000067857               0.000431548               0.000363691               0.000000000               0.000000000               0.000000000               0.000000000               0.000212225               0.001274607               0.000186123              -0.000079741               0.000451445               0.000371704               0.000000000               0.000000000               0.000000000               0.000000000               0.000190475               0.001328678               0.000150183              -0.000094657               0.000474440               0.000379784               0.000000000               0.000000000               0.000000000               0.000000000               0.000168203               0.001382570               0.000122568              -0.000109745               0.000497434               0.000387689               0.000000000               0.000000000               0.000000000               0.000000000               0.000155916               0.001429272               0.000098222              -0.000120190               0.000516483               0.000396292               0.000000000               0.000000000               0.000000000               0.000000000               0.000154052               0.001481150               0.000076570              -0.000127374               0.000536170               0.000408796               0.000000000               0.000000000               0.000000000               0.000000000               0.000155264               0.001552383               0.000056654              -0.000135824               0.000562730               0.000426907               0.000000000               0.000000000               0.000000000               0.000000000               0.000151123               0.001642018               0.000038269              -0.000148581               0.000596861               0.000448280               0.000000000               0.000000000               0.000000000               0.000000000               0.000134241               0.001729955               0.000024138              -0.000165903               0.000631947               0.000466044               0.000000000               0.000000000               0.000000000               0.000000000               0.000111362               0.001810473               0.000014759              -0.000184548               0.000665001               0.000480453               0.000000000               0.000000000               0.000000000               0.000000000               0.000087634               0.001888826               0.000008635              -0.000203240               0.000697349               0.000494109               0.000000000               0.000000000               0.000000000               0.000000000               0.000062871               0.001964256               0.000004637              -0.000221955               0.000728730               0.000506775               0.000000000               0.000000000               0.000000000               0.000000000               0.000043339               0.002030840               0.000001468              -0.000237602               0.000756141               0.000518538               0.000000000               0.000000000               0.000000000               0.000000000               0.000034321               0.002064962               0.000000326              -0.000245249               0.000770063               0.000524814               0.000000000               0.000000000               0.000000000               0.000000000               0.000498318               0.000763139               0.000499636               0.000091475               0.000223885               0.000315360               0.000000000               0.000000000               0.000000000               0.000000000               0.000362907               0.000878504               0.000430473               0.000026276               0.000284073               0.000310349               0.000000000               0.000000000               0.000000000               0.000000000               0.000261762               0.001064131               0.000337163              -0.000034856               0.000366325               0.000331469               0.000000000               0.000000000               0.000000000               0.000000000               0.000233946               0.001156582               0.000262685              -0.000056843               0.000404471               0.000347628               0.000000000               0.000000000               0.000000000               0.000000000               0.000219182               0.001225290               0.000209018              -0.000070968               0.000432082               0.000361114               0.000000000               0.000000000               0.000000000               0.000000000               0.000200427               0.001293190               0.000171736              -0.000086489               0.000459888               0.000373400               0.000000000               0.000000000               0.000000000               0.000000000               0.000179133               0.001357612               0.000143379              -0.000102526               0.000486708               0.000384182               0.000000000               0.000000000               0.000000000               0.000000000               0.000164402               0.001421030               0.000115720              -0.000115978               0.000512331               0.000396354               0.000000000               0.000000000               0.000000000               0.000000000               0.000164166               0.001493288               0.000089921              -0.000125098               0.000539457               0.000414359               0.000000000               0.000000000               0.000000000               0.000000000               0.000173793               0.001579059               0.000066813              -0.000132210               0.000570418               0.000438208               0.000000000               0.000000000               0.000000000               0.000000000               0.000177612               0.001667940               0.000046360              -0.000141888               0.000603270               0.000461383               0.000000000               0.000000000               0.000000000               0.000000000               0.000170585               0.001759538               0.000032667              -0.000155973               0.000638498               0.000482525               0.000000000               0.000000000               0.000000000               0.000000000               0.000157859               0.001854122               0.000021769              -0.000172568               0.000675557               0.000502989               0.000000000               0.000000000               0.000000000               0.000000000               0.000141480               0.001942085               0.000011609              -0.000189705               0.000710590               0.000520885               0.000000000               0.000000000               0.000000000               0.000000000               0.000120358               0.002019691               0.000007199              -0.000207327               0.000742333               0.000535006               0.000000000               0.000000000               0.000000000               0.000000000               0.000098028               0.002088823               0.000004397              -0.000224342               0.000771048               0.000546706               0.000000000               0.000000000               0.000000000               0.000000000               0.000081669               0.002118344              -0.000000501              -0.000234166               0.000784163               0.000549997               0.000000000               0.000000000               0.000000000               0.000000000               0.000469463               0.000579603               0.000428231               0.000103597               0.000158667               0.000262264               0.000000000               0.000000000               0.000000000               0.000000000               0.000369835               0.000727758               0.000404523               0.000047717               0.000226678               0.000274395               0.000000000               0.000000000               0.000000000               0.000000000               0.000280330               0.000945091               0.000351080              -0.000013013               0.000319365               0.000306352               0.000000000               0.000000000               0.000000000               0.000000000               0.000251342               0.001068995               0.000286174              -0.000039371               0.000369452               0.000330080               0.000000000               0.000000000               0.000000000               0.000000000               0.000235767               0.001159608               0.000232997              -0.000056538               0.000405378               0.000348840               0.000000000               0.000000000               0.000000000               0.000000000               0.000219623               0.001239196               0.000194514              -0.000072541               0.000437242               0.000364701               0.000000000               0.000000000               0.000000000               0.000000000               0.000199900               0.001316103               0.000164689              -0.000089550               0.000468547               0.000378996               0.000000000               0.000000000               0.000000000               0.000000000               0.000185992               0.001396155               0.000137015              -0.000104772               0.000500304               0.000395532               0.000000000               0.000000000               0.000000000               0.000000000               0.000185507               0.001480971               0.000112448              -0.000115556               0.000532171               0.000416615               0.000000000               0.000000000               0.000000000               0.000000000               0.000198163               0.001570306               0.000088260              -0.000121977               0.000564089               0.000442112               0.000000000               0.000000000               0.000000000               0.000000000               0.000212580               0.001663872               0.000063776              -0.000128266               0.000597374               0.000469108               0.000000000               0.000000000               0.000000000               0.000000000               0.000217949               0.001762316               0.000046342              -0.000138558               0.000633619               0.000495061               0.000000000               0.000000000               0.000000000               0.000000000               0.000212992               0.001858020               0.000034546              -0.000152380               0.000670127               0.000517747               0.000000000               0.000000000               0.000000000               0.000000000               0.000204774               0.001949135               0.000022342              -0.000166851               0.000705322               0.000538471               0.000000000               0.000000000               0.000000000               0.000000000               0.000188120               0.002029215               0.000010440              -0.000183106               0.000737434               0.000554327               0.000000000               0.000000000               0.000000000               0.000000000               0.000162590               0.002097216               0.000003950              -0.000201180               0.000766125               0.000564945               0.000000000               0.000000000               0.000000000               0.000000000               0.000140965               0.002122783              -0.000001204              -0.000212486               0.000778416               0.000565930               0.000000000               0.000000000               0.000000000               0.000000000               0.000418233               0.000416703               0.000343879               0.000104748               0.000103983               0.000208732               0.000000000               0.000000000               0.000000000               0.000000000               0.000364023               0.000581554               0.000360021               0.000063813               0.000172578               0.000236392               0.000000000               0.000000000               0.000000000               0.000000000               0.000301290               0.000813544               0.000344702               0.000011290               0.000267415               0.000278705               0.000000000               0.000000000               0.000000000               0.000000000               0.000276879               0.000963958               0.000293467              -0.000016665               0.000326871               0.000310206               0.000000000               0.000000000               0.000000000               0.000000000               0.000260976               0.001074555               0.000245572              -0.000036453               0.000370333               0.000333879               0.000000000               0.000000000               0.000000000               0.000000000               0.000245538               0.001167199               0.000208172              -0.000053823               0.000407004               0.000353180               0.000000000               0.000000000               0.000000000               0.000000000               0.000231221               0.001259601               0.000179565              -0.000070742               0.000443443               0.000372701               0.000000000               0.000000000               0.000000000               0.000000000               0.000221935               0.001352511               0.000155293              -0.000085838               0.000479445               0.000393607               0.000000000               0.000000000               0.000000000               0.000000000               0.000220804               0.001448776               0.000133316              -0.000098295               0.000515686               0.000417391               0.000000000               0.000000000               0.000000000               0.000000000               0.000228610               0.001550841               0.000109390              -0.000108126               0.000552984               0.000444858               0.000000000               0.000000000               0.000000000               0.000000000               0.000245978               0.001657269               0.000083999              -0.000114917               0.000590723               0.000475806               0.000000000               0.000000000               0.000000000               0.000000000               0.000260850               0.001760521               0.000063279              -0.000122246               0.000627583               0.000505337               0.000000000               0.000000000               0.000000000               0.000000000               0.000265095               0.001854913               0.000049330              -0.000132453               0.000662449               0.000529996               0.000000000               0.000000000               0.000000000               0.000000000               0.000260224               0.001941958               0.000033971              -0.000145160               0.000695700               0.000550539               0.000000000               0.000000000               0.000000000               0.000000000               0.000248759               0.002022616               0.000015536              -0.000159542               0.000727379               0.000567837               0.000000000               0.000000000               0.000000000               0.000000000               0.000230111               0.002095025               0.000004734              -0.000175586               0.000756863               0.000581277               0.000000000               0.000000000               0.000000000               0.000000000               0.000208672               0.002121238              -0.000001369              -0.000186902               0.000769373               0.000582471               0.000000000               0.000000000               0.000000000               0.000000000               0.000346661               0.000284773               0.000257275               0.000094400               0.000063456               0.000157856               0.000000000               0.000000000               0.000000000               0.000000000               0.000346127               0.000448925               0.000300442               0.000073681               0.000125080               0.000198761               0.000000000               0.000000000               0.000000000               0.000000000               0.000321004               0.000680079               0.000315172               0.000035366               0.000214902               0.000250268               0.000000000               0.000000000               0.000000000               0.000000000               0.000305982               0.000847425               0.000279666               0.000008815               0.000279534               0.000288349               0.000000000               0.000000000               0.000000000               0.000000000               0.000292715               0.000974497               0.000239711              -0.000012044               0.000328844               0.000316800               0.000000000               0.000000000               0.000000000               0.000000000               0.000280581               0.001082884               0.000207987              -0.000030143               0.000371005               0.000340862               0.000000000               0.000000000               0.000000000               0.000000000               0.000272136               0.001190183               0.000184254              -0.000046722               0.000412298               0.000365576               0.000000000               0.000000000               0.000000000               0.000000000               0.000264914               0.001295949               0.000163262              -0.000062651               0.000452862               0.000390211               0.000000000               0.000000000               0.000000000               0.000000000               0.000262304               0.001407614               0.000143419              -0.000077588               0.000495062               0.000417475               0.000000000               0.000000000               0.000000000               0.000000000               0.000267820               0.001525254               0.000123467              -0.000090224               0.000538488               0.000448264               0.000000000               0.000000000               0.000000000               0.000000000               0.000283546               0.001642085               0.000101152              -0.000098931               0.000580333               0.000481402               0.000000000               0.000000000               0.000000000               0.000000000               0.000300227               0.001746355               0.000078888              -0.000105709               0.000617349               0.000511640               0.000000000               0.000000000               0.000000000               0.000000000               0.000308763               0.001835912               0.000060227              -0.000113703               0.000649866               0.000536163               0.000000000               0.000000000               0.000000000               0.000000000               0.000306782               0.001917262               0.000040886              -0.000124614               0.000680619               0.000556005               0.000000000               0.000000000               0.000000000               0.000000000               0.000302967               0.001998455               0.000022256              -0.000136194               0.000711543               0.000575349               0.000000000               0.000000000               0.000000000               0.000000000               0.000297294               0.002079568               0.000008425              -0.000148460               0.000742669               0.000594209               0.000000000               0.000000000               0.000000000               0.000000000               0.000283129               0.002112809              -0.000000073              -0.000157927               0.000756905               0.000598978               0.000000000               0.000000000               0.000000000               0.000000000               0.000267389               0.000183156               0.000178083               0.000077375               0.000035259               0.000112635               0.000000000               0.000000000               0.000000000               0.000000000               0.000320588               0.000336906               0.000231520               0.000078106               0.000086265               0.000164372               0.000000000               0.000000000               0.000000000               0.000000000               0.000334896               0.000555816               0.000261523               0.000056108               0.000166567               0.000222675               0.000000000               0.000000000               0.000000000               0.000000000               0.000334718               0.000729837               0.000241015               0.000034289               0.000231847               0.000266136               0.000000000               0.000000000               0.000000000               0.000000000               0.000327623               0.000869948               0.000211591               0.000014115               0.000285275               0.000299390               0.000000000               0.000000000               0.000000000               0.000000000               0.000321620               0.000996856               0.000188236              -0.000003999               0.000333615               0.000329616               0.000000000               0.000000000               0.000000000               0.000000000               0.000316030               0.001118209               0.000170104              -0.000021265               0.000379821               0.000358556               0.000000000               0.000000000               0.000000000               0.000000000               0.000309571               0.001236978               0.000152928              -0.000038533               0.000425166               0.000386633               0.000000000               0.000000000               0.000000000               0.000000000               0.000308319               0.001362057               0.000137773              -0.000054637               0.000472227               0.000417590               0.000000000               0.000000000               0.000000000               0.000000000               0.000315076               0.001489009               0.000123492              -0.000067973               0.000518989               0.000451016               0.000000000               0.000000000               0.000000000               0.000000000               0.000324624               0.001608298               0.000105576              -0.000079303               0.000562528               0.000483225               0.000000000               0.000000000               0.000000000               0.000000000               0.000335839               0.001711802               0.000084577              -0.000088036               0.000599940               0.000511905               0.000000000               0.000000000               0.000000000               0.000000000               0.000343178               0.001799167               0.000062081              -0.000096204               0.000631784               0.000535581               0.000000000               0.000000000               0.000000000               0.000000000               0.000347708               0.001885349               0.000041794              -0.000105278               0.000663536               0.000558258               0.000000000               0.000000000               0.000000000               0.000000000               0.000354868               0.001976659               0.000027812              -0.000114007               0.000696882               0.000582875               0.000000000               0.000000000               0.000000000               0.000000000               0.000362490               0.002067718               0.000014711              -0.000122531               0.000730076               0.000607545               0.000000000               0.000000000               0.000000000               0.000000000               0.000358904               0.002108804               0.000005547              -0.000129011               0.000745931               0.000616920               0.000000000               0.000000000               0.000000000               0.000000000               0.000198270               0.000115347               0.000108789               0.000059932               0.000018471               0.000078403               0.000000000               0.000000000               0.000000000               0.000000000               0.000294326               0.000252626               0.000156162               0.000078793               0.000057943               0.000136737               0.000000000               0.000000000               0.000000000               0.000000000               0.000343534               0.000453570               0.000187198               0.000072128               0.000127146               0.000199274               0.000000000               0.000000000               0.000000000               0.000000000               0.000358052               0.000627716               0.000177775               0.000055804               0.000190635               0.000246440               0.000000000               0.000000000               0.000000000               0.000000000               0.000359854               0.000777982               0.000159551               0.000037697               0.000246759               0.000284456               0.000000000               0.000000000               0.000000000               0.000000000               0.000360125               0.000920427               0.000144531               0.000019993               0.000300142               0.000320135               0.000000000               0.000000000               0.000000000               0.000000000               0.000356685               0.001055047               0.000131606               0.000001876               0.000351054               0.000352930               0.000000000               0.000000000               0.000000000               0.000000000               0.000353788               0.001182929               0.000120865              -0.000015196               0.000399371               0.000384175               0.000000000               0.000000000               0.000000000               0.000000000               0.000355487               0.001312690               0.000112544              -0.000030779               0.000447819               0.000417040               0.000000000               0.000000000               0.000000000               0.000000000               0.000358565               0.001444343               0.000101830              -0.000046081               0.000496803               0.000450722               0.000000000               0.000000000               0.000000000               0.000000000               0.000361710               0.001565695               0.000087714              -0.000060070               0.000541917               0.000481846               0.000000000               0.000000000               0.000000000               0.000000000               0.000364910               0.001668753               0.000071540              -0.000071753               0.000580163               0.000508410               0.000000000               0.000000000               0.000000000               0.000000000               0.000371900               0.001762502               0.000053213              -0.000080850               0.000614445               0.000533595               0.000000000               0.000000000               0.000000000               0.000000000               0.000386344               0.001861279               0.000038481              -0.000087781               0.000649680               0.000561900               0.000000000               0.000000000               0.000000000               0.000000000               0.000403330               0.001962059               0.000029204              -0.000094008               0.000685349               0.000591341               0.000000000               0.000000000               0.000000000               0.000000000               0.000419685               0.002060806               0.000017657              -0.000100219               0.000720335               0.000620116               0.000000000               0.000000000               0.000000000               0.000000000               0.000424721               0.002108514               0.000009425              -0.000104293               0.000737595               0.000633302               0.000000000               0.000000000               0.000000000               0.000000000               0.000149536               0.000079883               0.000050828               0.000046090               0.000011264               0.000057354               0.000000000               0.000000000               0.000000000               0.000000000               0.000273123               0.000200300               0.000078149               0.000077383               0.000040972               0.000118354               0.000000000               0.000000000               0.000000000               0.000000000               0.000349149               0.000386237               0.000097710               0.000082650               0.000101194               0.000183845               0.000000000               0.000000000               0.000000000               0.000000000               0.000372592               0.000558998               0.000094728               0.000069846               0.000163049               0.000232895               0.000000000               0.000000000               0.000000000               0.000000000               0.000381696               0.000713995               0.000086222               0.000053886               0.000220034               0.000273920               0.000000000               0.000000000               0.000000000               0.000000000               0.000387134               0.000865511               0.000078379               0.000036986               0.000276172               0.000313158               0.000000000               0.000000000               0.000000000               0.000000000               0.000388904               0.001010485               0.000071855               0.000019528               0.000330316               0.000349844               0.000000000               0.000000000               0.000000000               0.000000000               0.000388667               0.001144879               0.000068218               0.000002640               0.000380743               0.000383383               0.000000000               0.000000000               0.000000000               0.000000000               0.000387661               0.001275842               0.000064230              -0.000014107               0.000429979               0.000415871               0.000000000               0.000000000               0.000000000               0.000000000               0.000386136               0.001405227               0.000057780              -0.000030852               0.000478688               0.000447836               0.000000000               0.000000000               0.000000000               0.000000000               0.000386658               0.001526937               0.000049489              -0.000045870               0.000524264               0.000478394               0.000000000               0.000000000               0.000000000               0.000000000               0.000389819               0.001638328               0.000040960              -0.000058609               0.000565640               0.000507032               0.000000000               0.000000000               0.000000000               0.000000000               0.000399028               0.001744163               0.000033069              -0.000068385               0.000604177               0.000535792               0.000000000               0.000000000               0.000000000               0.000000000               0.000415630               0.001847503               0.000025679              -0.000075076               0.000640854               0.000565777               0.000000000               0.000000000               0.000000000               0.000000000               0.000435049               0.001947140               0.000019029              -0.000080249               0.000675790               0.000595541               0.000000000               0.000000000               0.000000000               0.000000000               0.000458507               0.002051211               0.000011214              -0.000084461               0.000711884               0.000627423               0.000000000               0.000000000               0.000000000               0.000000000               0.000471551               0.002105345               0.000006397              -0.000086336               0.000730553               0.000644217               0.000000000               0.000000000               0.000000000               0.000000000               0.000000000               0.000000000               0.000000000               0.000000000               0.000000000               0.000000000               0.000000000               0.000000000               0.000000000               0.000000000               0.000000000               0.000000000               0.000000000               0.000000000               0.000000000               0.000000000               0.000000000               0.000000000               0.000000000               0.000000000               0.000000000               0.000000000               0.000000000               0.000000000               0.000000000               0.000000000               0.000000000               0.000000000               0.000000000               0.000000000               0.000000000               0.000000000               0.000000000               0.000000000               0.000000000               0.000000000               0.000000000               0.000000000               0.000000000               0.000000000               0.000000000               0.000000000               0.000000000               0.000000000               0.000000000               0.000000000               0.000000000               0.000000000               0.000000000               0.000000000               0.000000000               0.000000000               0.000000000               0.000000000               0.000000000               0.000000000               0.000000000               0.000000000               0.000000000               0.000000000               0.000000000               0.000000000               0.000000000               0.000000000               0.000000000               0.000000000               0.000000000               0.000000000               0.000000000               0.000000000               0.000000000               0.000000000               0.000000000               0.000000000               0.000000000               0.000000000               0.000000000               0.000000000               0.000000000               0.000000000               0.000000000               0.000000000               0.000000000               0.000000000               0.000000000               0.000000000               0.000000000               0.000000000               0.000000000               0.000000000               0.000000000               0.000000000               0.000000000               0.000000000               0.000000000               0.000000000               0.000000000               0.000000000               0.000000000               0.000000000               0.000000000               0.000000000               0.000000000               0.000000000               0.000000000               0.000000000               0.000000000               0.000000000               0.000000000               0.000000000               0.000000000               0.000000000               0.000000000               0.000000000               0.000000000               0.000000000               0.000000000               0.000000000               0.000000000               0.000000000               0.000000000               0.000000000               0.000000000               0.000000000               0.000000000               0.000000000               0.000000000               0.000000000               0.000000000               0.000000000               0.000000000               0.000000000               0.000000000               0.000000000               0.000000000               0.000000000               0.000000000               0.000000000               0.000000000               0.000000000               0.000000000               0.000000000               0.000000000               0.000000000               0.000000000               0.000000000               0.000000000               0.000000000               0.000000000               0.000000000               0.000000000               0.000000000               0.000000000               0.000000000               0.000000000               0.000000000               0.000000000               0.000000000               0.000000000               0.000000000               0.000000000               0.000000000               0.000000000               0.000000000               0.000000000               0.000000000               0.000000000               0.000000000               0.000000000               0.000000000 </DataArray>
</PointData>
</Piece>
</UnstructuredGrid> </VTKFile>
