<?xml version="1.0"?>
<VTKFile type="UnstructuredGrid" version="0.1">
<UnstructuredGrid>
<Piece NumberOfPoints="      1156" NumberOfCells="      1024">
<Points>
<DataArray type="Float64"                                    Name="coordinates"                                                      NumberOfComponents=" 3" format="ascii">
              0.133000000               0.000000000               0.000000000               0.155937500               0.000000000               0.000000000               0.178875000               0.000000000               0.000000000               0.201812500               0.000000000               0.000000000               0.224750000               0.000000000               0.000000000               0.247687500               0.000000000               0.000000000               0.270625000               0.000000000               0.000000000               0.293562500               0.000000000               0.000000000               0.316500000               0.000000000               0.000000000               0.339437500               0.000000000               0.000000000               0.362375000               0.000000000               0.000000000               0.385312500               0.000000000               0.000000000               0.408250000               0.000000000               0.000000000               0.431187500               0.000000000               0.000000000               0.454125000               0.000000000               0.000000000               0.477062500               0.000000000               0.000000000               0.500000000               0.000000000               0.000000000               0.132359569               0.013036280               0.000000000               0.155337096               0.016127762               0.000000000               0.178314623               0.019219245               0.000000000               0.201292150               0.022310727               0.000000000               0.224269676               0.025402210               0.000000000               0.247247203               0.028493692               0.000000000               0.270224730               0.031585175               0.000000000               0.293202257               0.034676657               0.000000000               0.316179784               0.037768140               0.000000000               0.339157311               0.040859622               0.000000000               0.362134838               0.043951105               0.000000000               0.385112365               0.047042587               0.000000000               0.408089892               0.050134070               0.000000000               0.431067419               0.053225552               0.000000000               0.454044946               0.056317035               0.000000000               0.477022473               0.059408517               0.000000000               0.500000000               0.062500000               0.000000000               0.130444442               0.025947013               0.000000000               0.153541665               0.032137825               0.000000000               0.176638887               0.038328636               0.000000000               0.199736109               0.044519448               0.000000000               0.222833332               0.050710260               0.000000000               0.245930554               0.056901071               0.000000000               0.269027776               0.063091883               0.000000000               0.292124999               0.069282695               0.000000000               0.315222221               0.075473506               0.000000000               0.338319444               0.081664318               0.000000000               0.361416666               0.087855130               0.000000000               0.384513888               0.094045942               0.000000000               0.407611111               0.100236753               0.000000000               0.430708333               0.106427565               0.000000000               0.453805555               0.112618377               0.000000000               0.476902778               0.118809188               0.000000000               0.500000000               0.125000000               0.000000000               0.127273065               0.038607862               0.000000000               0.150568498               0.047913621               0.000000000               0.173863932               0.057219379               0.000000000               0.197159365               0.066525138               0.000000000               0.220454798               0.075830897               0.000000000               0.243750232               0.085136655               0.000000000               0.267045665               0.094442414               0.000000000               0.290341099               0.103748172               0.000000000               0.313636532               0.113053931               0.000000000               0.336931966               0.122359690               0.000000000               0.360227399               0.131665448               0.000000000               0.383522833               0.140971207               0.000000000               0.406818266               0.150276966               0.000000000               0.430113700               0.159582724               0.000000000               0.453409133               0.168888483               0.000000000               0.476704567               0.178194241               0.000000000               0.500000000               0.187500000               0.000000000               0.122875978               0.050896897               0.000000000               0.146446229               0.063340840               0.000000000               0.170016481               0.075784784               0.000000000               0.193586732               0.088228728               0.000000000               0.217156983               0.100672672               0.000000000               0.240727235               0.113116616               0.000000000               0.264297486               0.125560560               0.000000000               0.287867738               0.138004504               0.000000000               0.311437989               0.150448448               0.000000000               0.335008240               0.162892392               0.000000000               0.358578492               0.175336336               0.000000000               0.382148743               0.187780280               0.000000000               0.405718994               0.200224224               0.000000000               0.429289246               0.212668168               0.000000000               0.452859497               0.225112112               0.000000000               0.476429749               0.237556056               0.000000000               0.500000000               0.250000000               0.000000000               0.117295528               0.062695766               0.000000000               0.141214558               0.078308531               0.000000000               0.165133587               0.093921295               0.000000000               0.189052617               0.109534060               0.000000000               0.212971646               0.125146824               0.000000000               0.236890676               0.140759589               0.000000000               0.260809705               0.156372354               0.000000000               0.284728735               0.171985118               0.000000000               0.308647764               0.187597883               0.000000000               0.332566794               0.203210648               0.000000000               0.356485823               0.218823412               0.000000000               0.380404853               0.234436177               0.000000000               0.404323882               0.250048941               0.000000000               0.428242912               0.265661706               0.000000000               0.452161941               0.281274471               0.000000000               0.476080971               0.296887235               0.000000000               0.500000000               0.312500000               0.000000000               0.110585458               0.073890841               0.000000000               0.134923867               0.092710163               0.000000000               0.159262276               0.111529486               0.000000000               0.183600685               0.130348808               0.000000000               0.207939094               0.149168131               0.000000000               0.232277503               0.167987453               0.000000000               0.256615912               0.186806776               0.000000000               0.280954320               0.205626098               0.000000000               0.305292729               0.224445420               0.000000000               0.329631138               0.243264743               0.000000000               0.353969547               0.262084065               0.000000000               0.378307956               0.280903388               0.000000000               0.402646365               0.299722710               0.000000000               0.426984773               0.318542033               0.000000000               0.451323182               0.337361355               0.000000000               0.475661591               0.356180678               0.000000000               0.500000000               0.375000000               0.000000000               0.102810390               0.084374307               0.000000000               0.127634741               0.106444663               0.000000000               0.152459092               0.128515018               0.000000000               0.177283442               0.150585374               0.000000000               0.202107793               0.172655730               0.000000000               0.226932143               0.194726086               0.000000000               0.251756494               0.216796442               0.000000000               0.276580845               0.238866798               0.000000000               0.301405195               0.260937153               0.000000000               0.326229546               0.283007509               0.000000000               0.351053896               0.305077865               0.000000000               0.375878247               0.327148221               0.000000000               0.400702598               0.349218577               0.000000000               0.425526948               0.371288933               0.000000000               0.450351299               0.393359288               0.000000000               0.475175649               0.415429644               0.000000000               0.500000000               0.437500000               0.000000000               0.094045202               0.094045202               0.000000000               0.119417377               0.119417377               0.000000000               0.144789552               0.144789552               0.000000000               0.170161727               0.170161727               0.000000000               0.195533901               0.195533901               0.000000000               0.220906076               0.220906076               0.000000000               0.246278251               0.246278251               0.000000000               0.271650426               0.271650426               0.000000000               0.297022601               0.297022601               0.000000000               0.322394776               0.322394776               0.000000000               0.347766951               0.347766951               0.000000000               0.373139126               0.373139126               0.000000000               0.398511300               0.398511300               0.000000000               0.423883475               0.423883475               0.000000000               0.449255650               0.449255650               0.000000000               0.474627825               0.474627825               0.000000000               0.500000000               0.500000000               0.000000000               0.084374307               0.102810390               0.000000000               0.106444663               0.127634741               0.000000000               0.128515018               0.152459092               0.000000000               0.150585374               0.177283442               0.000000000               0.172655730               0.202107793               0.000000000               0.194726086               0.226932143               0.000000000               0.216796442               0.251756494               0.000000000               0.238866798               0.276580845               0.000000000               0.260937153               0.301405195               0.000000000               0.283007509               0.326229546               0.000000000               0.305077865               0.351053896               0.000000000               0.327148221               0.375878247               0.000000000               0.349218577               0.400702598               0.000000000               0.371288933               0.425526948               0.000000000               0.393359288               0.450351299               0.000000000               0.415429644               0.475175649               0.000000000               0.437500000               0.500000000               0.000000000               0.073890841               0.110585458               0.000000000               0.092710163               0.134923867               0.000000000               0.111529486               0.159262276               0.000000000               0.130348808               0.183600685               0.000000000               0.149168131               0.207939094               0.000000000               0.167987453               0.232277503               0.000000000               0.186806776               0.256615912               0.000000000               0.205626098               0.280954320               0.000000000               0.224445420               0.305292729               0.000000000               0.243264743               0.329631138               0.000000000               0.262084065               0.353969547               0.000000000               0.280903388               0.378307956               0.000000000               0.299722710               0.402646365               0.000000000               0.318542033               0.426984773               0.000000000               0.337361355               0.451323182               0.000000000               0.356180678               0.475661591               0.000000000               0.375000000               0.500000000               0.000000000               0.062695766               0.117295528               0.000000000               0.078308531               0.141214558               0.000000000               0.093921295               0.165133587               0.000000000               0.109534060               0.189052617               0.000000000               0.125146824               0.212971646               0.000000000               0.140759589               0.236890676               0.000000000               0.156372354               0.260809705               0.000000000               0.171985118               0.284728735               0.000000000               0.187597883               0.308647764               0.000000000               0.203210648               0.332566794               0.000000000               0.218823412               0.356485823               0.000000000               0.234436177               0.380404853               0.000000000               0.250048941               0.404323882               0.000000000               0.265661706               0.428242912               0.000000000               0.281274471               0.452161941               0.000000000               0.296887235               0.476080971               0.000000000               0.312500000               0.500000000               0.000000000               0.050896897               0.122875978               0.000000000               0.063340840               0.146446229               0.000000000               0.075784784               0.170016481               0.000000000               0.088228728               0.193586732               0.000000000               0.100672672               0.217156983               0.000000000               0.113116616               0.240727235               0.000000000               0.125560560               0.264297486               0.000000000               0.138004504               0.287867738               0.000000000               0.150448448               0.311437989               0.000000000               0.162892392               0.335008240               0.000000000               0.175336336               0.358578492               0.000000000               0.187780280               0.382148743               0.000000000               0.200224224               0.405718994               0.000000000               0.212668168               0.429289246               0.000000000               0.225112112               0.452859497               0.000000000               0.237556056               0.476429749               0.000000000               0.250000000               0.500000000               0.000000000               0.038607862               0.127273065               0.000000000               0.047913621               0.150568498               0.000000000               0.057219379               0.173863932               0.000000000               0.066525138               0.197159365               0.000000000               0.075830897               0.220454798               0.000000000               0.085136655               0.243750232               0.000000000               0.094442414               0.267045665               0.000000000               0.103748172               0.290341099               0.000000000               0.113053931               0.313636532               0.000000000               0.122359690               0.336931966               0.000000000               0.131665448               0.360227399               0.000000000               0.140971207               0.383522833               0.000000000               0.150276966               0.406818266               0.000000000               0.159582724               0.430113700               0.000000000               0.168888483               0.453409133               0.000000000               0.178194241               0.476704567               0.000000000               0.187500000               0.500000000               0.000000000               0.025947013               0.130444442               0.000000000               0.032137825               0.153541665               0.000000000               0.038328636               0.176638887               0.000000000               0.044519448               0.199736109               0.000000000               0.050710260               0.222833332               0.000000000               0.056901071               0.245930554               0.000000000               0.063091883               0.269027776               0.000000000               0.069282695               0.292124999               0.000000000               0.075473506               0.315222221               0.000000000               0.081664318               0.338319444               0.000000000               0.087855130               0.361416666               0.000000000               0.094045942               0.384513888               0.000000000               0.100236753               0.407611111               0.000000000               0.106427565               0.430708333               0.000000000               0.112618377               0.453805555               0.000000000               0.118809188               0.476902778               0.000000000               0.125000000               0.500000000               0.000000000               0.013036280               0.132359569               0.000000000               0.016127762               0.155337096               0.000000000               0.019219245               0.178314623               0.000000000               0.022310727               0.201292150               0.000000000               0.025402210               0.224269676               0.000000000               0.028493692               0.247247203               0.000000000               0.031585175               0.270224730               0.000000000               0.034676657               0.293202257               0.000000000               0.037768140               0.316179784               0.000000000               0.040859622               0.339157311               0.000000000               0.043951105               0.362134838               0.000000000               0.047042587               0.385112365               0.000000000               0.050134070               0.408089892               0.000000000               0.053225552               0.431067419               0.000000000               0.056317035               0.454044946               0.000000000               0.059408517               0.477022473               0.000000000               0.062500000               0.500000000               0.000000000               0.000000000               0.133000000               0.000000000               0.000000000               0.155937500               0.000000000               0.000000000               0.178875000               0.000000000               0.000000000               0.201812500               0.000000000               0.000000000               0.224750000               0.000000000               0.000000000               0.247687500               0.000000000               0.000000000               0.270625000               0.000000000               0.000000000               0.293562500               0.000000000               0.000000000               0.316500000               0.000000000               0.000000000               0.339437500               0.000000000               0.000000000               0.362375000               0.000000000               0.000000000               0.385312500               0.000000000               0.000000000               0.408250000               0.000000000               0.000000000               0.431187500               0.000000000               0.000000000               0.454125000               0.000000000               0.000000000               0.477062500               0.000000000               0.000000000               0.500000000               0.000000000               0.133000000               0.000000000               0.000000000               0.155937500               0.000000000               0.000000000               0.178875000               0.000000000               0.000000000               0.201812500               0.000000000               0.000000000               0.224750000               0.000000000               0.000000000               0.247687500               0.000000000               0.000000000               0.270625000               0.000000000               0.000000000               0.293562500               0.000000000               0.000000000               0.316500000               0.000000000               0.000000000               0.339437500               0.000000000               0.000000000               0.362375000               0.000000000               0.000000000               0.385312500               0.000000000               0.000000000               0.408250000               0.000000000               0.000000000               0.431187500               0.000000000               0.000000000               0.454125000               0.000000000               0.000000000               0.477062500               0.000000000               0.000000000               0.500000000               0.000000000               0.000000000               0.132359569              -0.013036280               0.000000000               0.155337096              -0.016127762               0.000000000               0.178314623              -0.019219245               0.000000000               0.201292150              -0.022310727               0.000000000               0.224269676              -0.025402210               0.000000000               0.247247203              -0.028493692               0.000000000               0.270224730              -0.031585175               0.000000000               0.293202257              -0.034676657               0.000000000               0.316179784              -0.037768140               0.000000000               0.339157311              -0.040859622               0.000000000               0.362134838              -0.043951105               0.000000000               0.385112365              -0.047042587               0.000000000               0.408089892              -0.050134070               0.000000000               0.431067419              -0.053225552               0.000000000               0.454044946              -0.056317035               0.000000000               0.477022473              -0.059408517               0.000000000               0.500000000              -0.062500000               0.000000000               0.130444442              -0.025947013               0.000000000               0.153541665              -0.032137825               0.000000000               0.176638887              -0.038328636               0.000000000               0.199736109              -0.044519448               0.000000000               0.222833332              -0.050710260               0.000000000               0.245930554              -0.056901071               0.000000000               0.269027776              -0.063091883               0.000000000               0.292124999              -0.069282695               0.000000000               0.315222221              -0.075473506               0.000000000               0.338319444              -0.081664318               0.000000000               0.361416666              -0.087855130               0.000000000               0.384513888              -0.094045942               0.000000000               0.407611111              -0.100236753               0.000000000               0.430708333              -0.106427565               0.000000000               0.453805555              -0.112618377               0.000000000               0.476902778              -0.118809188               0.000000000               0.500000000              -0.125000000               0.000000000               0.127273065              -0.038607862               0.000000000               0.150568498              -0.047913621               0.000000000               0.173863932              -0.057219379               0.000000000               0.197159365              -0.066525138               0.000000000               0.220454798              -0.075830897               0.000000000               0.243750232              -0.085136655               0.000000000               0.267045665              -0.094442414               0.000000000               0.290341099              -0.103748172               0.000000000               0.313636532              -0.113053931               0.000000000               0.336931966              -0.122359690               0.000000000               0.360227399              -0.131665448               0.000000000               0.383522833              -0.140971207               0.000000000               0.406818266              -0.150276966               0.000000000               0.430113700              -0.159582724               0.000000000               0.453409133              -0.168888483               0.000000000               0.476704567              -0.178194241               0.000000000               0.500000000              -0.187500000               0.000000000               0.122875978              -0.050896897               0.000000000               0.146446229              -0.063340840               0.000000000               0.170016481              -0.075784784               0.000000000               0.193586732              -0.088228728               0.000000000               0.217156983              -0.100672672               0.000000000               0.240727235              -0.113116616               0.000000000               0.264297486              -0.125560560               0.000000000               0.287867738              -0.138004504               0.000000000               0.311437989              -0.150448448               0.000000000               0.335008240              -0.162892392               0.000000000               0.358578492              -0.175336336               0.000000000               0.382148743              -0.187780280               0.000000000               0.405718994              -0.200224224               0.000000000               0.429289246              -0.212668168               0.000000000               0.452859497              -0.225112112               0.000000000               0.476429749              -0.237556056               0.000000000               0.500000000              -0.250000000               0.000000000               0.117295528              -0.062695766               0.000000000               0.141214558              -0.078308531               0.000000000               0.165133587              -0.093921295               0.000000000               0.189052617              -0.109534060               0.000000000               0.212971646              -0.125146824               0.000000000               0.236890676              -0.140759589               0.000000000               0.260809705              -0.156372354               0.000000000               0.284728735              -0.171985118               0.000000000               0.308647764              -0.187597883               0.000000000               0.332566794              -0.203210648               0.000000000               0.356485823              -0.218823412               0.000000000               0.380404853              -0.234436177               0.000000000               0.404323882              -0.250048941               0.000000000               0.428242912              -0.265661706               0.000000000               0.452161941              -0.281274471               0.000000000               0.476080971              -0.296887235               0.000000000               0.500000000              -0.312500000               0.000000000               0.110585458              -0.073890841               0.000000000               0.134923867              -0.092710163               0.000000000               0.159262276              -0.111529486               0.000000000               0.183600685              -0.130348808               0.000000000               0.207939094              -0.149168131               0.000000000               0.232277503              -0.167987453               0.000000000               0.256615912              -0.186806776               0.000000000               0.280954320              -0.205626098               0.000000000               0.305292729              -0.224445420               0.000000000               0.329631138              -0.243264743               0.000000000               0.353969547              -0.262084065               0.000000000               0.378307956              -0.280903388               0.000000000               0.402646365              -0.299722710               0.000000000               0.426984773              -0.318542033               0.000000000               0.451323182              -0.337361355               0.000000000               0.475661591              -0.356180678               0.000000000               0.500000000              -0.375000000               0.000000000               0.102810390              -0.084374307               0.000000000               0.127634741              -0.106444663               0.000000000               0.152459092              -0.128515018               0.000000000               0.177283442              -0.150585374               0.000000000               0.202107793              -0.172655730               0.000000000               0.226932143              -0.194726086               0.000000000               0.251756494              -0.216796442               0.000000000               0.276580845              -0.238866798               0.000000000               0.301405195              -0.260937153               0.000000000               0.326229546              -0.283007509               0.000000000               0.351053896              -0.305077865               0.000000000               0.375878247              -0.327148221               0.000000000               0.400702598              -0.349218577               0.000000000               0.425526948              -0.371288933               0.000000000               0.450351299              -0.393359288               0.000000000               0.475175649              -0.415429644               0.000000000               0.500000000              -0.437500000               0.000000000               0.094045202              -0.094045202               0.000000000               0.119417377              -0.119417377               0.000000000               0.144789552              -0.144789552               0.000000000               0.170161727              -0.170161727               0.000000000               0.195533901              -0.195533901               0.000000000               0.220906076              -0.220906076               0.000000000               0.246278251              -0.246278251               0.000000000               0.271650426              -0.271650426               0.000000000               0.297022601              -0.297022601               0.000000000               0.322394776              -0.322394776               0.000000000               0.347766951              -0.347766951               0.000000000               0.373139126              -0.373139126               0.000000000               0.398511300              -0.398511300               0.000000000               0.423883475              -0.423883475               0.000000000               0.449255650              -0.449255650               0.000000000               0.474627825              -0.474627825               0.000000000               0.500000000              -0.500000000               0.000000000               0.084374307              -0.102810390               0.000000000               0.106444663              -0.127634741               0.000000000               0.128515018              -0.152459092               0.000000000               0.150585374              -0.177283442               0.000000000               0.172655730              -0.202107793               0.000000000               0.194726086              -0.226932143               0.000000000               0.216796442              -0.251756494               0.000000000               0.238866798              -0.276580845               0.000000000               0.260937153              -0.301405195               0.000000000               0.283007509              -0.326229546               0.000000000               0.305077865              -0.351053896               0.000000000               0.327148221              -0.375878247               0.000000000               0.349218577              -0.400702598               0.000000000               0.371288933              -0.425526948               0.000000000               0.393359288              -0.450351299               0.000000000               0.415429644              -0.475175649               0.000000000               0.437500000              -0.500000000               0.000000000               0.073890841              -0.110585458               0.000000000               0.092710163              -0.134923867               0.000000000               0.111529486              -0.159262276               0.000000000               0.130348808              -0.183600685               0.000000000               0.149168131              -0.207939094               0.000000000               0.167987453              -0.232277503               0.000000000               0.186806776              -0.256615912               0.000000000               0.205626098              -0.280954320               0.000000000               0.224445420              -0.305292729               0.000000000               0.243264743              -0.329631138               0.000000000               0.262084065              -0.353969547               0.000000000               0.280903388              -0.378307956               0.000000000               0.299722710              -0.402646365               0.000000000               0.318542033              -0.426984773               0.000000000               0.337361355              -0.451323182               0.000000000               0.356180678              -0.475661591               0.000000000               0.375000000              -0.500000000               0.000000000               0.062695766              -0.117295528               0.000000000               0.078308531              -0.141214558               0.000000000               0.093921295              -0.165133587               0.000000000               0.109534060              -0.189052617               0.000000000               0.125146824              -0.212971646               0.000000000               0.140759589              -0.236890676               0.000000000               0.156372354              -0.260809705               0.000000000               0.171985118              -0.284728735               0.000000000               0.187597883              -0.308647764               0.000000000               0.203210648              -0.332566794               0.000000000               0.218823412              -0.356485823               0.000000000               0.234436177              -0.380404853               0.000000000               0.250048941              -0.404323882               0.000000000               0.265661706              -0.428242912               0.000000000               0.281274471              -0.452161941               0.000000000               0.296887235              -0.476080971               0.000000000               0.312500000              -0.500000000               0.000000000               0.050896897              -0.122875978               0.000000000               0.063340840              -0.146446229               0.000000000               0.075784784              -0.170016481               0.000000000               0.088228728              -0.193586732               0.000000000               0.100672672              -0.217156983               0.000000000               0.113116616              -0.240727235               0.000000000               0.125560560              -0.264297486               0.000000000               0.138004504              -0.287867738               0.000000000               0.150448448              -0.311437989               0.000000000               0.162892392              -0.335008240               0.000000000               0.175336336              -0.358578492               0.000000000               0.187780280              -0.382148743               0.000000000               0.200224224              -0.405718994               0.000000000               0.212668168              -0.429289246               0.000000000               0.225112112              -0.452859497               0.000000000               0.237556056              -0.476429749               0.000000000               0.250000000              -0.500000000               0.000000000               0.038607862              -0.127273065               0.000000000               0.047913621              -0.150568498               0.000000000               0.057219379              -0.173863932               0.000000000               0.066525138              -0.197159365               0.000000000               0.075830897              -0.220454798               0.000000000               0.085136655              -0.243750232               0.000000000               0.094442414              -0.267045665               0.000000000               0.103748172              -0.290341099               0.000000000               0.113053931              -0.313636532               0.000000000               0.122359690              -0.336931966               0.000000000               0.131665448              -0.360227399               0.000000000               0.140971207              -0.383522833               0.000000000               0.150276966              -0.406818266               0.000000000               0.159582724              -0.430113700               0.000000000               0.168888483              -0.453409133               0.000000000               0.178194241              -0.476704567               0.000000000               0.187500000              -0.500000000               0.000000000               0.025947013              -0.130444442               0.000000000               0.032137825              -0.153541665               0.000000000               0.038328636              -0.176638887               0.000000000               0.044519448              -0.199736109               0.000000000               0.050710260              -0.222833332               0.000000000               0.056901071              -0.245930554               0.000000000               0.063091883              -0.269027776               0.000000000               0.069282695              -0.292124999               0.000000000               0.075473506              -0.315222221               0.000000000               0.081664318              -0.338319444               0.000000000               0.087855130              -0.361416666               0.000000000               0.094045942              -0.384513888               0.000000000               0.100236753              -0.407611111               0.000000000               0.106427565              -0.430708333               0.000000000               0.112618377              -0.453805555               0.000000000               0.118809188              -0.476902778               0.000000000               0.125000000              -0.500000000               0.000000000               0.013036280              -0.132359569               0.000000000               0.016127762              -0.155337096               0.000000000               0.019219245              -0.178314623               0.000000000               0.022310727              -0.201292150               0.000000000               0.025402210              -0.224269676               0.000000000               0.028493692              -0.247247203               0.000000000               0.031585175              -0.270224730               0.000000000               0.034676657              -0.293202257               0.000000000               0.037768140              -0.316179784               0.000000000               0.040859622              -0.339157311               0.000000000               0.043951105              -0.362134838               0.000000000               0.047042587              -0.385112365               0.000000000               0.050134070              -0.408089892               0.000000000               0.053225552              -0.431067419               0.000000000               0.056317035              -0.454044946               0.000000000               0.059408517              -0.477022473               0.000000000               0.062500000              -0.500000000               0.000000000               0.000000000              -0.133000000               0.000000000               0.000000000              -0.155937500               0.000000000               0.000000000              -0.178875000               0.000000000               0.000000000              -0.201812500               0.000000000               0.000000000              -0.224750000               0.000000000               0.000000000              -0.247687500               0.000000000               0.000000000              -0.270625000               0.000000000               0.000000000              -0.293562500               0.000000000               0.000000000              -0.316500000               0.000000000               0.000000000              -0.339437500               0.000000000               0.000000000              -0.362375000               0.000000000               0.000000000              -0.385312500               0.000000000               0.000000000              -0.408250000               0.000000000               0.000000000              -0.431187500               0.000000000               0.000000000              -0.454125000               0.000000000               0.000000000              -0.477062500               0.000000000               0.000000000              -0.500000000               0.000000000              -0.133000000               0.000000000               0.000000000              -0.155937500               0.000000000               0.000000000              -0.178875000               0.000000000               0.000000000              -0.201812500               0.000000000               0.000000000              -0.224750000               0.000000000               0.000000000              -0.247687500               0.000000000               0.000000000              -0.270625000               0.000000000               0.000000000              -0.293562500               0.000000000               0.000000000              -0.316500000               0.000000000               0.000000000              -0.339437500               0.000000000               0.000000000              -0.362375000               0.000000000               0.000000000              -0.385312500               0.000000000               0.000000000              -0.408250000               0.000000000               0.000000000              -0.431187500               0.000000000               0.000000000              -0.454125000               0.000000000               0.000000000              -0.477062500               0.000000000               0.000000000              -0.500000000               0.000000000               0.000000000              -0.132359569              -0.013036280               0.000000000              -0.155337096              -0.016127762               0.000000000              -0.178314623              -0.019219245               0.000000000              -0.201292150              -0.022310727               0.000000000              -0.224269676              -0.025402210               0.000000000              -0.247247203              -0.028493692               0.000000000              -0.270224730              -0.031585175               0.000000000              -0.293202257              -0.034676657               0.000000000              -0.316179784              -0.037768140               0.000000000              -0.339157311              -0.040859622               0.000000000              -0.362134838              -0.043951105               0.000000000              -0.385112365              -0.047042587               0.000000000              -0.408089892              -0.050134070               0.000000000              -0.431067419              -0.053225552               0.000000000              -0.454044946              -0.056317035               0.000000000              -0.477022473              -0.059408517               0.000000000              -0.500000000              -0.062500000               0.000000000              -0.130444442              -0.025947013               0.000000000              -0.153541665              -0.032137825               0.000000000              -0.176638887              -0.038328636               0.000000000              -0.199736109              -0.044519448               0.000000000              -0.222833332              -0.050710260               0.000000000              -0.245930554              -0.056901071               0.000000000              -0.269027776              -0.063091883               0.000000000              -0.292124999              -0.069282695               0.000000000              -0.315222221              -0.075473506               0.000000000              -0.338319444              -0.081664318               0.000000000              -0.361416666              -0.087855130               0.000000000              -0.384513888              -0.094045942               0.000000000              -0.407611111              -0.100236753               0.000000000              -0.430708333              -0.106427565               0.000000000              -0.453805555              -0.112618377               0.000000000              -0.476902778              -0.118809188               0.000000000              -0.500000000              -0.125000000               0.000000000              -0.127273065              -0.038607862               0.000000000              -0.150568498              -0.047913621               0.000000000              -0.173863932              -0.057219379               0.000000000              -0.197159365              -0.066525138               0.000000000              -0.220454798              -0.075830897               0.000000000              -0.243750232              -0.085136655               0.000000000              -0.267045665              -0.094442414               0.000000000              -0.290341099              -0.103748172               0.000000000              -0.313636532              -0.113053931               0.000000000              -0.336931966              -0.122359690               0.000000000              -0.360227399              -0.131665448               0.000000000              -0.383522833              -0.140971207               0.000000000              -0.406818266              -0.150276966               0.000000000              -0.430113700              -0.159582724               0.000000000              -0.453409133              -0.168888483               0.000000000              -0.476704567              -0.178194241               0.000000000              -0.500000000              -0.187500000               0.000000000              -0.122875978              -0.050896897               0.000000000              -0.146446229              -0.063340840               0.000000000              -0.170016481              -0.075784784               0.000000000              -0.193586732              -0.088228728               0.000000000              -0.217156983              -0.100672672               0.000000000              -0.240727235              -0.113116616               0.000000000              -0.264297486              -0.125560560               0.000000000              -0.287867738              -0.138004504               0.000000000              -0.311437989              -0.150448448               0.000000000              -0.335008240              -0.162892392               0.000000000              -0.358578492              -0.175336336               0.000000000              -0.382148743              -0.187780280               0.000000000              -0.405718994              -0.200224224               0.000000000              -0.429289246              -0.212668168               0.000000000              -0.452859497              -0.225112112               0.000000000              -0.476429749              -0.237556056               0.000000000              -0.500000000              -0.250000000               0.000000000              -0.117295528              -0.062695766               0.000000000              -0.141214558              -0.078308531               0.000000000              -0.165133587              -0.093921295               0.000000000              -0.189052617              -0.109534060               0.000000000              -0.212971646              -0.125146824               0.000000000              -0.236890676              -0.140759589               0.000000000              -0.260809705              -0.156372354               0.000000000              -0.284728735              -0.171985118               0.000000000              -0.308647764              -0.187597883               0.000000000              -0.332566794              -0.203210648               0.000000000              -0.356485823              -0.218823412               0.000000000              -0.380404853              -0.234436177               0.000000000              -0.404323882              -0.250048941               0.000000000              -0.428242912              -0.265661706               0.000000000              -0.452161941              -0.281274471               0.000000000              -0.476080971              -0.296887235               0.000000000              -0.500000000              -0.312500000               0.000000000              -0.110585458              -0.073890841               0.000000000              -0.134923867              -0.092710163               0.000000000              -0.159262276              -0.111529486               0.000000000              -0.183600685              -0.130348808               0.000000000              -0.207939094              -0.149168131               0.000000000              -0.232277503              -0.167987453               0.000000000              -0.256615912              -0.186806776               0.000000000              -0.280954320              -0.205626098               0.000000000              -0.305292729              -0.224445420               0.000000000              -0.329631138              -0.243264743               0.000000000              -0.353969547              -0.262084065               0.000000000              -0.378307956              -0.280903388               0.000000000              -0.402646365              -0.299722710               0.000000000              -0.426984773              -0.318542033               0.000000000              -0.451323182              -0.337361355               0.000000000              -0.475661591              -0.356180678               0.000000000              -0.500000000              -0.375000000               0.000000000              -0.102810390              -0.084374307               0.000000000              -0.127634741              -0.106444663               0.000000000              -0.152459092              -0.128515018               0.000000000              -0.177283442              -0.150585374               0.000000000              -0.202107793              -0.172655730               0.000000000              -0.226932143              -0.194726086               0.000000000              -0.251756494              -0.216796442               0.000000000              -0.276580845              -0.238866798               0.000000000              -0.301405195              -0.260937153               0.000000000              -0.326229546              -0.283007509               0.000000000              -0.351053896              -0.305077865               0.000000000              -0.375878247              -0.327148221               0.000000000              -0.400702598              -0.349218577               0.000000000              -0.425526948              -0.371288933               0.000000000              -0.450351299              -0.393359288               0.000000000              -0.475175649              -0.415429644               0.000000000              -0.500000000              -0.437500000               0.000000000              -0.094045202              -0.094045202               0.000000000              -0.119417377              -0.119417377               0.000000000              -0.144789552              -0.144789552               0.000000000              -0.170161727              -0.170161727               0.000000000              -0.195533901              -0.195533901               0.000000000              -0.220906076              -0.220906076               0.000000000              -0.246278251              -0.246278251               0.000000000              -0.271650426              -0.271650426               0.000000000              -0.297022601              -0.297022601               0.000000000              -0.322394776              -0.322394776               0.000000000              -0.347766951              -0.347766951               0.000000000              -0.373139126              -0.373139126               0.000000000              -0.398511300              -0.398511300               0.000000000              -0.423883475              -0.423883475               0.000000000              -0.449255650              -0.449255650               0.000000000              -0.474627825              -0.474627825               0.000000000              -0.500000000              -0.500000000               0.000000000              -0.084374307              -0.102810390               0.000000000              -0.106444663              -0.127634741               0.000000000              -0.128515018              -0.152459092               0.000000000              -0.150585374              -0.177283442               0.000000000              -0.172655730              -0.202107793               0.000000000              -0.194726086              -0.226932143               0.000000000              -0.216796442              -0.251756494               0.000000000              -0.238866798              -0.276580845               0.000000000              -0.260937153              -0.301405195               0.000000000              -0.283007509              -0.326229546               0.000000000              -0.305077865              -0.351053896               0.000000000              -0.327148221              -0.375878247               0.000000000              -0.349218577              -0.400702598               0.000000000              -0.371288933              -0.425526948               0.000000000              -0.393359288              -0.450351299               0.000000000              -0.415429644              -0.475175649               0.000000000              -0.437500000              -0.500000000               0.000000000              -0.073890841              -0.110585458               0.000000000              -0.092710163              -0.134923867               0.000000000              -0.111529486              -0.159262276               0.000000000              -0.130348808              -0.183600685               0.000000000              -0.149168131              -0.207939094               0.000000000              -0.167987453              -0.232277503               0.000000000              -0.186806776              -0.256615912               0.000000000              -0.205626098              -0.280954320               0.000000000              -0.224445420              -0.305292729               0.000000000              -0.243264743              -0.329631138               0.000000000              -0.262084065              -0.353969547               0.000000000              -0.280903388              -0.378307956               0.000000000              -0.299722710              -0.402646365               0.000000000              -0.318542033              -0.426984773               0.000000000              -0.337361355              -0.451323182               0.000000000              -0.356180678              -0.475661591               0.000000000              -0.375000000              -0.500000000               0.000000000              -0.062695766              -0.117295528               0.000000000              -0.078308531              -0.141214558               0.000000000              -0.093921295              -0.165133587               0.000000000              -0.109534060              -0.189052617               0.000000000              -0.125146824              -0.212971646               0.000000000              -0.140759589              -0.236890676               0.000000000              -0.156372354              -0.260809705               0.000000000              -0.171985118              -0.284728735               0.000000000              -0.187597883              -0.308647764               0.000000000              -0.203210648              -0.332566794               0.000000000              -0.218823412              -0.356485823               0.000000000              -0.234436177              -0.380404853               0.000000000              -0.250048941              -0.404323882               0.000000000              -0.265661706              -0.428242912               0.000000000              -0.281274471              -0.452161941               0.000000000              -0.296887235              -0.476080971               0.000000000              -0.312500000              -0.500000000               0.000000000              -0.050896897              -0.122875978               0.000000000              -0.063340840              -0.146446229               0.000000000              -0.075784784              -0.170016481               0.000000000              -0.088228728              -0.193586732               0.000000000              -0.100672672              -0.217156983               0.000000000              -0.113116616              -0.240727235               0.000000000              -0.125560560              -0.264297486               0.000000000              -0.138004504              -0.287867738               0.000000000              -0.150448448              -0.311437989               0.000000000              -0.162892392              -0.335008240               0.000000000              -0.175336336              -0.358578492               0.000000000              -0.187780280              -0.382148743               0.000000000              -0.200224224              -0.405718994               0.000000000              -0.212668168              -0.429289246               0.000000000              -0.225112112              -0.452859497               0.000000000              -0.237556056              -0.476429749               0.000000000              -0.250000000              -0.500000000               0.000000000              -0.038607862              -0.127273065               0.000000000              -0.047913621              -0.150568498               0.000000000              -0.057219379              -0.173863932               0.000000000              -0.066525138              -0.197159365               0.000000000              -0.075830897              -0.220454798               0.000000000              -0.085136655              -0.243750232               0.000000000              -0.094442414              -0.267045665               0.000000000              -0.103748172              -0.290341099               0.000000000              -0.113053931              -0.313636532               0.000000000              -0.122359690              -0.336931966               0.000000000              -0.131665448              -0.360227399               0.000000000              -0.140971207              -0.383522833               0.000000000              -0.150276966              -0.406818266               0.000000000              -0.159582724              -0.430113700               0.000000000              -0.168888483              -0.453409133               0.000000000              -0.178194241              -0.476704567               0.000000000              -0.187500000              -0.500000000               0.000000000              -0.025947013              -0.130444442               0.000000000              -0.032137825              -0.153541665               0.000000000              -0.038328636              -0.176638887               0.000000000              -0.044519448              -0.199736109               0.000000000              -0.050710260              -0.222833332               0.000000000              -0.056901071              -0.245930554               0.000000000              -0.063091883              -0.269027776               0.000000000              -0.069282695              -0.292124999               0.000000000              -0.075473506              -0.315222221               0.000000000              -0.081664318              -0.338319444               0.000000000              -0.087855130              -0.361416666               0.000000000              -0.094045942              -0.384513888               0.000000000              -0.100236753              -0.407611111               0.000000000              -0.106427565              -0.430708333               0.000000000              -0.112618377              -0.453805555               0.000000000              -0.118809188              -0.476902778               0.000000000              -0.125000000              -0.500000000               0.000000000              -0.013036280              -0.132359569               0.000000000              -0.016127762              -0.155337096               0.000000000              -0.019219245              -0.178314623               0.000000000              -0.022310727              -0.201292150               0.000000000              -0.025402210              -0.224269676               0.000000000              -0.028493692              -0.247247203               0.000000000              -0.031585175              -0.270224730               0.000000000              -0.034676657              -0.293202257               0.000000000              -0.037768140              -0.316179784               0.000000000              -0.040859622              -0.339157311               0.000000000              -0.043951105              -0.362134838               0.000000000              -0.047042587              -0.385112365               0.000000000              -0.050134070              -0.408089892               0.000000000              -0.053225552              -0.431067419               0.000000000              -0.056317035              -0.454044946               0.000000000              -0.059408517              -0.477022473               0.000000000              -0.062500000              -0.500000000               0.000000000               0.000000000              -0.133000000               0.000000000               0.000000000              -0.155937500               0.000000000               0.000000000              -0.178875000               0.000000000               0.000000000              -0.201812500               0.000000000               0.000000000              -0.224750000               0.000000000               0.000000000              -0.247687500               0.000000000               0.000000000              -0.270625000               0.000000000               0.000000000              -0.293562500               0.000000000               0.000000000              -0.316500000               0.000000000               0.000000000              -0.339437500               0.000000000               0.000000000              -0.362375000               0.000000000               0.000000000              -0.385312500               0.000000000               0.000000000              -0.408250000               0.000000000               0.000000000              -0.431187500               0.000000000               0.000000000              -0.454125000               0.000000000               0.000000000              -0.477062500               0.000000000               0.000000000              -0.500000000               0.000000000              -0.133000000               0.000000000               0.000000000              -0.155937500               0.000000000               0.000000000              -0.178875000               0.000000000               0.000000000              -0.201812500               0.000000000               0.000000000              -0.224750000               0.000000000               0.000000000              -0.247687500               0.000000000               0.000000000              -0.270625000               0.000000000               0.000000000              -0.293562500               0.000000000               0.000000000              -0.316500000               0.000000000               0.000000000              -0.339437500               0.000000000               0.000000000              -0.362375000               0.000000000               0.000000000              -0.385312500               0.000000000               0.000000000              -0.408250000               0.000000000               0.000000000              -0.431187500               0.000000000               0.000000000              -0.454125000               0.000000000               0.000000000              -0.477062500               0.000000000               0.000000000              -0.500000000               0.000000000               0.000000000              -0.132359569               0.013036280               0.000000000              -0.155337096               0.016127762               0.000000000              -0.178314623               0.019219245               0.000000000              -0.201292150               0.022310727               0.000000000              -0.224269676               0.025402210               0.000000000              -0.247247203               0.028493692               0.000000000              -0.270224730               0.031585175               0.000000000              -0.293202257               0.034676657               0.000000000              -0.316179784               0.037768140               0.000000000              -0.339157311               0.040859622               0.000000000              -0.362134838               0.043951105               0.000000000              -0.385112365               0.047042587               0.000000000              -0.408089892               0.050134070               0.000000000              -0.431067419               0.053225552               0.000000000              -0.454044946               0.056317035               0.000000000              -0.477022473               0.059408517               0.000000000              -0.500000000               0.062500000               0.000000000              -0.130444442               0.025947013               0.000000000              -0.153541665               0.032137825               0.000000000              -0.176638887               0.038328636               0.000000000              -0.199736109               0.044519448               0.000000000              -0.222833332               0.050710260               0.000000000              -0.245930554               0.056901071               0.000000000              -0.269027776               0.063091883               0.000000000              -0.292124999               0.069282695               0.000000000              -0.315222221               0.075473506               0.000000000              -0.338319444               0.081664318               0.000000000              -0.361416666               0.087855130               0.000000000              -0.384513888               0.094045942               0.000000000              -0.407611111               0.100236753               0.000000000              -0.430708333               0.106427565               0.000000000              -0.453805555               0.112618377               0.000000000              -0.476902778               0.118809188               0.000000000              -0.500000000               0.125000000               0.000000000              -0.127273065               0.038607862               0.000000000              -0.150568498               0.047913621               0.000000000              -0.173863932               0.057219379               0.000000000              -0.197159365               0.066525138               0.000000000              -0.220454798               0.075830897               0.000000000              -0.243750232               0.085136655               0.000000000              -0.267045665               0.094442414               0.000000000              -0.290341099               0.103748172               0.000000000              -0.313636532               0.113053931               0.000000000              -0.336931966               0.122359690               0.000000000              -0.360227399               0.131665448               0.000000000              -0.383522833               0.140971207               0.000000000              -0.406818266               0.150276966               0.000000000              -0.430113700               0.159582724               0.000000000              -0.453409133               0.168888483               0.000000000              -0.476704567               0.178194241               0.000000000              -0.500000000               0.187500000               0.000000000              -0.122875978               0.050896897               0.000000000              -0.146446229               0.063340840               0.000000000              -0.170016481               0.075784784               0.000000000              -0.193586732               0.088228728               0.000000000              -0.217156983               0.100672672               0.000000000              -0.240727235               0.113116616               0.000000000              -0.264297486               0.125560560               0.000000000              -0.287867738               0.138004504               0.000000000              -0.311437989               0.150448448               0.000000000              -0.335008240               0.162892392               0.000000000              -0.358578492               0.175336336               0.000000000              -0.382148743               0.187780280               0.000000000              -0.405718994               0.200224224               0.000000000              -0.429289246               0.212668168               0.000000000              -0.452859497               0.225112112               0.000000000              -0.476429749               0.237556056               0.000000000              -0.500000000               0.250000000               0.000000000              -0.117295528               0.062695766               0.000000000              -0.141214558               0.078308531               0.000000000              -0.165133587               0.093921295               0.000000000              -0.189052617               0.109534060               0.000000000              -0.212971646               0.125146824               0.000000000              -0.236890676               0.140759589               0.000000000              -0.260809705               0.156372354               0.000000000              -0.284728735               0.171985118               0.000000000              -0.308647764               0.187597883               0.000000000              -0.332566794               0.203210648               0.000000000              -0.356485823               0.218823412               0.000000000              -0.380404853               0.234436177               0.000000000              -0.404323882               0.250048941               0.000000000              -0.428242912               0.265661706               0.000000000              -0.452161941               0.281274471               0.000000000              -0.476080971               0.296887235               0.000000000              -0.500000000               0.312500000               0.000000000              -0.110585458               0.073890841               0.000000000              -0.134923867               0.092710163               0.000000000              -0.159262276               0.111529486               0.000000000              -0.183600685               0.130348808               0.000000000              -0.207939094               0.149168131               0.000000000              -0.232277503               0.167987453               0.000000000              -0.256615912               0.186806776               0.000000000              -0.280954320               0.205626098               0.000000000              -0.305292729               0.224445420               0.000000000              -0.329631138               0.243264743               0.000000000              -0.353969547               0.262084065               0.000000000              -0.378307956               0.280903388               0.000000000              -0.402646365               0.299722710               0.000000000              -0.426984773               0.318542033               0.000000000              -0.451323182               0.337361355               0.000000000              -0.475661591               0.356180678               0.000000000              -0.500000000               0.375000000               0.000000000              -0.102810390               0.084374307               0.000000000              -0.127634741               0.106444663               0.000000000              -0.152459092               0.128515018               0.000000000              -0.177283442               0.150585374               0.000000000              -0.202107793               0.172655730               0.000000000              -0.226932143               0.194726086               0.000000000              -0.251756494               0.216796442               0.000000000              -0.276580845               0.238866798               0.000000000              -0.301405195               0.260937153               0.000000000              -0.326229546               0.283007509               0.000000000              -0.351053896               0.305077865               0.000000000              -0.375878247               0.327148221               0.000000000              -0.400702598               0.349218577               0.000000000              -0.425526948               0.371288933               0.000000000              -0.450351299               0.393359288               0.000000000              -0.475175649               0.415429644               0.000000000              -0.500000000               0.437500000               0.000000000              -0.094045202               0.094045202               0.000000000              -0.119417377               0.119417377               0.000000000              -0.144789552               0.144789552               0.000000000              -0.170161727               0.170161727               0.000000000              -0.195533901               0.195533901               0.000000000              -0.220906076               0.220906076               0.000000000              -0.246278251               0.246278251               0.000000000              -0.271650426               0.271650426               0.000000000              -0.297022601               0.297022601               0.000000000              -0.322394776               0.322394776               0.000000000              -0.347766951               0.347766951               0.000000000              -0.373139126               0.373139126               0.000000000              -0.398511300               0.398511300               0.000000000              -0.423883475               0.423883475               0.000000000              -0.449255650               0.449255650               0.000000000              -0.474627825               0.474627825               0.000000000              -0.500000000               0.500000000               0.000000000              -0.084374307               0.102810390               0.000000000              -0.106444663               0.127634741               0.000000000              -0.128515018               0.152459092               0.000000000              -0.150585374               0.177283442               0.000000000              -0.172655730               0.202107793               0.000000000              -0.194726086               0.226932143               0.000000000              -0.216796442               0.251756494               0.000000000              -0.238866798               0.276580845               0.000000000              -0.260937153               0.301405195               0.000000000              -0.283007509               0.326229546               0.000000000              -0.305077865               0.351053896               0.000000000              -0.327148221               0.375878247               0.000000000              -0.349218577               0.400702598               0.000000000              -0.371288933               0.425526948               0.000000000              -0.393359288               0.450351299               0.000000000              -0.415429644               0.475175649               0.000000000              -0.437500000               0.500000000               0.000000000              -0.073890841               0.110585458               0.000000000              -0.092710163               0.134923867               0.000000000              -0.111529486               0.159262276               0.000000000              -0.130348808               0.183600685               0.000000000              -0.149168131               0.207939094               0.000000000              -0.167987453               0.232277503               0.000000000              -0.186806776               0.256615912               0.000000000              -0.205626098               0.280954320               0.000000000              -0.224445420               0.305292729               0.000000000              -0.243264743               0.329631138               0.000000000              -0.262084065               0.353969547               0.000000000              -0.280903388               0.378307956               0.000000000              -0.299722710               0.402646365               0.000000000              -0.318542033               0.426984773               0.000000000              -0.337361355               0.451323182               0.000000000              -0.356180678               0.475661591               0.000000000              -0.375000000               0.500000000               0.000000000              -0.062695766               0.117295528               0.000000000              -0.078308531               0.141214558               0.000000000              -0.093921295               0.165133587               0.000000000              -0.109534060               0.189052617               0.000000000              -0.125146824               0.212971646               0.000000000              -0.140759589               0.236890676               0.000000000              -0.156372354               0.260809705               0.000000000              -0.171985118               0.284728735               0.000000000              -0.187597883               0.308647764               0.000000000              -0.203210648               0.332566794               0.000000000              -0.218823412               0.356485823               0.000000000              -0.234436177               0.380404853               0.000000000              -0.250048941               0.404323882               0.000000000              -0.265661706               0.428242912               0.000000000              -0.281274471               0.452161941               0.000000000              -0.296887235               0.476080971               0.000000000              -0.312500000               0.500000000               0.000000000              -0.050896897               0.122875978               0.000000000              -0.063340840               0.146446229               0.000000000              -0.075784784               0.170016481               0.000000000              -0.088228728               0.193586732               0.000000000              -0.100672672               0.217156983               0.000000000              -0.113116616               0.240727235               0.000000000              -0.125560560               0.264297486               0.000000000              -0.138004504               0.287867738               0.000000000              -0.150448448               0.311437989               0.000000000              -0.162892392               0.335008240               0.000000000              -0.175336336               0.358578492               0.000000000              -0.187780280               0.382148743               0.000000000              -0.200224224               0.405718994               0.000000000              -0.212668168               0.429289246               0.000000000              -0.225112112               0.452859497               0.000000000              -0.237556056               0.476429749               0.000000000              -0.250000000               0.500000000               0.000000000              -0.038607862               0.127273065               0.000000000              -0.047913621               0.150568498               0.000000000              -0.057219379               0.173863932               0.000000000              -0.066525138               0.197159365               0.000000000              -0.075830897               0.220454798               0.000000000              -0.085136655               0.243750232               0.000000000              -0.094442414               0.267045665               0.000000000              -0.103748172               0.290341099               0.000000000              -0.113053931               0.313636532               0.000000000              -0.122359690               0.336931966               0.000000000              -0.131665448               0.360227399               0.000000000              -0.140971207               0.383522833               0.000000000              -0.150276966               0.406818266               0.000000000              -0.159582724               0.430113700               0.000000000              -0.168888483               0.453409133               0.000000000              -0.178194241               0.476704567               0.000000000              -0.187500000               0.500000000               0.000000000              -0.025947013               0.130444442               0.000000000              -0.032137825               0.153541665               0.000000000              -0.038328636               0.176638887               0.000000000              -0.044519448               0.199736109               0.000000000              -0.050710260               0.222833332               0.000000000              -0.056901071               0.245930554               0.000000000              -0.063091883               0.269027776               0.000000000              -0.069282695               0.292124999               0.000000000              -0.075473506               0.315222221               0.000000000              -0.081664318               0.338319444               0.000000000              -0.087855130               0.361416666               0.000000000              -0.094045942               0.384513888               0.000000000              -0.100236753               0.407611111               0.000000000              -0.106427565               0.430708333               0.000000000              -0.112618377               0.453805555               0.000000000              -0.118809188               0.476902778               0.000000000              -0.125000000               0.500000000               0.000000000              -0.013036280               0.132359569               0.000000000              -0.016127762               0.155337096               0.000000000              -0.019219245               0.178314623               0.000000000              -0.022310727               0.201292150               0.000000000              -0.025402210               0.224269676               0.000000000              -0.028493692               0.247247203               0.000000000              -0.031585175               0.270224730               0.000000000              -0.034676657               0.293202257               0.000000000              -0.037768140               0.316179784               0.000000000              -0.040859622               0.339157311               0.000000000              -0.043951105               0.362134838               0.000000000              -0.047042587               0.385112365               0.000000000              -0.050134070               0.408089892               0.000000000              -0.053225552               0.431067419               0.000000000              -0.056317035               0.454044946               0.000000000              -0.059408517               0.477022473               0.000000000              -0.062500000               0.500000000               0.000000000               0.000000000               0.133000000               0.000000000               0.000000000               0.155937500               0.000000000               0.000000000               0.178875000               0.000000000               0.000000000               0.201812500               0.000000000               0.000000000               0.224750000               0.000000000               0.000000000               0.247687500               0.000000000               0.000000000               0.270625000               0.000000000               0.000000000               0.293562500               0.000000000               0.000000000               0.316500000               0.000000000               0.000000000               0.339437500               0.000000000               0.000000000               0.362375000               0.000000000               0.000000000               0.385312500               0.000000000               0.000000000               0.408250000               0.000000000               0.000000000               0.431187500               0.000000000               0.000000000               0.454125000               0.000000000               0.000000000               0.477062500               0.000000000               0.000000000               0.500000000               0.000000000 </DataArray>
</Points>
<Cells>
<DataArray type="Int32"                                    Name="connectivity"                                                      NumberOfComponents=" 1" format="ascii">
         0          1         18         17          1          2         19         18          2          3         20         19          3          4         21         20          4          5         22         21          5          6         23         22          6          7         24         23          7          8         25         24          8          9         26         25          9         10         27         26         10         11         28         27         11         12         29         28         12         13         30         29         13         14         31         30         14         15         32         31         15         16         33         32         17         18         35         34         18         19         36         35         19         20         37         36         20         21         38         37         21         22         39         38         22         23         40         39         23         24         41         40         24         25         42         41         25         26         43         42         26         27         44         43         27         28         45         44         28         29         46         45         29         30         47         46         30         31         48         47         31         32         49         48         32         33         50         49         34         35         52         51         35         36         53         52         36         37         54         53         37         38         55         54         38         39         56         55         39         40         57         56         40         41         58         57         41         42         59         58         42         43         60         59         43         44         61         60         44         45         62         61         45         46         63         62         46         47         64         63         47         48         65         64         48         49         66         65         49         50         67         66         51         52         69         68         52         53         70         69         53         54         71         70         54         55         72         71         55         56         73         72         56         57         74         73         57         58         75         74         58         59         76         75         59         60         77         76         60         61         78         77         61         62         79         78         62         63         80         79         63         64         81         80         64         65         82         81         65         66         83         82         66         67         84         83         68         69         86         85         69         70         87         86         70         71         88         87         71         72         89         88         72         73         90         89         73         74         91         90         74         75         92         91         75         76         93         92         76         77         94         93         77         78         95         94         78         79         96         95         79         80         97         96         80         81         98         97         81         82         99         98         82         83        100         99         83         84        101        100         85         86        103        102         86         87        104        103         87         88        105        104         88         89        106        105         89         90        107        106         90         91        108        107         91         92        109        108         92         93        110        109         93         94        111        110         94         95        112        111         95         96        113        112         96         97        114        113         97         98        115        114         98         99        116        115         99        100        117        116        100        101        118        117        102        103        120        119        103        104        121        120        104        105        122        121        105        106        123        122        106        107        124        123        107        108        125        124        108        109        126        125        109        110        127        126        110        111        128        127        111        112        129        128        112        113        130        129        113        114        131        130        114        115        132        131        115        116        133        132        116        117        134        133        117        118        135        134        119        120        137        136        120        121        138        137        121        122        139        138        122        123        140        139        123        124        141        140        124        125        142        141        125        126        143        142        126        127        144        143        127        128        145        144        128        129        146        145        129        130        147        146        130        131        148        147        131        132        149        148        132        133        150        149        133        134        151        150        134        135        152        151        136        137        154        153        137        138        155        154        138        139        156        155        139        140        157        156        140        141        158        157        141        142        159        158        142        143        160        159        143        144        161        160        144        145        162        161        145        146        163        162        146        147        164        163        147        148        165        164        148        149        166        165        149        150        167        166        150        151        168        167        151        152        169        168        153        154        171        170        154        155        172        171        155        156        173        172        156        157        174        173        157        158        175        174        158        159        176        175        159        160        177        176        160        161        178        177        161        162        179        178        162        163        180        179        163        164        181        180        164        165        182        181        165        166        183        182        166        167        184        183        167        168        185        184        168        169        186        185        170        171        188        187        171        172        189        188        172        173        190        189        173        174        191        190        174        175        192        191        175        176        193        192        176        177        194        193        177        178        195        194        178        179        196        195        179        180        197        196        180        181        198        197        181        182        199        198        182        183        200        199        183        184        201        200        184        185        202        201        185        186        203        202        187        188        205        204        188        189        206        205        189        190        207        206        190        191        208        207        191        192        209        208        192        193        210        209        193        194        211        210        194        195        212        211        195        196        213        212        196        197        214        213        197        198        215        214        198        199        216        215        199        200        217        216        200        201        218        217        201        202        219        218        202        203        220        219        204        205        222        221        205        206        223        222        206        207        224        223        207        208        225        224        208        209        226        225        209        210        227        226        210        211        228        227        211        212        229        228        212        213        230        229        213        214        231        230        214        215        232        231        215        216        233        232        216        217        234        233        217        218        235        234        218        219        236        235        219        220        237        236        221        222        239        238        222        223        240        239        223        224        241        240        224        225        242        241        225        226        243        242        226        227        244        243        227        228        245        244        228        229        246        245        229        230        247        246        230        231        248        247        231        232        249        248        232        233        250        249        233        234        251        250        234        235        252        251        235        236        253        252        236        237        254        253        238        239        256        255        239        240        257        256        240        241        258        257        241        242        259        258        242        243        260        259        243        244        261        260        244        245        262        261        245        246        263        262        246        247        264        263        247        248        265        264        248        249        266        265        249        250        267        266        250        251        268        267        251        252        269        268        252        253        270        269        253        254        271        270        255        256        273        272        256        257        274        273        257        258        275        274        258        259        276        275        259        260        277        276        260        261        278        277        261        262        279        278        262        263        280        279        263        264        281        280        264        265        282        281        265        266        283        282        266        267        284        283        267        268        285        284        268        269        286        285        269        270        287        286        270        271        288        287        306        307          1          0        307        308          2          1        308        309          3          2        309        310          4          3        310        311          5          4        311        312          6          5        312        313          7          6        313        314          8          7        314        315          9          8        315        316         10          9        316        317         11         10        317        318         12         11        318        319         13         12        319        320         14         13        320        321         15         14        321        322         16         15        323        324        307        306        324        325        308        307        325        326        309        308        326        327        310        309        327        328        311        310        328        329        312        311        329        330        313        312        330        331        314        313        331        332        315        314        332        333        316        315        333        334        317        316        334        335        318        317        335        336        319        318        336        337        320        319        337        338        321        320        338        339        322        321        340        341        324        323        341        342        325        324        342        343        326        325        343        344        327        326        344        345        328        327        345        346        329        328        346        347        330        329        347        348        331        330        348        349        332        331        349        350        333        332        350        351        334        333        351        352        335        334        352        353        336        335        353        354        337        336        354        355        338        337        355        356        339        338        357        358        341        340        358        359        342        341        359        360        343        342        360        361        344        343        361        362        345        344        362        363        346        345        363        364        347        346        364        365        348        347        365        366        349        348        366        367        350        349        367        368        351        350        368        369        352        351        369        370        353        352        370        371        354        353        371        372        355        354        372        373        356        355        374        375        358        357        375        376        359        358        376        377        360        359        377        378        361        360        378        379        362        361        379        380        363        362        380        381        364        363        381        382        365        364        382        383        366        365        383        384        367        366        384        385        368        367        385        386        369        368        386        387        370        369        387        388        371        370        388        389        372        371        389        390        373        372        391        392        375        374        392        393        376        375        393        394        377        376        394        395        378        377        395        396        379        378        396        397        380        379        397        398        381        380        398        399        382        381        399        400        383        382        400        401        384        383        401        402        385        384        402        403        386        385        403        404        387        386        404        405        388        387        405        406        389        388        406        407        390        389        408        409        392        391        409        410        393        392        410        411        394        393        411        412        395        394        412        413        396        395        413        414        397        396        414        415        398        397        415        416        399        398        416        417        400        399        417        418        401        400        418        419        402        401        419        420        403        402        420        421        404        403        421        422        405        404        422        423        406        405        423        424        407        406        425        426        409        408        426        427        410        409        427        428        411        410        428        429        412        411        429        430        413        412        430        431        414        413        431        432        415        414        432        433        416        415        433        434        417        416        434        435        418        417        435        436        419        418        436        437        420        419        437        438        421        420        438        439        422        421        439        440        423        422        440        441        424        423        442        443        426        425        443        444        427        426        444        445        428        427        445        446        429        428        446        447        430        429        447        448        431        430        448        449        432        431        449        450        433        432        450        451        434        433        451        452        435        434        452        453        436        435        453        454        437        436        454        455        438        437        455        456        439        438        456        457        440        439        457        458        441        440        459        460        443        442        460        461        444        443        461        462        445        444        462        463        446        445        463        464        447        446        464        465        448        447        465        466        449        448        466        467        450        449        467        468        451        450        468        469        452        451        469        470        453        452        470        471        454        453        471        472        455        454        472        473        456        455        473        474        457        456        474        475        458        457        476        477        460        459        477        478        461        460        478        479        462        461        479        480        463        462        480        481        464        463        481        482        465        464        482        483        466        465        483        484        467        466        484        485        468        467        485        486        469        468        486        487        470        469        487        488        471        470        488        489        472        471        489        490        473        472        490        491        474        473        491        492        475        474        493        494        477        476        494        495        478        477        495        496        479        478        496        497        480        479        497        498        481        480        498        499        482        481        499        500        483        482        500        501        484        483        501        502        485        484        502        503        486        485        503        504        487        486        504        505        488        487        505        506        489        488        506        507        490        489        507        508        491        490        508        509        492        491        510        511        494        493        511        512        495        494        512        513        496        495        513        514        497        496        514        515        498        497        515        516        499        498        516        517        500        499        517        518        501        500        518        519        502        501        519        520        503        502        520        521        504        503        521        522        505        504        522        523        506        505        523        524        507        506        524        525        508        507        525        526        509        508        527        528        511        510        528        529        512        511        529        530        513        512        530        531        514        513        531        532        515        514        532        533        516        515        533        534        517        516        534        535        518        517        535        536        519        518        536        537        520        519        537        538        521        520        538        539        522        521        539        540        523        522        540        541        524        523        541        542        525        524        542        543        526        525        544        545        528        527        545        546        529        528        546        547        530        529        547        548        531        530        548        549        532        531        549        550        533        532        550        551        534        533        551        552        535        534        552        553        536        535        553        554        537        536        554        555        538        537        555        556        539        538        556        557        540        539        557        558        541        540        558        559        542        541        559        560        543        542        561        562        545        544        562        563        546        545        563        564        547        546        564        565        548        547        565        566        549        548        566        567        550        549        567        568        551        550        568        569        552        551        569        570        553        552        570        571        554        553        571        572        555        554        572        573        556        555        573        574        557        556        574        575        558        557        575        576        559        558        576        577        560        559        578        579        596        595        579        580        597        596        580        581        598        597        581        582        599        598        582        583        600        599        583        584        601        600        584        585        602        601        585        586        603        602        586        587        604        603        587        588        605        604        588        589        606        605        589        590        607        606        590        591        608        607        591        592        609        608        592        593        610        609        593        594        611        610        595        596        613        612        596        597        614        613        597        598        615        614        598        599        616        615        599        600        617        616        600        601        618        617        601        602        619        618        602        603        620        619        603        604        621        620        604        605        622        621        605        606        623        622        606        607        624        623        607        608        625        624        608        609        626        625        609        610        627        626        610        611        628        627        612        613        630        629        613        614        631        630        614        615        632        631        615        616        633        632        616        617        634        633        617        618        635        634        618        619        636        635        619        620        637        636        620        621        638        637        621        622        639        638        622        623        640        639        623        624        641        640        624        625        642        641        625        626        643        642        626        627        644        643        627        628        645        644        629        630        647        646        630        631        648        647        631        632        649        648        632        633        650        649        633        634        651        650        634        635        652        651        635        636        653        652        636        637        654        653        637        638        655        654        638        639        656        655        639        640        657        656        640        641        658        657        641        642        659        658        642        643        660        659        643        644        661        660        644        645        662        661        646        647        664        663        647        648        665        664        648        649        666        665        649        650        667        666        650        651        668        667        651        652        669        668        652        653        670        669        653        654        671        670        654        655        672        671        655        656        673        672        656        657        674        673        657        658        675        674        658        659        676        675        659        660        677        676        660        661        678        677        661        662        679        678        663        664        681        680        664        665        682        681        665        666        683        682        666        667        684        683        667        668        685        684        668        669        686        685        669        670        687        686        670        671        688        687        671        672        689        688        672        673        690        689        673        674        691        690        674        675        692        691        675        676        693        692        676        677        694        693        677        678        695        694        678        679        696        695        680        681        698        697        681        682        699        698        682        683        700        699        683        684        701        700        684        685        702        701        685        686        703        702        686        687        704        703        687        688        705        704        688        689        706        705        689        690        707        706        690        691        708        707        691        692        709        708        692        693        710        709        693        694        711        710        694        695        712        711        695        696        713        712        697        698        715        714        698        699        716        715        699        700        717        716        700        701        718        717        701        702        719        718        702        703        720        719        703        704        721        720        704        705        722        721        705        706        723        722        706        707        724        723        707        708        725        724        708        709        726        725        709        710        727        726        710        711        728        727        711        712        729        728        712        713        730        729        714        715        732        731        715        716        733        732        716        717        734        733        717        718        735        734        718        719        736        735        719        720        737        736        720        721        738        737        721        722        739        738        722        723        740        739        723        724        741        740        724        725        742        741        725        726        743        742        726        727        744        743        727        728        745        744        728        729        746        745        729        730        747        746        731        732        749        748        732        733        750        749        733        734        751        750        734        735        752        751        735        736        753        752        736        737        754        753        737        738        755        754        738        739        756        755        739        740        757        756        740        741        758        757        741        742        759        758        742        743        760        759        743        744        761        760        744        745        762        761        745        746        763        762        746        747        764        763        748        749        766        765        749        750        767        766        750        751        768        767        751        752        769        768        752        753        770        769        753        754        771        770        754        755        772        771        755        756        773        772        756        757        774        773        757        758        775        774        758        759        776        775        759        760        777        776        760        761        778        777        761        762        779        778        762        763        780        779        763        764        781        780        765        766        783        782        766        767        784        783        767        768        785        784        768        769        786        785        769        770        787        786        770        771        788        787        771        772        789        788        772        773        790        789        773        774        791        790        774        775        792        791        775        776        793        792        776        777        794        793        777        778        795        794        778        779        796        795        779        780        797        796        780        781        798        797        782        783        800        799        783        784        801        800        784        785        802        801        785        786        803        802        786        787        804        803        787        788        805        804        788        789        806        805        789        790        807        806        790        791        808        807        791        792        809        808        792        793        810        809        793        794        811        810        794        795        812        811        795        796        813        812        796        797        814        813        797        798        815        814        799        800        817        816        800        801        818        817        801        802        819        818        802        803        820        819        803        804        821        820        804        805        822        821        805        806        823        822        806        807        824        823        807        808        825        824        808        809        826        825        809        810        827        826        810        811        828        827        811        812        829        828        812        813        830        829        813        814        831        830        814        815        832        831        816        817        834        833        817        818        835        834        818        819        836        835        819        820        837        836        820        821        838        837        821        822        839        838        822        823        840        839        823        824        841        840        824        825        842        841        825        826        843        842        826        827        844        843        827        828        845        844        828        829        846        845        829        830        847        846        830        831        848        847        831        832        849        848        833        834        562        561        834        835        563        562        835        836        564        563        836        837        565        564        837        838        566        565        838        839        567        566        839        840        568        567        840        841        569        568        841        842        570        569        842        843        571        570        843        844        572        571        844        845        573        572        845        846        574        573        846        847        575        574        847        848        576        575        848        849        577        576        884        885        579        578        885        886        580        579        886        887        581        580        887        888        582        581        888        889        583        582        889        890        584        583        890        891        585        584        891        892        586        585        892        893        587        586        893        894        588        587        894        895        589        588        895        896        590        589        896        897        591        590        897        898        592        591        898        899        593        592        899        900        594        593        901        902        885        884        902        903        886        885        903        904        887        886        904        905        888        887        905        906        889        888        906        907        890        889        907        908        891        890        908        909        892        891        909        910        893        892        910        911        894        893        911        912        895        894        912        913        896        895        913        914        897        896        914        915        898        897        915        916        899        898        916        917        900        899        918        919        902        901        919        920        903        902        920        921        904        903        921        922        905        904        922        923        906        905        923        924        907        906        924        925        908        907        925        926        909        908        926        927        910        909        927        928        911        910        928        929        912        911        929        930        913        912        930        931        914        913        931        932        915        914        932        933        916        915        933        934        917        916        935        936        919        918        936        937        920        919        937        938        921        920        938        939        922        921        939        940        923        922        940        941        924        923        941        942        925        924        942        943        926        925        943        944        927        926        944        945        928        927        945        946        929        928        946        947        930        929        947        948        931        930        948        949        932        931        949        950        933        932        950        951        934        933        952        953        936        935        953        954        937        936        954        955        938        937        955        956        939        938        956        957        940        939        957        958        941        940        958        959        942        941        959        960        943        942        960        961        944        943        961        962        945        944        962        963        946        945        963        964        947        946        964        965        948        947        965        966        949        948        966        967        950        949        967        968        951        950        969        970        953        952        970        971        954        953        971        972        955        954        972        973        956        955        973        974        957        956        974        975        958        957        975        976        959        958        976        977        960        959        977        978        961        960        978        979        962        961        979        980        963        962        980        981        964        963        981        982        965        964        982        983        966        965        983        984        967        966        984        985        968        967        986        987        970        969        987        988        971        970        988        989        972        971        989        990        973        972        990        991        974        973        991        992        975        974        992        993        976        975        993        994        977        976        994        995        978        977        995        996        979        978        996        997        980        979        997        998        981        980        998        999        982        981        999       1000        983        982       1000       1001        984        983       1001       1002        985        984       1003       1004        987        986       1004       1005        988        987       1005       1006        989        988       1006       1007        990        989       1007       1008        991        990       1008       1009        992        991       1009       1010        993        992       1010       1011        994        993       1011       1012        995        994       1012       1013        996        995       1013       1014        997        996       1014       1015        998        997       1015       1016        999        998       1016       1017       1000        999       1017       1018       1001       1000       1018       1019       1002       1001       1020       1021       1004       1003       1021       1022       1005       1004       1022       1023       1006       1005       1023       1024       1007       1006       1024       1025       1008       1007       1025       1026       1009       1008       1026       1027       1010       1009       1027       1028       1011       1010       1028       1029       1012       1011       1029       1030       1013       1012       1030       1031       1014       1013       1031       1032       1015       1014       1032       1033       1016       1015       1033       1034       1017       1016       1034       1035       1018       1017       1035       1036       1019       1018       1037       1038       1021       1020       1038       1039       1022       1021       1039       1040       1023       1022       1040       1041       1024       1023       1041       1042       1025       1024       1042       1043       1026       1025       1043       1044       1027       1026       1044       1045       1028       1027       1045       1046       1029       1028       1046       1047       1030       1029       1047       1048       1031       1030       1048       1049       1032       1031       1049       1050       1033       1032       1050       1051       1034       1033       1051       1052       1035       1034       1052       1053       1036       1035       1054       1055       1038       1037       1055       1056       1039       1038       1056       1057       1040       1039       1057       1058       1041       1040       1058       1059       1042       1041       1059       1060       1043       1042       1060       1061       1044       1043       1061       1062       1045       1044       1062       1063       1046       1045       1063       1064       1047       1046       1064       1065       1048       1047       1065       1066       1049       1048       1066       1067       1050       1049       1067       1068       1051       1050       1068       1069       1052       1051       1069       1070       1053       1052       1071       1072       1055       1054       1072       1073       1056       1055       1073       1074       1057       1056       1074       1075       1058       1057       1075       1076       1059       1058       1076       1077       1060       1059       1077       1078       1061       1060       1078       1079       1062       1061       1079       1080       1063       1062       1080       1081       1064       1063       1081       1082       1065       1064       1082       1083       1066       1065       1083       1084       1067       1066       1084       1085       1068       1067       1085       1086       1069       1068       1086       1087       1070       1069       1088       1089       1072       1071       1089       1090       1073       1072       1090       1091       1074       1073       1091       1092       1075       1074       1092       1093       1076       1075       1093       1094       1077       1076       1094       1095       1078       1077       1095       1096       1079       1078       1096       1097       1080       1079       1097       1098       1081       1080       1098       1099       1082       1081       1099       1100       1083       1082       1100       1101       1084       1083       1101       1102       1085       1084       1102       1103       1086       1085       1103       1104       1087       1086       1105       1106       1089       1088       1106       1107       1090       1089       1107       1108       1091       1090       1108       1109       1092       1091       1109       1110       1093       1092       1110       1111       1094       1093       1111       1112       1095       1094       1112       1113       1096       1095       1113       1114       1097       1096       1114       1115       1098       1097       1115       1116       1099       1098       1116       1117       1100       1099       1117       1118       1101       1100       1118       1119       1102       1101       1119       1120       1103       1102       1120       1121       1104       1103       1122       1123       1106       1105       1123       1124       1107       1106       1124       1125       1108       1107       1125       1126       1109       1108       1126       1127       1110       1109       1127       1128       1111       1110       1128       1129       1112       1111       1129       1130       1113       1112       1130       1131       1114       1113       1131       1132       1115       1114       1132       1133       1116       1115       1133       1134       1117       1116       1134       1135       1118       1117       1135       1136       1119       1118       1136       1137       1120       1119       1137       1138       1121       1120        272        273       1123       1122        273        274       1124       1123        274        275       1125       1124        275        276       1126       1125        276        277       1127       1126        277        278       1128       1127        278        279       1129       1128        279        280       1130       1129        280        281       1131       1130        281        282       1132       1131        282        283       1133       1132        283        284       1134       1133        284        285       1135       1134        285        286       1136       1135        286        287       1137       1136        287        288       1138       1137 </DataArray>
<DataArray type="Int32"                                    Name="offsets"                                                      NumberOfComponents=" 1" format="ascii">
         4          8         12         16         20         24         28         32         36         40         44         48         52         56         60         64         68         72         76         80         84         88         92         96        100        104        108        112        116        120        124        128        132        136        140        144        148        152        156        160        164        168        172        176        180        184        188        192        196        200        204        208        212        216        220        224        228        232        236        240        244        248        252        256        260        264        268        272        276        280        284        288        292        296        300        304        308        312        316        320        324        328        332        336        340        344        348        352        356        360        364        368        372        376        380        384        388        392        396        400        404        408        412        416        420        424        428        432        436        440        444        448        452        456        460        464        468        472        476        480        484        488        492        496        500        504        508        512        516        520        524        528        532        536        540        544        548        552        556        560        564        568        572        576        580        584        588        592        596        600        604        608        612        616        620        624        628        632        636        640        644        648        652        656        660        664        668        672        676        680        684        688        692        696        700        704        708        712        716        720        724        728        732        736        740        744        748        752        756        760        764        768        772        776        780        784        788        792        796        800        804        808        812        816        820        824        828        832        836        840        844        848        852        856        860        864        868        872        876        880        884        888        892        896        900        904        908        912        916        920        924        928        932        936        940        944        948        952        956        960        964        968        972        976        980        984        988        992        996       1000       1004       1008       1012       1016       1020       1024       1028       1032       1036       1040       1044       1048       1052       1056       1060       1064       1068       1072       1076       1080       1084       1088       1092       1096       1100       1104       1108       1112       1116       1120       1124       1128       1132       1136       1140       1144       1148       1152       1156       1160       1164       1168       1172       1176       1180       1184       1188       1192       1196       1200       1204       1208       1212       1216       1220       1224       1228       1232       1236       1240       1244       1248       1252       1256       1260       1264       1268       1272       1276       1280       1284       1288       1292       1296       1300       1304       1308       1312       1316       1320       1324       1328       1332       1336       1340       1344       1348       1352       1356       1360       1364       1368       1372       1376       1380       1384       1388       1392       1396       1400       1404       1408       1412       1416       1420       1424       1428       1432       1436       1440       1444       1448       1452       1456       1460       1464       1468       1472       1476       1480       1484       1488       1492       1496       1500       1504       1508       1512       1516       1520       1524       1528       1532       1536       1540       1544       1548       1552       1556       1560       1564       1568       1572       1576       1580       1584       1588       1592       1596       1600       1604       1608       1612       1616       1620       1624       1628       1632       1636       1640       1644       1648       1652       1656       1660       1664       1668       1672       1676       1680       1684       1688       1692       1696       1700       1704       1708       1712       1716       1720       1724       1728       1732       1736       1740       1744       1748       1752       1756       1760       1764       1768       1772       1776       1780       1784       1788       1792       1796       1800       1804       1808       1812       1816       1820       1824       1828       1832       1836       1840       1844       1848       1852       1856       1860       1864       1868       1872       1876       1880       1884       1888       1892       1896       1900       1904       1908       1912       1916       1920       1924       1928       1932       1936       1940       1944       1948       1952       1956       1960       1964       1968       1972       1976       1980       1984       1988       1992       1996       2000       2004       2008       2012       2016       2020       2024       2028       2032       2036       2040       2044       2048       2052       2056       2060       2064       2068       2072       2076       2080       2084       2088       2092       2096       2100       2104       2108       2112       2116       2120       2124       2128       2132       2136       2140       2144       2148       2152       2156       2160       2164       2168       2172       2176       2180       2184       2188       2192       2196       2200       2204       2208       2212       2216       2220       2224       2228       2232       2236       2240       2244       2248       2252       2256       2260       2264       2268       2272       2276       2280       2284       2288       2292       2296       2300       2304       2308       2312       2316       2320       2324       2328       2332       2336       2340       2344       2348       2352       2356       2360       2364       2368       2372       2376       2380       2384       2388       2392       2396       2400       2404       2408       2412       2416       2420       2424       2428       2432       2436       2440       2444       2448       2452       2456       2460       2464       2468       2472       2476       2480       2484       2488       2492       2496       2500       2504       2508       2512       2516       2520       2524       2528       2532       2536       2540       2544       2548       2552       2556       2560       2564       2568       2572       2576       2580       2584       2588       2592       2596       2600       2604       2608       2612       2616       2620       2624       2628       2632       2636       2640       2644       2648       2652       2656       2660       2664       2668       2672       2676       2680       2684       2688       2692       2696       2700       2704       2708       2712       2716       2720       2724       2728       2732       2736       2740       2744       2748       2752       2756       2760       2764       2768       2772       2776       2780       2784       2788       2792       2796       2800       2804       2808       2812       2816       2820       2824       2828       2832       2836       2840       2844       2848       2852       2856       2860       2864       2868       2872       2876       2880       2884       2888       2892       2896       2900       2904       2908       2912       2916       2920       2924       2928       2932       2936       2940       2944       2948       2952       2956       2960       2964       2968       2972       2976       2980       2984       2988       2992       2996       3000       3004       3008       3012       3016       3020       3024       3028       3032       3036       3040       3044       3048       3052       3056       3060       3064       3068       3072       3076       3080       3084       3088       3092       3096       3100       3104       3108       3112       3116       3120       3124       3128       3132       3136       3140       3144       3148       3152       3156       3160       3164       3168       3172       3176       3180       3184       3188       3192       3196       3200       3204       3208       3212       3216       3220       3224       3228       3232       3236       3240       3244       3248       3252       3256       3260       3264       3268       3272       3276       3280       3284       3288       3292       3296       3300       3304       3308       3312       3316       3320       3324       3328       3332       3336       3340       3344       3348       3352       3356       3360       3364       3368       3372       3376       3380       3384       3388       3392       3396       3400       3404       3408       3412       3416       3420       3424       3428       3432       3436       3440       3444       3448       3452       3456       3460       3464       3468       3472       3476       3480       3484       3488       3492       3496       3500       3504       3508       3512       3516       3520       3524       3528       3532       3536       3540       3544       3548       3552       3556       3560       3564       3568       3572       3576       3580       3584       3588       3592       3596       3600       3604       3608       3612       3616       3620       3624       3628       3632       3636       3640       3644       3648       3652       3656       3660       3664       3668       3672       3676       3680       3684       3688       3692       3696       3700       3704       3708       3712       3716       3720       3724       3728       3732       3736       3740       3744       3748       3752       3756       3760       3764       3768       3772       3776       3780       3784       3788       3792       3796       3800       3804       3808       3812       3816       3820       3824       3828       3832       3836       3840       3844       3848       3852       3856       3860       3864       3868       3872       3876       3880       3884       3888       3892       3896       3900       3904       3908       3912       3916       3920       3924       3928       3932       3936       3940       3944       3948       3952       3956       3960       3964       3968       3972       3976       3980       3984       3988       3992       3996       4000       4004       4008       4012       4016       4020       4024       4028       4032       4036       4040       4044       4048       4052       4056       4060       4064       4068       4072       4076       4080       4084       4088       4092       4096 </DataArray>
<DataArray type="UInt8"                                    Name="types"                                                      NumberOfComponents=" 1" format="ascii">
         9          9          9          9          9          9          9          9          9          9          9          9          9          9          9          9          9          9          9          9          9          9          9          9          9          9          9          9          9          9          9          9          9          9          9          9          9          9          9          9          9          9          9          9          9          9          9          9          9          9          9          9          9          9          9          9          9          9          9          9          9          9          9          9          9          9          9          9          9          9          9          9          9          9          9          9          9          9          9          9          9          9          9          9          9          9          9          9          9          9          9          9          9          9          9          9          9          9          9          9          9          9          9          9          9          9          9          9          9          9          9          9          9          9          9          9          9          9          9          9          9          9          9          9          9          9          9          9          9          9          9          9          9          9          9          9          9          9          9          9          9          9          9          9          9          9          9          9          9          9          9          9          9          9          9          9          9          9          9          9          9          9          9          9          9          9          9          9          9          9          9          9          9          9          9          9          9          9          9          9          9          9          9          9          9          9          9          9          9          9          9          9          9          9          9          9          9          9          9          9          9          9          9          9          9          9          9          9          9          9          9          9          9          9          9          9          9          9          9          9          9          9          9          9          9          9          9          9          9          9          9          9          9          9          9          9          9          9          9          9          9          9          9          9          9          9          9          9          9          9          9          9          9          9          9          9          9          9          9          9          9          9          9          9          9          9          9          9          9          9          9          9          9          9          9          9          9          9          9          9          9          9          9          9          9          9          9          9          9          9          9          9          9          9          9          9          9          9          9          9          9          9          9          9          9          9          9          9          9          9          9          9          9          9          9          9          9          9          9          9          9          9          9          9          9          9          9          9          9          9          9          9          9          9          9          9          9          9          9          9          9          9          9          9          9          9          9          9          9          9          9          9          9          9          9          9          9          9          9          9          9          9          9          9          9          9          9          9          9          9          9          9          9          9          9          9          9          9          9          9          9          9          9          9          9          9          9          9          9          9          9          9          9          9          9          9          9          9          9          9          9          9          9          9          9          9          9          9          9          9          9          9          9          9          9          9          9          9          9          9          9          9          9          9          9          9          9          9          9          9          9          9          9          9          9          9          9          9          9          9          9          9          9          9          9          9          9          9          9          9          9          9          9          9          9          9          9          9          9          9          9          9          9          9          9          9          9          9          9          9          9          9          9          9          9          9          9          9          9          9          9          9          9          9          9          9          9          9          9          9          9          9          9          9          9          9          9          9          9          9          9          9          9          9          9          9          9          9          9          9          9          9          9          9          9          9          9          9          9          9          9          9          9          9          9          9          9          9          9          9          9          9          9          9          9          9          9          9          9          9          9          9          9          9          9          9          9          9          9          9          9          9          9          9          9          9          9          9          9          9          9          9          9          9          9          9          9          9          9          9          9          9          9          9          9          9          9          9          9          9          9          9          9          9          9          9          9          9          9          9          9          9          9          9          9          9          9          9          9          9          9          9          9          9          9          9          9          9          9          9          9          9          9          9          9          9          9          9          9          9          9          9          9          9          9          9          9          9          9          9          9          9          9          9          9          9          9          9          9          9          9          9          9          9          9          9          9          9          9          9          9          9          9          9          9          9          9          9          9          9          9          9          9          9          9          9          9          9          9          9          9          9          9          9          9          9          9          9          9          9          9          9          9          9          9          9          9          9          9          9          9          9          9          9          9          9          9          9          9          9          9          9          9          9          9          9          9          9          9          9          9          9          9          9          9          9          9          9          9          9          9          9          9          9          9          9          9          9          9          9          9          9          9          9          9          9          9          9          9          9          9          9          9          9          9          9          9          9          9          9          9          9          9          9          9          9          9          9          9          9          9          9          9          9          9          9          9          9          9          9          9          9          9          9          9          9          9          9          9          9          9          9          9          9          9          9          9          9          9          9          9          9          9          9          9          9          9          9          9          9          9          9          9          9          9          9          9          9          9          9          9          9          9          9          9          9          9          9          9          9          9          9          9          9          9          9          9          9          9          9          9          9          9          9          9          9          9          9          9          9          9          9          9          9          9          9          9          9          9          9          9          9          9          9          9          9          9          9          9          9          9          9          9          9          9          9          9          9          9          9          9          9          9          9          9          9          9          9          9          9          9          9          9          9          9          9          9          9          9          9          9          9          9          9          9          9          9          9          9          9          9          9          9          9          9          9          9          9          9          9          9          9          9          9          9          9          9          9          9          9          9          9          9          9          9          9          9          9          9          9          9          9          9          9          9          9          9          9          9          9          9          9          9          9          9          9          9          9          9          9          9          9          9          9          9          9          9          9          9          9          9          9          9          9          9          9          9          9          9          9          9          9          9          9          9          9          9          9          9          9          9          9          9          9          9          9          9          9          9          9          9          9          9          9          9          9          9          9          9          9          9          9          9          9          9          9          9          9          9          9          9          9          9          9          9          9          9          9          9          9          9          9          9          9 </DataArray>
</Cells>
<CellData>
<DataArray type="Int32"                                    Name="material"                                                      NumberOfComponents=" 1" format="ascii">
         1          1          1          1          1          1          1          1          1          1          1          1          1          1          1          1          1          1          1          1          1          1          1          1          1          1          1          1          1          1          1          1          1          1          1          1          1          1          1          1          1          1          1          1          1          1          1          1          1          1          1          1          1          1          1          1          1          1          1          1          1          1          1          1          1          1          1          1          1          1          1          1          1          1          1          1          1          1          1          1          1          1          1          1          1          1          1          1          1          1          1          1          1          1          1          1          1          1          1          1          1          1          1          1          1          1          1          1          1          1          1          1          1          1          1          1          1          1          1          1          1          1          1          1          1          1          1          1          1          1          1          1          1          1          1          1          1          1          1          1          1          1          1          1          1          1          1          1          1          1          1          1          1          1          1          1          1          1          1          1          1          1          1          1          1          1          1          1          1          1          1          1          1          1          1          1          1          1          1          1          1          1          1          1          1          1          1          1          1          1          1          1          1          1          1          1          1          1          1          1          1          1          1          1          1          1          1          1          1          1          1          1          1          1          1          1          1          1          1          1          1          1          1          1          1          1          1          1          1          1          1          1          1          1          1          1          1          1          1          1          1          1          1          1          1          1          1          1          1          1          1          1          1          1          1          1          1          1          1          1          1          1          1          1          1          1          1          1          1          1          1          1          1          1          1          1          1          1          1          1          1          1          1          1          1          1          1          1          1          1          1          1          1          1          1          1          1          1          1          1          1          1          1          1          1          1          1          1          1          1          1          1          1          1          1          1          1          1          1          1          1          1          1          1          1          1          1          1          1          1          1          1          1          1          1          1          1          1          1          1          1          1          1          1          1          1          1          1          1          1          1          1          1          1          1          1          1          1          1          1          1          1          1          1          1          1          1          1          1          1          1          1          1          1          1          1          1          1          1          1          1          1          1          1          1          1          1          1          1          1          1          1          1          1          1          1          1          1          1          1          1          1          1          1          1          1          1          1          1          1          1          1          1          1          1          1          1          1          1          1          1          1          1          1          1          1          1          1          1          1          1          1          1          1          1          1          1          1          1          1          1          1          1          1          1          1          1          1          1          1          1          1          1          1          1          1          1          1          1          1          1          1          1          1          1          1          1          1          1          1          1          1          1          1          1          1          1          1          1          1          1          1          1          1          1          1          1          1          1          1          1          1          1          1          1          1          1          1          1          1          1          1          1          1          1          1          1          1          1          1          1          1          1          1          1          1          1          1          1          1          1          1          1          1          1          1          1          1          1          1          1          1          1          1          1          1          1          1          1          1          1          1          1          1          1          1          1          1          1          1          1          1          1          1          1          1          1          1          1          1          1          1          1          1          1          1          1          1          1          1          1          1          1          1          1          1          1          1          1          1          1          1          1          1          1          1          1          1          1          1          1          1          1          1          1          1          1          1          1          1          1          1          1          1          1          1          1          1          1          1          1          1          1          1          1          1          1          1          1          1          1          1          1          1          1          1          1          1          1          1          1          1          1          1          1          1          1          1          1          1          1          1          1          1          1          1          1          1          1          1          1          1          1          1          1          1          1          1          1          1          1          1          1          1          1          1          1          1          1          1          1          1          1          1          1          1          1          1          1          1          1          1          1          1          1          1          1          1          1          1          1          1          1          1          1          1          1          1          1          1          1          1          1          1          1          1          1          1          1          1          1          1          1          1          1          1          1          1          1          1          1          1          1          1          1          1          1          1          1          1          1          1          1          1          1          1          1          1          1          1          1          1          1          1          1          1          1          1          1          1          1          1          1          1          1          1          1          1          1          1          1          1          1          1          1          1          1          1          1          1          1          1          1          1          1          1          1          1          1          1          1          1          1          1          1          1          1          1          1          1          1          1          1          1          1          1          1          1          1          1          1          1          1          1          1          1          1          1          1          1          1          1          1          1          1          1          1          1          1          1          1          1          1          1          1          1          1          1          1          1          1          1          1          1          1          1          1          1          1          1          1          1          1          1          1          1          1          1          1          1          1          1          1          1          1          1          1          1          1          1          1          1          1          1          1          1          1          1          1          1          1          1          1          1          1          1          1          1          1          1          1          1          1          1          1          1          1          1          1          1          1          1          1          1          1          1          1          1          1          1          1          1          1          1          1          1          1          1          1          1          1          1          1          1          1          1          1          1          1          1          1          1          1          1          1          1          1          1          1          1          1          1          1          1          1          1          1          1          1          1          1          1          1          1          1          1          1          1          1          1          1          1          1          1          1          1          1          1          1          1          1          1          1          1          1          1          1          1          1          1          1          1          1          1          1          1          1          1          1          1          1          1          1          1          1          1          1          1          1          1          1          1          1          1          1          1          1          1          1          1          1          1          1          1          1          1          1          1          1          1          1          1          1          1          1          1          1          1          1          1          1          1          1          1 </DataArray>
</CellData>
<PointData>
<DataArray type="Float64"                                    Name="u"                                                      NumberOfComponents=" 3" format="ascii">
             -0.000874765               0.000000000               0.999999988              -0.000920600               0.000000000               0.999999988              -0.000939326               0.000000000               0.999999988              -0.000949301               0.000000000               0.999999988              -0.000957143               0.000000000               0.999999988              -0.000965220              -0.000000000               0.999999988              -0.000974179              -0.000000000               0.999999988              -0.000984049               0.000000000               0.999999988              -0.000994556              -0.000000000               0.999999988              -0.001005441              -0.000000000               0.999999988              -0.001016255              -0.000000000               0.999999988              -0.001026633              -0.000000000               0.999999988              -0.001036279              -0.000000000               0.999999988              -0.001044819               0.000000000               0.999999988              -0.001051702              -0.000000000               0.999999988              -0.001056342              -0.000000000               0.999999988              -0.001058121              -0.000000000               0.999999988              -0.000869925               0.000120703               0.999999988              -0.000911806               0.000095225               0.999999988              -0.000927956               0.000083293               0.999999988              -0.000936186               0.000078017               0.999999988              -0.000942751               0.000075925               0.999999988              -0.000949773               0.000075365               0.999999988              -0.000957776               0.000075280               0.999999988              -0.000966664               0.000074977               0.999999988              -0.000976147               0.000074112               0.999999988              -0.000985897               0.000072208               0.999999988              -0.000995364               0.000069043               0.999999988              -0.001004139               0.000064329               0.999999988              -0.001011920               0.000057667               0.999999988              -0.001018231               0.000048557               0.999999988              -0.001022730               0.000036525               0.999999988              -0.001024984               0.000020660               0.999999988              -0.001024406              -0.000000267               0.999999988              -0.000855763               0.000240383               0.999999988              -0.000885975               0.000190132               0.999999988              -0.000894766               0.000167435               0.999999988              -0.000898325               0.000157947               0.999999988              -0.000901631               0.000154565               0.999999988              -0.000906001               0.000153981               0.999999988              -0.000911477               0.000154158               0.999999988              -0.000917697               0.000153866               0.999999988              -0.000924309               0.000152391               0.999999988              -0.000930715               0.000148901               0.999999988              -0.000936335               0.000142731               0.999999988              -0.000940632               0.000133348               0.999999988              -0.000943175               0.000120228               0.999999988              -0.000943695               0.000102858               0.999999988              -0.000942004               0.000080505               0.999999988              -0.000937848               0.000051967               0.999999988              -0.000931099               0.000015456               0.999999988              -0.000832458               0.000358060               0.999999988              -0.000844207               0.000284540               0.999999988              -0.000842386               0.000253320               0.999999988              -0.000839661               0.000241346               0.999999988              -0.000838661               0.000237953               0.999999988              -0.000839624               0.000238174               0.999999988              -0.000841936               0.000239188               0.999999988              -0.000844670               0.000239144               0.999999988              -0.000847049               0.000237199               0.999999988              -0.000848432               0.000232120               0.999999988              -0.000848076               0.000223022               0.999999988              -0.000845510               0.000209297               0.999999988              -0.000840542               0.000190582               0.999999988              -0.000832984               0.000166451               0.999999988              -0.000822806               0.000136215               0.999999988              -0.000809981               0.000098991               0.999999988              -0.000794797               0.000053850               0.999999988              -0.000800243               0.000472747               0.999999988              -0.000788579               0.000378579               0.999999988              -0.000775003               0.000341521               0.999999988              -0.000765749               0.000329073               0.999999988              -0.000760718               0.000326995               0.999999988              -0.000758380               0.000328813               0.999999988              -0.000757186               0.000330994               0.999999988              -0.000755926               0.000331339               0.999999988              -0.000753324               0.000328596               0.999999988              -0.000748490               0.000321783               0.999999988              -0.000740868               0.000309829               0.999999988              -0.000730210               0.000292273               0.999999988              -0.000716524               0.000268801               0.999999988              -0.000699726               0.000239262               0.999999988              -0.000679823               0.000203386               0.999999988              -0.000657116               0.000160973               0.999999988              -0.000632195               0.000112195               0.999999988              -0.000759791               0.000583423               0.999999988              -0.000721689               0.000472527               0.999999988              -0.000697006               0.000432506               0.999999988              -0.000682816               0.000421122               0.999999988              -0.000675008               0.000421173               0.999999988              -0.000670089               0.000424818               0.999999988              -0.000665723               0.000428110               0.999999988              -0.000660056               0.000428634               0.999999988              -0.000651676               0.000424799               0.999999988              -0.000639677               0.000415929               0.999999988              -0.000623717               0.000401284               0.999999988              -0.000603844               0.000380277               0.999999988              -0.000580060               0.000352802               0.999999988              -0.000552494               0.000319148               0.999999988              -0.000521523               0.000279680               0.999999988              -0.000487901               0.000235033               0.999999988              -0.000452683               0.000186290               0.999999988              -0.000711737               0.000689132               0.999999988              -0.000646705               0.000566516               0.999999988              -0.000613490               0.000525997               0.999999988              -0.000596844               0.000516584               0.999999988              -0.000587822               0.000518953               0.999999988              -0.000581216               0.000524132               0.999999988              -0.000573715               0.000528217               0.999999988              -0.000563099               0.000528327               0.999999988              -0.000547940               0.000522965               0.999999988              -0.000527582               0.000511801               0.999999988              -0.000502036               0.000494510               0.999999988              -0.000471455               0.000470547               0.999999988              -0.000436225               0.000440109               0.999999988              -0.000396942               0.000403941               0.999999988              -0.000354625               0.000363031               0.999999988              -0.000310480               0.000318874               0.999999988              -0.000265827               0.000273325               0.999999988              -0.000657029               0.000788681               0.999999988              -0.000567264               0.000660349               0.999999988              -0.000529267               0.000621036               0.999999988              -0.000512827               0.000613789               0.999999988              -0.000503995               0.000618063               0.999999988              -0.000495985               0.000624407               0.999999988              -0.000484925               0.000628568               0.999999988              -0.000468472               0.000627624               0.999999988              -0.000445509               0.000620379               0.999999988              -0.000415807               0.000606879               0.999999988              -0.000379591               0.000587119               0.999999988              -0.000337399               0.000560716               0.999999988              -0.000290137               0.000528534               0.999999988              -0.000239135               0.000491611               0.999999988              -0.000185851               0.000451531               0.999999988              -0.000131580               0.000410190               0.999999988              -0.000077621               0.000369521               0.999999988              -0.000597483               0.000880069               0.999999988              -0.000486233               0.000753814               0.999999988              -0.000448569               0.000716223               0.999999988              -0.000434338               0.000710584               0.999999988              -0.000426402               0.000716213               0.999999988              -0.000416710               0.000723259               0.999999988              -0.000401323               0.000726870               0.999999988              -0.000377941               0.000724622               0.999999988              -0.000346182               0.000715537               0.999999988              -0.000306107               0.000699911               0.999999988              -0.000258188               0.000677985               0.999999988              -0.000203552               0.000650196               0.999999988              -0.000143763               0.000617878               0.999999988              -0.000080456               0.000582647               0.999999988              -0.000015187               0.000546428               0.999999988               0.000050381               0.000510863               0.999999988               0.000115342               0.000476761               0.999999988              -0.000535632               0.000966729               0.999999988              -0.000418095               0.000859467               0.999999988              -0.000378184               0.000819075               0.999999988              -0.000363759               0.000809226               0.999999988              -0.000356802               0.000812510               0.999999988              -0.000349266               0.000819839               0.999999988              -0.000337105               0.000826258               0.999999988              -0.000318350               0.000829108               0.999999988              -0.000291819               0.000827117               0.999999988              -0.000257437               0.000820104               0.999999988              -0.000215329               0.000808237               0.999999988              -0.000166099               0.000791804               0.999999988              -0.000110825               0.000771332               0.999999988              -0.000050412               0.000747867               0.999999988               0.000013980               0.000722605               0.999999988               0.000080935               0.000697064               0.999999988               0.000148540               0.000672703               0.999999988              -0.000468195               0.001045862               0.999999988              -0.000352229               0.000962021               0.999999988              -0.000310437               0.000924830               0.999999988              -0.000294876               0.000913257               0.999999988              -0.000288089               0.000915096               0.999999988              -0.000281894               0.000922770               0.999999988              -0.000272278               0.000931749               0.999999988              -0.000257442               0.000939243               0.999999988              -0.000235869               0.000943734               0.999999988              -0.000207262               0.000944416               0.999999988              -0.000171143               0.000941451               0.999999988              -0.000127819               0.000934953               0.999999988              -0.000077894               0.000925319               0.999999988              -0.000021918               0.000912852               0.999999988               0.000039546               0.000898380               0.999999988               0.000105429               0.000882678               0.999999988               0.000173820               0.000867188               0.999999988              -0.000396588               0.001115469               0.999999988              -0.000288914               0.001058087               0.999999988              -0.000246943               0.001028470               0.999999988              -0.000230236               0.001018284               0.999999988              -0.000222823               0.001020261               0.999999988              -0.000217268               0.001028908               0.999999988              -0.000209573               0.001040414               0.999999988              -0.000197950               0.001052205               0.999999988              -0.000181095               0.001062512               0.999999988              -0.000158002               0.001070590               0.999999988              -0.000127948               0.001075894               0.999999988              -0.000090941               0.001078428               0.999999988              -0.000047228               0.001078428               0.999999988               0.000003064               0.001076123               0.999999988               0.000060071               0.001071962               0.999999988               0.000123091               0.001066320               0.999999988               0.000191100               0.001060169               0.999999988              -0.000321491               0.001174295               0.999999988              -0.000228091               0.001143824               0.999999988              -0.000188628               0.001124713               0.999999988              -0.000171576               0.001118628               0.999999988              -0.000163627               0.001122402               0.999999988              -0.000158373               0.001132783               0.999999988              -0.000152112               0.001146860               0.999999988              -0.000143160               0.001162645               0.999999988              -0.000130381               0.001178478               0.999999988              -0.000112613               0.001193313               0.999999988              -0.000088849               0.001206465               0.999999988              -0.000058566               0.001217692               0.999999988              -0.000021722               0.001226905               0.999999988               0.000021802               0.001234255               0.999999988               0.000072435               0.001239789               0.999999988               0.000130518               0.001243844               0.999999988               0.000196025               0.001246977               0.999999988              -0.000243660               0.001221033               0.999999988              -0.000169375               0.001215214               0.999999988              -0.000135647               0.001207902               0.999999988              -0.000119948               0.001207502               0.999999988              -0.000112222               0.001214532               0.999999988              -0.000107379               0.001227330               0.999999988              -0.000102473               0.001244172               0.999999988              -0.000095692               0.001263512               0.999999988              -0.000086376               0.001284136               0.999999988              -0.000073499               0.001305032               0.999999988              -0.000056023               0.001325332               0.999999988              -0.000032950               0.001344740               0.999999988              -0.000004021               0.001362900               0.999999988               0.000031048               0.001379578               0.999999988               0.000072956               0.001394668               0.999999988               0.000122919               0.001408093               0.999999988               0.000182452               0.001420210               0.999999988              -0.000163642               0.001255123               0.999999988              -0.000112167               0.001268799               0.999999988              -0.000087422               0.001272245               0.999999988              -0.000075241               0.001277829               0.999999988              -0.000069012               0.001288485               0.999999988              -0.000065166               0.001304059               0.999999988              -0.000061616               0.001323653               0.999999988              -0.000056916               0.001346198               0.999999988              -0.000050743               0.001370633               0.999999988              -0.000042394               0.001396175               0.999999988              -0.000030784               0.001422370               0.999999988              -0.000015236               0.001448631               0.999999988               0.000004702               0.001474555               0.999999988               0.000029393               0.001499834               0.999999988               0.000059770               0.001524016               0.999999988               0.000097271               0.001546649               0.999999988               0.000144182               0.001567463               0.999999988              -0.000082159               0.001275855               0.999999988              -0.000055903               0.001302018               0.999999988              -0.000042749               0.001312901               0.999999988              -0.000036104               0.001323033               0.999999988              -0.000032582               0.001336602               0.999999988              -0.000030347               0.001354474               0.999999988              -0.000028453               0.001376227               0.999999988              -0.000026044               0.001401008               0.999999988              -0.000023060               0.001428132               0.999999988              -0.000018921               0.001457031               0.999999988              -0.000013008               0.001487250               0.999999988              -0.000005090               0.001518206               0.999999988               0.000005169               0.001549443               0.999999988               0.000018076               0.001580571               0.999999988               0.000034119               0.001611093               0.999999988               0.000054357               0.001640432               0.999999988               0.000080327               0.001667843               0.999999988               0.000000000               0.001282694               0.999999988               0.000000000               0.001313219               0.999999988              -0.000000000               0.001326830               0.999999988               0.000000000               0.001338598               0.999999988               0.000000000               0.001353294               0.999999988               0.000000000               0.001372068               0.999999988              -0.000000000               0.001394572               0.999999988               0.000000000               0.001420109               0.999999988               0.000000000               0.001448264               0.999999988               0.000000000               0.001478366               0.999999988               0.000000000               0.001509938               0.999999988              -0.000000000               0.001542552               0.999999988              -0.000000000               0.001575682               0.999999988              -0.000000000               0.001608890               0.999999988              -0.000000000               0.001641607               0.999999988              -0.000000000               0.001673202               0.999999988               0.000000000               0.001702937               0.999999988              -0.000874765               0.000000000               0.999999988              -0.000920600               0.000000000               0.999999988              -0.000939326               0.000000000               0.999999988              -0.000949301               0.000000000               0.999999988              -0.000957143               0.000000000               0.999999988              -0.000965220              -0.000000000               0.999999988              -0.000974179              -0.000000000               0.999999988              -0.000984049               0.000000000               0.999999988              -0.000994556              -0.000000000               0.999999988              -0.001005441              -0.000000000               0.999999988              -0.001016255              -0.000000000               0.999999988              -0.001026633              -0.000000000               0.999999988              -0.001036279              -0.000000000               0.999999988              -0.001044819               0.000000000               0.999999988              -0.001051702              -0.000000000               0.999999988              -0.001056342              -0.000000000               0.999999988              -0.001058121              -0.000000000               0.999999988              -0.000869925              -0.000120703               0.999999988              -0.000911806              -0.000095225               0.999999988              -0.000927956              -0.000083293               0.999999988              -0.000936186              -0.000078017               0.999999988              -0.000942751              -0.000075925               0.999999988              -0.000949773              -0.000075365               0.999999988              -0.000957776              -0.000075280               0.999999988              -0.000966664              -0.000074977               0.999999988              -0.000976147              -0.000074112               0.999999988              -0.000985897              -0.000072208               0.999999988              -0.000995364              -0.000069043               0.999999988              -0.001004139              -0.000064329               0.999999988              -0.001011920              -0.000057667               0.999999988              -0.001018231              -0.000048557               0.999999988              -0.001022730              -0.000036525               0.999999988              -0.001024984              -0.000020660               0.999999988              -0.001024406               0.000000267               0.999999988              -0.000855763              -0.000240383               0.999999988              -0.000885975              -0.000190132               0.999999988              -0.000894766              -0.000167435               0.999999988              -0.000898325              -0.000157947               0.999999988              -0.000901631              -0.000154565               0.999999988              -0.000906001              -0.000153981               0.999999988              -0.000911477              -0.000154158               0.999999988              -0.000917697              -0.000153866               0.999999988              -0.000924309              -0.000152391               0.999999988              -0.000930715              -0.000148901               0.999999988              -0.000936335              -0.000142731               0.999999988              -0.000940632              -0.000133348               0.999999988              -0.000943175              -0.000120228               0.999999988              -0.000943695              -0.000102858               0.999999988              -0.000942004              -0.000080505               0.999999988              -0.000937848              -0.000051967               0.999999988              -0.000931099              -0.000015456               0.999999988              -0.000832458              -0.000358060               0.999999988              -0.000844207              -0.000284540               0.999999988              -0.000842386              -0.000253320               0.999999988              -0.000839661              -0.000241346               0.999999988              -0.000838661              -0.000237953               0.999999988              -0.000839624              -0.000238174               0.999999988              -0.000841936              -0.000239188               0.999999988              -0.000844670              -0.000239144               0.999999988              -0.000847049              -0.000237199               0.999999988              -0.000848432              -0.000232120               0.999999988              -0.000848076              -0.000223022               0.999999988              -0.000845510              -0.000209297               0.999999988              -0.000840542              -0.000190582               0.999999988              -0.000832984              -0.000166451               0.999999988              -0.000822806              -0.000136215               0.999999988              -0.000809981              -0.000098991               0.999999988              -0.000794797              -0.000053850               0.999999988              -0.000800243              -0.000472747               0.999999988              -0.000788579              -0.000378579               0.999999988              -0.000775003              -0.000341521               0.999999988              -0.000765749              -0.000329073               0.999999988              -0.000760718              -0.000326995               0.999999988              -0.000758380              -0.000328813               0.999999988              -0.000757186              -0.000330994               0.999999988              -0.000755926              -0.000331339               0.999999988              -0.000753324              -0.000328596               0.999999988              -0.000748490              -0.000321783               0.999999988              -0.000740868              -0.000309829               0.999999988              -0.000730210              -0.000292273               0.999999988              -0.000716524              -0.000268801               0.999999988              -0.000699726              -0.000239262               0.999999988              -0.000679823              -0.000203386               0.999999988              -0.000657116              -0.000160973               0.999999988              -0.000632195              -0.000112195               0.999999988              -0.000759791              -0.000583423               0.999999988              -0.000721689              -0.000472527               0.999999988              -0.000697006              -0.000432506               0.999999988              -0.000682816              -0.000421122               0.999999988              -0.000675008              -0.000421173               0.999999988              -0.000670089              -0.000424818               0.999999988              -0.000665723              -0.000428110               0.999999988              -0.000660056              -0.000428634               0.999999988              -0.000651676              -0.000424799               0.999999988              -0.000639677              -0.000415929               0.999999988              -0.000623717              -0.000401284               0.999999988              -0.000603844              -0.000380277               0.999999988              -0.000580060              -0.000352802               0.999999988              -0.000552494              -0.000319148               0.999999988              -0.000521523              -0.000279680               0.999999988              -0.000487901              -0.000235033               0.999999988              -0.000452683              -0.000186290               0.999999988              -0.000711737              -0.000689132               0.999999988              -0.000646705              -0.000566516               0.999999988              -0.000613490              -0.000525997               0.999999988              -0.000596844              -0.000516584               0.999999988              -0.000587822              -0.000518953               0.999999988              -0.000581216              -0.000524132               0.999999988              -0.000573715              -0.000528217               0.999999988              -0.000563099              -0.000528327               0.999999988              -0.000547940              -0.000522965               0.999999988              -0.000527582              -0.000511801               0.999999988              -0.000502036              -0.000494510               0.999999988              -0.000471455              -0.000470547               0.999999988              -0.000436225              -0.000440109               0.999999988              -0.000396942              -0.000403941               0.999999988              -0.000354625              -0.000363031               0.999999988              -0.000310480              -0.000318874               0.999999988              -0.000265827              -0.000273325               0.999999988              -0.000657029              -0.000788681               0.999999988              -0.000567264              -0.000660349               0.999999988              -0.000529267              -0.000621036               0.999999988              -0.000512827              -0.000613789               0.999999988              -0.000503995              -0.000618063               0.999999988              -0.000495985              -0.000624407               0.999999988              -0.000484925              -0.000628568               0.999999988              -0.000468472              -0.000627624               0.999999988              -0.000445509              -0.000620379               0.999999988              -0.000415807              -0.000606879               0.999999988              -0.000379591              -0.000587119               0.999999988              -0.000337399              -0.000560716               0.999999988              -0.000290137              -0.000528534               0.999999988              -0.000239135              -0.000491611               0.999999988              -0.000185851              -0.000451531               0.999999988              -0.000131580              -0.000410190               0.999999988              -0.000077621              -0.000369521               0.999999988              -0.000597483              -0.000880069               0.999999988              -0.000486233              -0.000753814               0.999999988              -0.000448569              -0.000716223               0.999999988              -0.000434338              -0.000710584               0.999999988              -0.000426402              -0.000716213               0.999999988              -0.000416710              -0.000723259               0.999999988              -0.000401323              -0.000726870               0.999999988              -0.000377941              -0.000724622               0.999999988              -0.000346182              -0.000715537               0.999999988              -0.000306107              -0.000699911               0.999999988              -0.000258188              -0.000677985               0.999999988              -0.000203552              -0.000650196               0.999999988              -0.000143763              -0.000617878               0.999999988              -0.000080456              -0.000582647               0.999999988              -0.000015187              -0.000546428               0.999999988               0.000050381              -0.000510863               0.999999988               0.000115342              -0.000476761               0.999999988              -0.000535632              -0.000966729               0.999999988              -0.000418095              -0.000859467               0.999999988              -0.000378184              -0.000819075               0.999999988              -0.000363759              -0.000809226               0.999999988              -0.000356802              -0.000812510               0.999999988              -0.000349266              -0.000819839               0.999999988              -0.000337105              -0.000826258               0.999999988              -0.000318350              -0.000829108               0.999999988              -0.000291819              -0.000827117               0.999999988              -0.000257437              -0.000820104               0.999999988              -0.000215329              -0.000808237               0.999999988              -0.000166099              -0.000791804               0.999999988              -0.000110825              -0.000771332               0.999999988              -0.000050412              -0.000747867               0.999999988               0.000013980              -0.000722605               0.999999988               0.000080935              -0.000697064               0.999999988               0.000148540              -0.000672703               0.999999988              -0.000468195              -0.001045862               0.999999988              -0.000352229              -0.000962021               0.999999988              -0.000310437              -0.000924830               0.999999988              -0.000294876              -0.000913257               0.999999988              -0.000288089              -0.000915096               0.999999988              -0.000281894              -0.000922770               0.999999988              -0.000272278              -0.000931749               0.999999988              -0.000257442              -0.000939243               0.999999988              -0.000235869              -0.000943734               0.999999988              -0.000207262              -0.000944416               0.999999988              -0.000171143              -0.000941451               0.999999988              -0.000127819              -0.000934953               0.999999988              -0.000077894              -0.000925319               0.999999988              -0.000021918              -0.000912852               0.999999988               0.000039546              -0.000898380               0.999999988               0.000105429              -0.000882678               0.999999988               0.000173820              -0.000867188               0.999999988              -0.000396588              -0.001115469               0.999999988              -0.000288914              -0.001058087               0.999999988              -0.000246943              -0.001028470               0.999999988              -0.000230236              -0.001018284               0.999999988              -0.000222823              -0.001020261               0.999999988              -0.000217268              -0.001028908               0.999999988              -0.000209573              -0.001040414               0.999999988              -0.000197950              -0.001052205               0.999999988              -0.000181095              -0.001062512               0.999999988              -0.000158002              -0.001070590               0.999999988              -0.000127948              -0.001075894               0.999999988              -0.000090941              -0.001078428               0.999999988              -0.000047228              -0.001078428               0.999999988               0.000003064              -0.001076123               0.999999988               0.000060071              -0.001071962               0.999999988               0.000123091              -0.001066320               0.999999988               0.000191100              -0.001060169               0.999999988              -0.000321491              -0.001174295               0.999999988              -0.000228091              -0.001143824               0.999999988              -0.000188628              -0.001124713               0.999999988              -0.000171576              -0.001118628               0.999999988              -0.000163627              -0.001122402               0.999999988              -0.000158373              -0.001132783               0.999999988              -0.000152112              -0.001146860               0.999999988              -0.000143160              -0.001162645               0.999999988              -0.000130381              -0.001178478               0.999999988              -0.000112613              -0.001193313               0.999999988              -0.000088849              -0.001206465               0.999999988              -0.000058566              -0.001217692               0.999999988              -0.000021722              -0.001226905               0.999999988               0.000021802              -0.001234255               0.999999988               0.000072435              -0.001239789               0.999999988               0.000130518              -0.001243844               0.999999988               0.000196025              -0.001246977               0.999999988              -0.000243660              -0.001221033               0.999999988              -0.000169375              -0.001215214               0.999999988              -0.000135647              -0.001207902               0.999999988              -0.000119948              -0.001207502               0.999999988              -0.000112222              -0.001214532               0.999999988              -0.000107379              -0.001227330               0.999999988              -0.000102473              -0.001244172               0.999999988              -0.000095692              -0.001263512               0.999999988              -0.000086376              -0.001284136               0.999999988              -0.000073499              -0.001305032               0.999999988              -0.000056023              -0.001325332               0.999999988              -0.000032950              -0.001344740               0.999999988              -0.000004021              -0.001362900               0.999999988               0.000031048              -0.001379578               0.999999988               0.000072956              -0.001394668               0.999999988               0.000122919              -0.001408093               0.999999988               0.000182452              -0.001420210               0.999999988              -0.000163642              -0.001255123               0.999999988              -0.000112167              -0.001268799               0.999999988              -0.000087422              -0.001272245               0.999999988              -0.000075241              -0.001277829               0.999999988              -0.000069012              -0.001288485               0.999999988              -0.000065166              -0.001304059               0.999999988              -0.000061616              -0.001323653               0.999999988              -0.000056916              -0.001346198               0.999999988              -0.000050743              -0.001370633               0.999999988              -0.000042394              -0.001396175               0.999999988              -0.000030784              -0.001422370               0.999999988              -0.000015236              -0.001448631               0.999999988               0.000004702              -0.001474555               0.999999988               0.000029393              -0.001499834               0.999999988               0.000059770              -0.001524016               0.999999988               0.000097271              -0.001546649               0.999999988               0.000144182              -0.001567463               0.999999988              -0.000082159              -0.001275855               0.999999988              -0.000055903              -0.001302018               0.999999988              -0.000042749              -0.001312901               0.999999988              -0.000036104              -0.001323033               0.999999988              -0.000032582              -0.001336602               0.999999988              -0.000030347              -0.001354474               0.999999988              -0.000028453              -0.001376227               0.999999988              -0.000026044              -0.001401008               0.999999988              -0.000023060              -0.001428132               0.999999988              -0.000018921              -0.001457031               0.999999988              -0.000013008              -0.001487250               0.999999988              -0.000005090              -0.001518206               0.999999988               0.000005169              -0.001549443               0.999999988               0.000018076              -0.001580571               0.999999988               0.000034119              -0.001611093               0.999999988               0.000054357              -0.001640432               0.999999988               0.000080327              -0.001667843               0.999999988               0.000000000              -0.001282694               0.999999988              -0.000000000              -0.001313219               0.999999988              -0.000000000              -0.001326830               0.999999988               0.000000000              -0.001338598               0.999999988               0.000000000              -0.001353294               0.999999988               0.000000000              -0.001372068               0.999999988               0.000000000              -0.001394572               0.999999988              -0.000000000              -0.001420109               0.999999988              -0.000000000              -0.001448264               0.999999988              -0.000000000              -0.001478366               0.999999988               0.000000000              -0.001509938               0.999999988              -0.000000000              -0.001542552               0.999999988              -0.000000000              -0.001575682               0.999999988               0.000000000              -0.001608890               0.999999988               0.000000000              -0.001641607               0.999999988              -0.000000000              -0.001673202               0.999999988              -0.000000000              -0.001702937               0.999999988               0.000874765               0.000000000               0.999999988               0.000920600               0.000000000               0.999999988               0.000939326               0.000000000               0.999999988               0.000949301              -0.000000000               0.999999988               0.000957143               0.000000000               0.999999988               0.000965220               0.000000000               0.999999988               0.000974179               0.000000000               0.999999988               0.000984049               0.000000000               0.999999988               0.000994556               0.000000000               0.999999988               0.001005441               0.000000000               0.999999988               0.001016255               0.000000000               0.999999988               0.001026633              -0.000000000               0.999999988               0.001036279              -0.000000000               0.999999988               0.001044819              -0.000000000               0.999999988               0.001051702               0.000000000               0.999999988               0.001056342               0.000000000               0.999999988               0.001058121              -0.000000000               0.999999988               0.000869925              -0.000120703               0.999999988               0.000911806              -0.000095225               0.999999988               0.000927956              -0.000083293               0.999999988               0.000936186              -0.000078017               0.999999988               0.000942751              -0.000075925               0.999999988               0.000949773              -0.000075365               0.999999988               0.000957776              -0.000075280               0.999999988               0.000966664              -0.000074977               0.999999988               0.000976147              -0.000074112               0.999999988               0.000985897              -0.000072208               0.999999988               0.000995364              -0.000069043               0.999999988               0.001004139              -0.000064329               0.999999988               0.001011920              -0.000057667               0.999999988               0.001018231              -0.000048557               0.999999988               0.001022730              -0.000036525               0.999999988               0.001024984              -0.000020660               0.999999988               0.001024406               0.000000267               0.999999988               0.000855763              -0.000240383               0.999999988               0.000885975              -0.000190132               0.999999988               0.000894766              -0.000167435               0.999999988               0.000898325              -0.000157947               0.999999988               0.000901631              -0.000154565               0.999999988               0.000906001              -0.000153981               0.999999988               0.000911477              -0.000154158               0.999999988               0.000917697              -0.000153866               0.999999988               0.000924309              -0.000152391               0.999999988               0.000930715              -0.000148901               0.999999988               0.000936335              -0.000142731               0.999999988               0.000940632              -0.000133348               0.999999988               0.000943175              -0.000120228               0.999999988               0.000943695              -0.000102858               0.999999988               0.000942004              -0.000080505               0.999999988               0.000937848              -0.000051967               0.999999988               0.000931099              -0.000015456               0.999999988               0.000832458              -0.000358060               0.999999988               0.000844207              -0.000284540               0.999999988               0.000842386              -0.000253320               0.999999988               0.000839661              -0.000241346               0.999999988               0.000838661              -0.000237953               0.999999988               0.000839624              -0.000238174               0.999999988               0.000841936              -0.000239188               0.999999988               0.000844670              -0.000239144               0.999999988               0.000847049              -0.000237199               0.999999988               0.000848432              -0.000232120               0.999999988               0.000848076              -0.000223022               0.999999988               0.000845510              -0.000209297               0.999999988               0.000840542              -0.000190582               0.999999988               0.000832984              -0.000166451               0.999999988               0.000822806              -0.000136215               0.999999988               0.000809981              -0.000098991               0.999999988               0.000794797              -0.000053850               0.999999988               0.000800243              -0.000472747               0.999999988               0.000788579              -0.000378579               0.999999988               0.000775003              -0.000341521               0.999999988               0.000765749              -0.000329073               0.999999988               0.000760718              -0.000326995               0.999999988               0.000758380              -0.000328813               0.999999988               0.000757186              -0.000330994               0.999999988               0.000755926              -0.000331339               0.999999988               0.000753324              -0.000328596               0.999999988               0.000748490              -0.000321783               0.999999988               0.000740868              -0.000309829               0.999999988               0.000730210              -0.000292273               0.999999988               0.000716524              -0.000268801               0.999999988               0.000699726              -0.000239262               0.999999988               0.000679823              -0.000203386               0.999999988               0.000657116              -0.000160973               0.999999988               0.000632195              -0.000112195               0.999999988               0.000759791              -0.000583423               0.999999988               0.000721689              -0.000472527               0.999999988               0.000697006              -0.000432506               0.999999988               0.000682816              -0.000421122               0.999999988               0.000675008              -0.000421173               0.999999988               0.000670089              -0.000424818               0.999999988               0.000665723              -0.000428110               0.999999988               0.000660056              -0.000428634               0.999999988               0.000651676              -0.000424799               0.999999988               0.000639677              -0.000415929               0.999999988               0.000623717              -0.000401284               0.999999988               0.000603844              -0.000380277               0.999999988               0.000580060              -0.000352802               0.999999988               0.000552494              -0.000319148               0.999999988               0.000521523              -0.000279680               0.999999988               0.000487901              -0.000235033               0.999999988               0.000452683              -0.000186290               0.999999988               0.000711737              -0.000689132               0.999999988               0.000646705              -0.000566516               0.999999988               0.000613490              -0.000525997               0.999999988               0.000596844              -0.000516584               0.999999988               0.000587822              -0.000518953               0.999999988               0.000581216              -0.000524132               0.999999988               0.000573715              -0.000528217               0.999999988               0.000563099              -0.000528327               0.999999988               0.000547940              -0.000522965               0.999999988               0.000527582              -0.000511801               0.999999988               0.000502036              -0.000494510               0.999999988               0.000471455              -0.000470547               0.999999988               0.000436225              -0.000440109               0.999999988               0.000396942              -0.000403941               0.999999988               0.000354625              -0.000363031               0.999999988               0.000310480              -0.000318874               0.999999988               0.000265827              -0.000273325               0.999999988               0.000657029              -0.000788681               0.999999988               0.000567264              -0.000660349               0.999999988               0.000529267              -0.000621036               0.999999988               0.000512827              -0.000613789               0.999999988               0.000503995              -0.000618063               0.999999988               0.000495985              -0.000624407               0.999999988               0.000484925              -0.000628568               0.999999988               0.000468472              -0.000627624               0.999999988               0.000445509              -0.000620379               0.999999988               0.000415807              -0.000606879               0.999999988               0.000379591              -0.000587119               0.999999988               0.000337399              -0.000560716               0.999999988               0.000290137              -0.000528534               0.999999988               0.000239135              -0.000491611               0.999999988               0.000185851              -0.000451531               0.999999988               0.000131580              -0.000410190               0.999999988               0.000077621              -0.000369521               0.999999988               0.000597483              -0.000880069               0.999999988               0.000486233              -0.000753814               0.999999988               0.000448569              -0.000716223               0.999999988               0.000434338              -0.000710584               0.999999988               0.000426402              -0.000716213               0.999999988               0.000416710              -0.000723259               0.999999988               0.000401323              -0.000726870               0.999999988               0.000377941              -0.000724622               0.999999988               0.000346182              -0.000715537               0.999999988               0.000306107              -0.000699911               0.999999988               0.000258188              -0.000677985               0.999999988               0.000203552              -0.000650196               0.999999988               0.000143763              -0.000617878               0.999999988               0.000080456              -0.000582647               0.999999988               0.000015187              -0.000546428               0.999999988              -0.000050381              -0.000510863               0.999999988              -0.000115342              -0.000476761               0.999999988               0.000535632              -0.000966729               0.999999988               0.000418095              -0.000859467               0.999999988               0.000378184              -0.000819075               0.999999988               0.000363759              -0.000809226               0.999999988               0.000356802              -0.000812510               0.999999988               0.000349266              -0.000819839               0.999999988               0.000337105              -0.000826258               0.999999988               0.000318350              -0.000829108               0.999999988               0.000291819              -0.000827117               0.999999988               0.000257437              -0.000820104               0.999999988               0.000215329              -0.000808237               0.999999988               0.000166099              -0.000791804               0.999999988               0.000110825              -0.000771332               0.999999988               0.000050412              -0.000747867               0.999999988              -0.000013980              -0.000722605               0.999999988              -0.000080935              -0.000697064               0.999999988              -0.000148540              -0.000672703               0.999999988               0.000468195              -0.001045862               0.999999988               0.000352229              -0.000962021               0.999999988               0.000310437              -0.000924830               0.999999988               0.000294876              -0.000913257               0.999999988               0.000288089              -0.000915096               0.999999988               0.000281894              -0.000922770               0.999999988               0.000272278              -0.000931749               0.999999988               0.000257442              -0.000939243               0.999999988               0.000235869              -0.000943734               0.999999988               0.000207262              -0.000944416               0.999999988               0.000171143              -0.000941451               0.999999988               0.000127819              -0.000934953               0.999999988               0.000077894              -0.000925319               0.999999988               0.000021918              -0.000912852               0.999999988              -0.000039546              -0.000898380               0.999999988              -0.000105429              -0.000882678               0.999999988              -0.000173820              -0.000867188               0.999999988               0.000396588              -0.001115469               0.999999988               0.000288914              -0.001058087               0.999999988               0.000246943              -0.001028470               0.999999988               0.000230236              -0.001018284               0.999999988               0.000222823              -0.001020261               0.999999988               0.000217268              -0.001028908               0.999999988               0.000209573              -0.001040414               0.999999988               0.000197950              -0.001052205               0.999999988               0.000181095              -0.001062512               0.999999988               0.000158002              -0.001070590               0.999999988               0.000127948              -0.001075894               0.999999988               0.000090941              -0.001078428               0.999999988               0.000047228              -0.001078428               0.999999988              -0.000003064              -0.001076123               0.999999988              -0.000060071              -0.001071962               0.999999988              -0.000123091              -0.001066320               0.999999988              -0.000191100              -0.001060169               0.999999988               0.000321491              -0.001174295               0.999999988               0.000228091              -0.001143824               0.999999988               0.000188628              -0.001124713               0.999999988               0.000171576              -0.001118628               0.999999988               0.000163627              -0.001122402               0.999999988               0.000158373              -0.001132783               0.999999988               0.000152112              -0.001146860               0.999999988               0.000143160              -0.001162645               0.999999988               0.000130381              -0.001178478               0.999999988               0.000112613              -0.001193313               0.999999988               0.000088849              -0.001206465               0.999999988               0.000058566              -0.001217692               0.999999988               0.000021722              -0.001226905               0.999999988              -0.000021802              -0.001234255               0.999999988              -0.000072435              -0.001239789               0.999999988              -0.000130518              -0.001243844               0.999999988              -0.000196025              -0.001246977               0.999999988               0.000243660              -0.001221033               0.999999988               0.000169375              -0.001215214               0.999999988               0.000135647              -0.001207902               0.999999988               0.000119948              -0.001207502               0.999999988               0.000112222              -0.001214532               0.999999988               0.000107379              -0.001227330               0.999999988               0.000102473              -0.001244172               0.999999988               0.000095692              -0.001263512               0.999999988               0.000086376              -0.001284136               0.999999988               0.000073499              -0.001305032               0.999999988               0.000056023              -0.001325332               0.999999988               0.000032950              -0.001344740               0.999999988               0.000004021              -0.001362900               0.999999988              -0.000031048              -0.001379578               0.999999988              -0.000072956              -0.001394668               0.999999988              -0.000122919              -0.001408093               0.999999988              -0.000182452              -0.001420210               0.999999988               0.000163642              -0.001255123               0.999999988               0.000112167              -0.001268799               0.999999988               0.000087422              -0.001272245               0.999999988               0.000075241              -0.001277829               0.999999988               0.000069012              -0.001288485               0.999999988               0.000065166              -0.001304059               0.999999988               0.000061616              -0.001323653               0.999999988               0.000056916              -0.001346198               0.999999988               0.000050743              -0.001370633               0.999999988               0.000042394              -0.001396175               0.999999988               0.000030784              -0.001422370               0.999999988               0.000015236              -0.001448631               0.999999988              -0.000004702              -0.001474555               0.999999988              -0.000029393              -0.001499834               0.999999988              -0.000059770              -0.001524016               0.999999988              -0.000097271              -0.001546649               0.999999988              -0.000144182              -0.001567463               0.999999988               0.000082159              -0.001275855               0.999999988               0.000055903              -0.001302018               0.999999988               0.000042749              -0.001312901               0.999999988               0.000036104              -0.001323033               0.999999988               0.000032582              -0.001336602               0.999999988               0.000030347              -0.001354474               0.999999988               0.000028453              -0.001376227               0.999999988               0.000026044              -0.001401008               0.999999988               0.000023060              -0.001428132               0.999999988               0.000018921              -0.001457031               0.999999988               0.000013008              -0.001487250               0.999999988               0.000005090              -0.001518206               0.999999988              -0.000005169              -0.001549443               0.999999988              -0.000018076              -0.001580571               0.999999988              -0.000034119              -0.001611093               0.999999988              -0.000054357              -0.001640432               0.999999988              -0.000080327              -0.001667843               0.999999988               0.000000000              -0.001282694               0.999999988              -0.000000000              -0.001313219               0.999999988              -0.000000000              -0.001326830               0.999999988               0.000000000              -0.001338598               0.999999988               0.000000000              -0.001353294               0.999999988               0.000000000              -0.001372068               0.999999988               0.000000000              -0.001394572               0.999999988              -0.000000000              -0.001420109               0.999999988              -0.000000000              -0.001448264               0.999999988              -0.000000000              -0.001478366               0.999999988               0.000000000              -0.001509938               0.999999988              -0.000000000              -0.001542552               0.999999988              -0.000000000              -0.001575682               0.999999988               0.000000000              -0.001608890               0.999999988               0.000000000              -0.001641607               0.999999988              -0.000000000              -0.001673202               0.999999988              -0.000000000              -0.001702937               0.999999988               0.000874765               0.000000000               0.999999988               0.000920600               0.000000000               0.999999988               0.000939326               0.000000000               0.999999988               0.000949301              -0.000000000               0.999999988               0.000957143               0.000000000               0.999999988               0.000965220               0.000000000               0.999999988               0.000974179               0.000000000               0.999999988               0.000984049               0.000000000               0.999999988               0.000994556               0.000000000               0.999999988               0.001005441               0.000000000               0.999999988               0.001016255               0.000000000               0.999999988               0.001026633              -0.000000000               0.999999988               0.001036279              -0.000000000               0.999999988               0.001044819              -0.000000000               0.999999988               0.001051702               0.000000000               0.999999988               0.001056342               0.000000000               0.999999988               0.001058121              -0.000000000               0.999999988               0.000869925               0.000120703               0.999999988               0.000911806               0.000095225               0.999999988               0.000927956               0.000083293               0.999999988               0.000936186               0.000078017               0.999999988               0.000942751               0.000075925               0.999999988               0.000949773               0.000075365               0.999999988               0.000957776               0.000075280               0.999999988               0.000966664               0.000074977               0.999999988               0.000976147               0.000074112               0.999999988               0.000985897               0.000072208               0.999999988               0.000995364               0.000069043               0.999999988               0.001004139               0.000064329               0.999999988               0.001011920               0.000057667               0.999999988               0.001018231               0.000048557               0.999999988               0.001022730               0.000036525               0.999999988               0.001024984               0.000020660               0.999999988               0.001024406              -0.000000267               0.999999988               0.000855763               0.000240383               0.999999988               0.000885975               0.000190132               0.999999988               0.000894766               0.000167435               0.999999988               0.000898325               0.000157947               0.999999988               0.000901631               0.000154565               0.999999988               0.000906001               0.000153981               0.999999988               0.000911477               0.000154158               0.999999988               0.000917697               0.000153866               0.999999988               0.000924309               0.000152391               0.999999988               0.000930715               0.000148901               0.999999988               0.000936335               0.000142731               0.999999988               0.000940632               0.000133348               0.999999988               0.000943175               0.000120228               0.999999988               0.000943695               0.000102858               0.999999988               0.000942004               0.000080505               0.999999988               0.000937848               0.000051967               0.999999988               0.000931099               0.000015456               0.999999988               0.000832458               0.000358060               0.999999988               0.000844207               0.000284540               0.999999988               0.000842386               0.000253320               0.999999988               0.000839661               0.000241346               0.999999988               0.000838661               0.000237953               0.999999988               0.000839624               0.000238174               0.999999988               0.000841936               0.000239188               0.999999988               0.000844670               0.000239144               0.999999988               0.000847049               0.000237199               0.999999988               0.000848432               0.000232120               0.999999988               0.000848076               0.000223022               0.999999988               0.000845510               0.000209297               0.999999988               0.000840542               0.000190582               0.999999988               0.000832984               0.000166451               0.999999988               0.000822806               0.000136215               0.999999988               0.000809981               0.000098991               0.999999988               0.000794797               0.000053850               0.999999988               0.000800243               0.000472747               0.999999988               0.000788579               0.000378579               0.999999988               0.000775003               0.000341521               0.999999988               0.000765749               0.000329073               0.999999988               0.000760718               0.000326995               0.999999988               0.000758380               0.000328813               0.999999988               0.000757186               0.000330994               0.999999988               0.000755926               0.000331339               0.999999988               0.000753324               0.000328596               0.999999988               0.000748490               0.000321783               0.999999988               0.000740868               0.000309829               0.999999988               0.000730210               0.000292273               0.999999988               0.000716524               0.000268801               0.999999988               0.000699726               0.000239262               0.999999988               0.000679823               0.000203386               0.999999988               0.000657116               0.000160973               0.999999988               0.000632195               0.000112195               0.999999988               0.000759791               0.000583423               0.999999988               0.000721689               0.000472527               0.999999988               0.000697006               0.000432506               0.999999988               0.000682816               0.000421122               0.999999988               0.000675008               0.000421173               0.999999988               0.000670089               0.000424818               0.999999988               0.000665723               0.000428110               0.999999988               0.000660056               0.000428634               0.999999988               0.000651676               0.000424799               0.999999988               0.000639677               0.000415929               0.999999988               0.000623717               0.000401284               0.999999988               0.000603844               0.000380277               0.999999988               0.000580060               0.000352802               0.999999988               0.000552494               0.000319148               0.999999988               0.000521523               0.000279680               0.999999988               0.000487901               0.000235033               0.999999988               0.000452683               0.000186290               0.999999988               0.000711737               0.000689132               0.999999988               0.000646705               0.000566516               0.999999988               0.000613490               0.000525997               0.999999988               0.000596844               0.000516584               0.999999988               0.000587822               0.000518953               0.999999988               0.000581216               0.000524132               0.999999988               0.000573715               0.000528217               0.999999988               0.000563099               0.000528327               0.999999988               0.000547940               0.000522965               0.999999988               0.000527582               0.000511801               0.999999988               0.000502036               0.000494510               0.999999988               0.000471455               0.000470547               0.999999988               0.000436225               0.000440109               0.999999988               0.000396942               0.000403941               0.999999988               0.000354625               0.000363031               0.999999988               0.000310480               0.000318874               0.999999988               0.000265827               0.000273325               0.999999988               0.000657029               0.000788681               0.999999988               0.000567264               0.000660349               0.999999988               0.000529267               0.000621036               0.999999988               0.000512827               0.000613789               0.999999988               0.000503995               0.000618063               0.999999988               0.000495985               0.000624407               0.999999988               0.000484925               0.000628568               0.999999988               0.000468472               0.000627624               0.999999988               0.000445509               0.000620379               0.999999988               0.000415807               0.000606879               0.999999988               0.000379591               0.000587119               0.999999988               0.000337399               0.000560716               0.999999988               0.000290137               0.000528534               0.999999988               0.000239135               0.000491611               0.999999988               0.000185851               0.000451531               0.999999988               0.000131580               0.000410190               0.999999988               0.000077621               0.000369521               0.999999988               0.000597483               0.000880069               0.999999988               0.000486233               0.000753814               0.999999988               0.000448569               0.000716223               0.999999988               0.000434338               0.000710584               0.999999988               0.000426402               0.000716213               0.999999988               0.000416710               0.000723259               0.999999988               0.000401323               0.000726870               0.999999988               0.000377941               0.000724622               0.999999988               0.000346182               0.000715537               0.999999988               0.000306107               0.000699911               0.999999988               0.000258188               0.000677985               0.999999988               0.000203552               0.000650196               0.999999988               0.000143763               0.000617878               0.999999988               0.000080456               0.000582647               0.999999988               0.000015187               0.000546428               0.999999988              -0.000050381               0.000510863               0.999999988              -0.000115342               0.000476761               0.999999988               0.000535632               0.000966729               0.999999988               0.000418095               0.000859467               0.999999988               0.000378184               0.000819075               0.999999988               0.000363759               0.000809226               0.999999988               0.000356802               0.000812510               0.999999988               0.000349266               0.000819839               0.999999988               0.000337105               0.000826258               0.999999988               0.000318350               0.000829108               0.999999988               0.000291819               0.000827117               0.999999988               0.000257437               0.000820104               0.999999988               0.000215329               0.000808237               0.999999988               0.000166099               0.000791804               0.999999988               0.000110825               0.000771332               0.999999988               0.000050412               0.000747867               0.999999988              -0.000013980               0.000722605               0.999999988              -0.000080935               0.000697064               0.999999988              -0.000148540               0.000672703               0.999999988               0.000468195               0.001045862               0.999999988               0.000352229               0.000962021               0.999999988               0.000310437               0.000924830               0.999999988               0.000294876               0.000913257               0.999999988               0.000288089               0.000915096               0.999999988               0.000281894               0.000922770               0.999999988               0.000272278               0.000931749               0.999999988               0.000257442               0.000939243               0.999999988               0.000235869               0.000943734               0.999999988               0.000207262               0.000944416               0.999999988               0.000171143               0.000941451               0.999999988               0.000127819               0.000934953               0.999999988               0.000077894               0.000925319               0.999999988               0.000021918               0.000912852               0.999999988              -0.000039546               0.000898380               0.999999988              -0.000105429               0.000882678               0.999999988              -0.000173820               0.000867188               0.999999988               0.000396588               0.001115469               0.999999988               0.000288914               0.001058087               0.999999988               0.000246943               0.001028470               0.999999988               0.000230236               0.001018284               0.999999988               0.000222823               0.001020261               0.999999988               0.000217268               0.001028908               0.999999988               0.000209573               0.001040414               0.999999988               0.000197950               0.001052205               0.999999988               0.000181095               0.001062512               0.999999988               0.000158002               0.001070590               0.999999988               0.000127948               0.001075894               0.999999988               0.000090941               0.001078428               0.999999988               0.000047228               0.001078428               0.999999988              -0.000003064               0.001076123               0.999999988              -0.000060071               0.001071962               0.999999988              -0.000123091               0.001066320               0.999999988              -0.000191100               0.001060169               0.999999988               0.000321491               0.001174295               0.999999988               0.000228091               0.001143824               0.999999988               0.000188628               0.001124713               0.999999988               0.000171576               0.001118628               0.999999988               0.000163627               0.001122402               0.999999988               0.000158373               0.001132783               0.999999988               0.000152112               0.001146860               0.999999988               0.000143160               0.001162645               0.999999988               0.000130381               0.001178478               0.999999988               0.000112613               0.001193313               0.999999988               0.000088849               0.001206465               0.999999988               0.000058566               0.001217692               0.999999988               0.000021722               0.001226905               0.999999988              -0.000021802               0.001234255               0.999999988              -0.000072435               0.001239789               0.999999988              -0.000130518               0.001243844               0.999999988              -0.000196025               0.001246977               0.999999988               0.000243660               0.001221033               0.999999988               0.000169375               0.001215214               0.999999988               0.000135647               0.001207902               0.999999988               0.000119948               0.001207502               0.999999988               0.000112222               0.001214532               0.999999988               0.000107379               0.001227330               0.999999988               0.000102473               0.001244172               0.999999988               0.000095692               0.001263512               0.999999988               0.000086376               0.001284136               0.999999988               0.000073499               0.001305032               0.999999988               0.000056023               0.001325332               0.999999988               0.000032950               0.001344740               0.999999988               0.000004021               0.001362900               0.999999988              -0.000031048               0.001379578               0.999999988              -0.000072956               0.001394668               0.999999988              -0.000122919               0.001408093               0.999999988              -0.000182452               0.001420210               0.999999988               0.000163642               0.001255123               0.999999988               0.000112167               0.001268799               0.999999988               0.000087422               0.001272245               0.999999988               0.000075241               0.001277829               0.999999988               0.000069012               0.001288485               0.999999988               0.000065166               0.001304059               0.999999988               0.000061616               0.001323653               0.999999988               0.000056916               0.001346198               0.999999988               0.000050743               0.001370633               0.999999988               0.000042394               0.001396175               0.999999988               0.000030784               0.001422370               0.999999988               0.000015236               0.001448631               0.999999988              -0.000004702               0.001474555               0.999999988              -0.000029393               0.001499834               0.999999988              -0.000059770               0.001524016               0.999999988              -0.000097271               0.001546649               0.999999988              -0.000144182               0.001567463               0.999999988               0.000082159               0.001275855               0.999999988               0.000055903               0.001302018               0.999999988               0.000042749               0.001312901               0.999999988               0.000036104               0.001323033               0.999999988               0.000032582               0.001336602               0.999999988               0.000030347               0.001354474               0.999999988               0.000028453               0.001376227               0.999999988               0.000026044               0.001401008               0.999999988               0.000023060               0.001428132               0.999999988               0.000018921               0.001457031               0.999999988               0.000013008               0.001487250               0.999999988               0.000005090               0.001518206               0.999999988              -0.000005169               0.001549443               0.999999988              -0.000018076               0.001580571               0.999999988              -0.000034119               0.001611093               0.999999988              -0.000054357               0.001640432               0.999999988              -0.000080327               0.001667843               0.999999988               0.000000000               0.001282694               0.999999988               0.000000000               0.001313219               0.999999988              -0.000000000               0.001326830               0.999999988               0.000000000               0.001338598               0.999999988               0.000000000               0.001353294               0.999999988               0.000000000               0.001372068               0.999999988              -0.000000000               0.001394572               0.999999988               0.000000000               0.001420109               0.999999988               0.000000000               0.001448264               0.999999988               0.000000000               0.001478366               0.999999988               0.000000000               0.001509938               0.999999988              -0.000000000               0.001542552               0.999999988              -0.000000000               0.001575682               0.999999988              -0.000000000               0.001608890               0.999999988              -0.000000000               0.001641607               0.999999988              -0.000000000               0.001673202               0.999999988               0.000000000               0.001702937               0.999999988 </DataArray>
<DataArray type="Float64"                                    Name="defo"                                                      NumberOfComponents=" 3" format="ascii">
             -0.000874765               0.000000000               0.999999988              -0.000920600               0.000000000               0.999999988              -0.000939326               0.000000000               0.999999988              -0.000949301               0.000000000               0.999999988              -0.000957143               0.000000000               0.999999988              -0.000965220              -0.000000000               0.999999988              -0.000974179              -0.000000000               0.999999988              -0.000984049               0.000000000               0.999999988              -0.000994556              -0.000000000               0.999999988              -0.001005441              -0.000000000               0.999999988              -0.001016255              -0.000000000               0.999999988              -0.001026633              -0.000000000               0.999999988              -0.001036279              -0.000000000               0.999999988              -0.001044819               0.000000000               0.999999988              -0.001051702              -0.000000000               0.999999988              -0.001056342              -0.000000000               0.999999988              -0.001058121              -0.000000000               0.999999988              -0.000869925               0.000120703               0.999999988              -0.000911806               0.000095225               0.999999988              -0.000927956               0.000083293               0.999999988              -0.000936186               0.000078017               0.999999988              -0.000942751               0.000075925               0.999999988              -0.000949773               0.000075365               0.999999988              -0.000957776               0.000075280               0.999999988              -0.000966664               0.000074977               0.999999988              -0.000976147               0.000074112               0.999999988              -0.000985897               0.000072208               0.999999988              -0.000995364               0.000069043               0.999999988              -0.001004139               0.000064329               0.999999988              -0.001011920               0.000057667               0.999999988              -0.001018231               0.000048557               0.999999988              -0.001022730               0.000036525               0.999999988              -0.001024984               0.000020660               0.999999988              -0.001024406              -0.000000267               0.999999988              -0.000855763               0.000240383               0.999999988              -0.000885975               0.000190132               0.999999988              -0.000894766               0.000167435               0.999999988              -0.000898325               0.000157947               0.999999988              -0.000901631               0.000154565               0.999999988              -0.000906001               0.000153981               0.999999988              -0.000911477               0.000154158               0.999999988              -0.000917697               0.000153866               0.999999988              -0.000924309               0.000152391               0.999999988              -0.000930715               0.000148901               0.999999988              -0.000936335               0.000142731               0.999999988              -0.000940632               0.000133348               0.999999988              -0.000943175               0.000120228               0.999999988              -0.000943695               0.000102858               0.999999988              -0.000942004               0.000080505               0.999999988              -0.000937848               0.000051967               0.999999988              -0.000931099               0.000015456               0.999999988              -0.000832458               0.000358060               0.999999988              -0.000844207               0.000284540               0.999999988              -0.000842386               0.000253320               0.999999988              -0.000839661               0.000241346               0.999999988              -0.000838661               0.000237953               0.999999988              -0.000839624               0.000238174               0.999999988              -0.000841936               0.000239188               0.999999988              -0.000844670               0.000239144               0.999999988              -0.000847049               0.000237199               0.999999988              -0.000848432               0.000232120               0.999999988              -0.000848076               0.000223022               0.999999988              -0.000845510               0.000209297               0.999999988              -0.000840542               0.000190582               0.999999988              -0.000832984               0.000166451               0.999999988              -0.000822806               0.000136215               0.999999988              -0.000809981               0.000098991               0.999999988              -0.000794797               0.000053850               0.999999988              -0.000800243               0.000472747               0.999999988              -0.000788579               0.000378579               0.999999988              -0.000775003               0.000341521               0.999999988              -0.000765749               0.000329073               0.999999988              -0.000760718               0.000326995               0.999999988              -0.000758380               0.000328813               0.999999988              -0.000757186               0.000330994               0.999999988              -0.000755926               0.000331339               0.999999988              -0.000753324               0.000328596               0.999999988              -0.000748490               0.000321783               0.999999988              -0.000740868               0.000309829               0.999999988              -0.000730210               0.000292273               0.999999988              -0.000716524               0.000268801               0.999999988              -0.000699726               0.000239262               0.999999988              -0.000679823               0.000203386               0.999999988              -0.000657116               0.000160973               0.999999988              -0.000632195               0.000112195               0.999999988              -0.000759791               0.000583423               0.999999988              -0.000721689               0.000472527               0.999999988              -0.000697006               0.000432506               0.999999988              -0.000682816               0.000421122               0.999999988              -0.000675008               0.000421173               0.999999988              -0.000670089               0.000424818               0.999999988              -0.000665723               0.000428110               0.999999988              -0.000660056               0.000428634               0.999999988              -0.000651676               0.000424799               0.999999988              -0.000639677               0.000415929               0.999999988              -0.000623717               0.000401284               0.999999988              -0.000603844               0.000380277               0.999999988              -0.000580060               0.000352802               0.999999988              -0.000552494               0.000319148               0.999999988              -0.000521523               0.000279680               0.999999988              -0.000487901               0.000235033               0.999999988              -0.000452683               0.000186290               0.999999988              -0.000711737               0.000689132               0.999999988              -0.000646705               0.000566516               0.999999988              -0.000613490               0.000525997               0.999999988              -0.000596844               0.000516584               0.999999988              -0.000587822               0.000518953               0.999999988              -0.000581216               0.000524132               0.999999988              -0.000573715               0.000528217               0.999999988              -0.000563099               0.000528327               0.999999988              -0.000547940               0.000522965               0.999999988              -0.000527582               0.000511801               0.999999988              -0.000502036               0.000494510               0.999999988              -0.000471455               0.000470547               0.999999988              -0.000436225               0.000440109               0.999999988              -0.000396942               0.000403941               0.999999988              -0.000354625               0.000363031               0.999999988              -0.000310480               0.000318874               0.999999988              -0.000265827               0.000273325               0.999999988              -0.000657029               0.000788681               0.999999988              -0.000567264               0.000660349               0.999999988              -0.000529267               0.000621036               0.999999988              -0.000512827               0.000613789               0.999999988              -0.000503995               0.000618063               0.999999988              -0.000495985               0.000624407               0.999999988              -0.000484925               0.000628568               0.999999988              -0.000468472               0.000627624               0.999999988              -0.000445509               0.000620379               0.999999988              -0.000415807               0.000606879               0.999999988              -0.000379591               0.000587119               0.999999988              -0.000337399               0.000560716               0.999999988              -0.000290137               0.000528534               0.999999988              -0.000239135               0.000491611               0.999999988              -0.000185851               0.000451531               0.999999988              -0.000131580               0.000410190               0.999999988              -0.000077621               0.000369521               0.999999988              -0.000597483               0.000880069               0.999999988              -0.000486233               0.000753814               0.999999988              -0.000448569               0.000716223               0.999999988              -0.000434338               0.000710584               0.999999988              -0.000426402               0.000716213               0.999999988              -0.000416710               0.000723259               0.999999988              -0.000401323               0.000726870               0.999999988              -0.000377941               0.000724622               0.999999988              -0.000346182               0.000715537               0.999999988              -0.000306107               0.000699911               0.999999988              -0.000258188               0.000677985               0.999999988              -0.000203552               0.000650196               0.999999988              -0.000143763               0.000617878               0.999999988              -0.000080456               0.000582647               0.999999988              -0.000015187               0.000546428               0.999999988               0.000050381               0.000510863               0.999999988               0.000115342               0.000476761               0.999999988              -0.000535632               0.000966729               0.999999988              -0.000418095               0.000859467               0.999999988              -0.000378184               0.000819075               0.999999988              -0.000363759               0.000809226               0.999999988              -0.000356802               0.000812510               0.999999988              -0.000349266               0.000819839               0.999999988              -0.000337105               0.000826258               0.999999988              -0.000318350               0.000829108               0.999999988              -0.000291819               0.000827117               0.999999988              -0.000257437               0.000820104               0.999999988              -0.000215329               0.000808237               0.999999988              -0.000166099               0.000791804               0.999999988              -0.000110825               0.000771332               0.999999988              -0.000050412               0.000747867               0.999999988               0.000013980               0.000722605               0.999999988               0.000080935               0.000697064               0.999999988               0.000148540               0.000672703               0.999999988              -0.000468195               0.001045862               0.999999988              -0.000352229               0.000962021               0.999999988              -0.000310437               0.000924830               0.999999988              -0.000294876               0.000913257               0.999999988              -0.000288089               0.000915096               0.999999988              -0.000281894               0.000922770               0.999999988              -0.000272278               0.000931749               0.999999988              -0.000257442               0.000939243               0.999999988              -0.000235869               0.000943734               0.999999988              -0.000207262               0.000944416               0.999999988              -0.000171143               0.000941451               0.999999988              -0.000127819               0.000934953               0.999999988              -0.000077894               0.000925319               0.999999988              -0.000021918               0.000912852               0.999999988               0.000039546               0.000898380               0.999999988               0.000105429               0.000882678               0.999999988               0.000173820               0.000867188               0.999999988              -0.000396588               0.001115469               0.999999988              -0.000288914               0.001058087               0.999999988              -0.000246943               0.001028470               0.999999988              -0.000230236               0.001018284               0.999999988              -0.000222823               0.001020261               0.999999988              -0.000217268               0.001028908               0.999999988              -0.000209573               0.001040414               0.999999988              -0.000197950               0.001052205               0.999999988              -0.000181095               0.001062512               0.999999988              -0.000158002               0.001070590               0.999999988              -0.000127948               0.001075894               0.999999988              -0.000090941               0.001078428               0.999999988              -0.000047228               0.001078428               0.999999988               0.000003064               0.001076123               0.999999988               0.000060071               0.001071962               0.999999988               0.000123091               0.001066320               0.999999988               0.000191100               0.001060169               0.999999988              -0.000321491               0.001174295               0.999999988              -0.000228091               0.001143824               0.999999988              -0.000188628               0.001124713               0.999999988              -0.000171576               0.001118628               0.999999988              -0.000163627               0.001122402               0.999999988              -0.000158373               0.001132783               0.999999988              -0.000152112               0.001146860               0.999999988              -0.000143160               0.001162645               0.999999988              -0.000130381               0.001178478               0.999999988              -0.000112613               0.001193313               0.999999988              -0.000088849               0.001206465               0.999999988              -0.000058566               0.001217692               0.999999988              -0.000021722               0.001226905               0.999999988               0.000021802               0.001234255               0.999999988               0.000072435               0.001239789               0.999999988               0.000130518               0.001243844               0.999999988               0.000196025               0.001246977               0.999999988              -0.000243660               0.001221033               0.999999988              -0.000169375               0.001215214               0.999999988              -0.000135647               0.001207902               0.999999988              -0.000119948               0.001207502               0.999999988              -0.000112222               0.001214532               0.999999988              -0.000107379               0.001227330               0.999999988              -0.000102473               0.001244172               0.999999988              -0.000095692               0.001263512               0.999999988              -0.000086376               0.001284136               0.999999988              -0.000073499               0.001305032               0.999999988              -0.000056023               0.001325332               0.999999988              -0.000032950               0.001344740               0.999999988              -0.000004021               0.001362900               0.999999988               0.000031048               0.001379578               0.999999988               0.000072956               0.001394668               0.999999988               0.000122919               0.001408093               0.999999988               0.000182452               0.001420210               0.999999988              -0.000163642               0.001255123               0.999999988              -0.000112167               0.001268799               0.999999988              -0.000087422               0.001272245               0.999999988              -0.000075241               0.001277829               0.999999988              -0.000069012               0.001288485               0.999999988              -0.000065166               0.001304059               0.999999988              -0.000061616               0.001323653               0.999999988              -0.000056916               0.001346198               0.999999988              -0.000050743               0.001370633               0.999999988              -0.000042394               0.001396175               0.999999988              -0.000030784               0.001422370               0.999999988              -0.000015236               0.001448631               0.999999988               0.000004702               0.001474555               0.999999988               0.000029393               0.001499834               0.999999988               0.000059770               0.001524016               0.999999988               0.000097271               0.001546649               0.999999988               0.000144182               0.001567463               0.999999988              -0.000082159               0.001275855               0.999999988              -0.000055903               0.001302018               0.999999988              -0.000042749               0.001312901               0.999999988              -0.000036104               0.001323033               0.999999988              -0.000032582               0.001336602               0.999999988              -0.000030347               0.001354474               0.999999988              -0.000028453               0.001376227               0.999999988              -0.000026044               0.001401008               0.999999988              -0.000023060               0.001428132               0.999999988              -0.000018921               0.001457031               0.999999988              -0.000013008               0.001487250               0.999999988              -0.000005090               0.001518206               0.999999988               0.000005169               0.001549443               0.999999988               0.000018076               0.001580571               0.999999988               0.000034119               0.001611093               0.999999988               0.000054357               0.001640432               0.999999988               0.000080327               0.001667843               0.999999988               0.000000000               0.001282694               0.999999988               0.000000000               0.001313219               0.999999988              -0.000000000               0.001326830               0.999999988               0.000000000               0.001338598               0.999999988               0.000000000               0.001353294               0.999999988               0.000000000               0.001372068               0.999999988              -0.000000000               0.001394572               0.999999988               0.000000000               0.001420109               0.999999988               0.000000000               0.001448264               0.999999988               0.000000000               0.001478366               0.999999988               0.000000000               0.001509938               0.999999988              -0.000000000               0.001542552               0.999999988              -0.000000000               0.001575682               0.999999988              -0.000000000               0.001608890               0.999999988              -0.000000000               0.001641607               0.999999988              -0.000000000               0.001673202               0.999999988               0.000000000               0.001702937               0.999999988              -0.000874765               0.000000000               0.999999988              -0.000920600               0.000000000               0.999999988              -0.000939326               0.000000000               0.999999988              -0.000949301               0.000000000               0.999999988              -0.000957143               0.000000000               0.999999988              -0.000965220              -0.000000000               0.999999988              -0.000974179              -0.000000000               0.999999988              -0.000984049               0.000000000               0.999999988              -0.000994556              -0.000000000               0.999999988              -0.001005441              -0.000000000               0.999999988              -0.001016255              -0.000000000               0.999999988              -0.001026633              -0.000000000               0.999999988              -0.001036279              -0.000000000               0.999999988              -0.001044819               0.000000000               0.999999988              -0.001051702              -0.000000000               0.999999988              -0.001056342              -0.000000000               0.999999988              -0.001058121              -0.000000000               0.999999988              -0.000869925              -0.000120703               0.999999988              -0.000911806              -0.000095225               0.999999988              -0.000927956              -0.000083293               0.999999988              -0.000936186              -0.000078017               0.999999988              -0.000942751              -0.000075925               0.999999988              -0.000949773              -0.000075365               0.999999988              -0.000957776              -0.000075280               0.999999988              -0.000966664              -0.000074977               0.999999988              -0.000976147              -0.000074112               0.999999988              -0.000985897              -0.000072208               0.999999988              -0.000995364              -0.000069043               0.999999988              -0.001004139              -0.000064329               0.999999988              -0.001011920              -0.000057667               0.999999988              -0.001018231              -0.000048557               0.999999988              -0.001022730              -0.000036525               0.999999988              -0.001024984              -0.000020660               0.999999988              -0.001024406               0.000000267               0.999999988              -0.000855763              -0.000240383               0.999999988              -0.000885975              -0.000190132               0.999999988              -0.000894766              -0.000167435               0.999999988              -0.000898325              -0.000157947               0.999999988              -0.000901631              -0.000154565               0.999999988              -0.000906001              -0.000153981               0.999999988              -0.000911477              -0.000154158               0.999999988              -0.000917697              -0.000153866               0.999999988              -0.000924309              -0.000152391               0.999999988              -0.000930715              -0.000148901               0.999999988              -0.000936335              -0.000142731               0.999999988              -0.000940632              -0.000133348               0.999999988              -0.000943175              -0.000120228               0.999999988              -0.000943695              -0.000102858               0.999999988              -0.000942004              -0.000080505               0.999999988              -0.000937848              -0.000051967               0.999999988              -0.000931099              -0.000015456               0.999999988              -0.000832458              -0.000358060               0.999999988              -0.000844207              -0.000284540               0.999999988              -0.000842386              -0.000253320               0.999999988              -0.000839661              -0.000241346               0.999999988              -0.000838661              -0.000237953               0.999999988              -0.000839624              -0.000238174               0.999999988              -0.000841936              -0.000239188               0.999999988              -0.000844670              -0.000239144               0.999999988              -0.000847049              -0.000237199               0.999999988              -0.000848432              -0.000232120               0.999999988              -0.000848076              -0.000223022               0.999999988              -0.000845510              -0.000209297               0.999999988              -0.000840542              -0.000190582               0.999999988              -0.000832984              -0.000166451               0.999999988              -0.000822806              -0.000136215               0.999999988              -0.000809981              -0.000098991               0.999999988              -0.000794797              -0.000053850               0.999999988              -0.000800243              -0.000472747               0.999999988              -0.000788579              -0.000378579               0.999999988              -0.000775003              -0.000341521               0.999999988              -0.000765749              -0.000329073               0.999999988              -0.000760718              -0.000326995               0.999999988              -0.000758380              -0.000328813               0.999999988              -0.000757186              -0.000330994               0.999999988              -0.000755926              -0.000331339               0.999999988              -0.000753324              -0.000328596               0.999999988              -0.000748490              -0.000321783               0.999999988              -0.000740868              -0.000309829               0.999999988              -0.000730210              -0.000292273               0.999999988              -0.000716524              -0.000268801               0.999999988              -0.000699726              -0.000239262               0.999999988              -0.000679823              -0.000203386               0.999999988              -0.000657116              -0.000160973               0.999999988              -0.000632195              -0.000112195               0.999999988              -0.000759791              -0.000583423               0.999999988              -0.000721689              -0.000472527               0.999999988              -0.000697006              -0.000432506               0.999999988              -0.000682816              -0.000421122               0.999999988              -0.000675008              -0.000421173               0.999999988              -0.000670089              -0.000424818               0.999999988              -0.000665723              -0.000428110               0.999999988              -0.000660056              -0.000428634               0.999999988              -0.000651676              -0.000424799               0.999999988              -0.000639677              -0.000415929               0.999999988              -0.000623717              -0.000401284               0.999999988              -0.000603844              -0.000380277               0.999999988              -0.000580060              -0.000352802               0.999999988              -0.000552494              -0.000319148               0.999999988              -0.000521523              -0.000279680               0.999999988              -0.000487901              -0.000235033               0.999999988              -0.000452683              -0.000186290               0.999999988              -0.000711737              -0.000689132               0.999999988              -0.000646705              -0.000566516               0.999999988              -0.000613490              -0.000525997               0.999999988              -0.000596844              -0.000516584               0.999999988              -0.000587822              -0.000518953               0.999999988              -0.000581216              -0.000524132               0.999999988              -0.000573715              -0.000528217               0.999999988              -0.000563099              -0.000528327               0.999999988              -0.000547940              -0.000522965               0.999999988              -0.000527582              -0.000511801               0.999999988              -0.000502036              -0.000494510               0.999999988              -0.000471455              -0.000470547               0.999999988              -0.000436225              -0.000440109               0.999999988              -0.000396942              -0.000403941               0.999999988              -0.000354625              -0.000363031               0.999999988              -0.000310480              -0.000318874               0.999999988              -0.000265827              -0.000273325               0.999999988              -0.000657029              -0.000788681               0.999999988              -0.000567264              -0.000660349               0.999999988              -0.000529267              -0.000621036               0.999999988              -0.000512827              -0.000613789               0.999999988              -0.000503995              -0.000618063               0.999999988              -0.000495985              -0.000624407               0.999999988              -0.000484925              -0.000628568               0.999999988              -0.000468472              -0.000627624               0.999999988              -0.000445509              -0.000620379               0.999999988              -0.000415807              -0.000606879               0.999999988              -0.000379591              -0.000587119               0.999999988              -0.000337399              -0.000560716               0.999999988              -0.000290137              -0.000528534               0.999999988              -0.000239135              -0.000491611               0.999999988              -0.000185851              -0.000451531               0.999999988              -0.000131580              -0.000410190               0.999999988              -0.000077621              -0.000369521               0.999999988              -0.000597483              -0.000880069               0.999999988              -0.000486233              -0.000753814               0.999999988              -0.000448569              -0.000716223               0.999999988              -0.000434338              -0.000710584               0.999999988              -0.000426402              -0.000716213               0.999999988              -0.000416710              -0.000723259               0.999999988              -0.000401323              -0.000726870               0.999999988              -0.000377941              -0.000724622               0.999999988              -0.000346182              -0.000715537               0.999999988              -0.000306107              -0.000699911               0.999999988              -0.000258188              -0.000677985               0.999999988              -0.000203552              -0.000650196               0.999999988              -0.000143763              -0.000617878               0.999999988              -0.000080456              -0.000582647               0.999999988              -0.000015187              -0.000546428               0.999999988               0.000050381              -0.000510863               0.999999988               0.000115342              -0.000476761               0.999999988              -0.000535632              -0.000966729               0.999999988              -0.000418095              -0.000859467               0.999999988              -0.000378184              -0.000819075               0.999999988              -0.000363759              -0.000809226               0.999999988              -0.000356802              -0.000812510               0.999999988              -0.000349266              -0.000819839               0.999999988              -0.000337105              -0.000826258               0.999999988              -0.000318350              -0.000829108               0.999999988              -0.000291819              -0.000827117               0.999999988              -0.000257437              -0.000820104               0.999999988              -0.000215329              -0.000808237               0.999999988              -0.000166099              -0.000791804               0.999999988              -0.000110825              -0.000771332               0.999999988              -0.000050412              -0.000747867               0.999999988               0.000013980              -0.000722605               0.999999988               0.000080935              -0.000697064               0.999999988               0.000148540              -0.000672703               0.999999988              -0.000468195              -0.001045862               0.999999988              -0.000352229              -0.000962021               0.999999988              -0.000310437              -0.000924830               0.999999988              -0.000294876              -0.000913257               0.999999988              -0.000288089              -0.000915096               0.999999988              -0.000281894              -0.000922770               0.999999988              -0.000272278              -0.000931749               0.999999988              -0.000257442              -0.000939243               0.999999988              -0.000235869              -0.000943734               0.999999988              -0.000207262              -0.000944416               0.999999988              -0.000171143              -0.000941451               0.999999988              -0.000127819              -0.000934953               0.999999988              -0.000077894              -0.000925319               0.999999988              -0.000021918              -0.000912852               0.999999988               0.000039546              -0.000898380               0.999999988               0.000105429              -0.000882678               0.999999988               0.000173820              -0.000867188               0.999999988              -0.000396588              -0.001115469               0.999999988              -0.000288914              -0.001058087               0.999999988              -0.000246943              -0.001028470               0.999999988              -0.000230236              -0.001018284               0.999999988              -0.000222823              -0.001020261               0.999999988              -0.000217268              -0.001028908               0.999999988              -0.000209573              -0.001040414               0.999999988              -0.000197950              -0.001052205               0.999999988              -0.000181095              -0.001062512               0.999999988              -0.000158002              -0.001070590               0.999999988              -0.000127948              -0.001075894               0.999999988              -0.000090941              -0.001078428               0.999999988              -0.000047228              -0.001078428               0.999999988               0.000003064              -0.001076123               0.999999988               0.000060071              -0.001071962               0.999999988               0.000123091              -0.001066320               0.999999988               0.000191100              -0.001060169               0.999999988              -0.000321491              -0.001174295               0.999999988              -0.000228091              -0.001143824               0.999999988              -0.000188628              -0.001124713               0.999999988              -0.000171576              -0.001118628               0.999999988              -0.000163627              -0.001122402               0.999999988              -0.000158373              -0.001132783               0.999999988              -0.000152112              -0.001146860               0.999999988              -0.000143160              -0.001162645               0.999999988              -0.000130381              -0.001178478               0.999999988              -0.000112613              -0.001193313               0.999999988              -0.000088849              -0.001206465               0.999999988              -0.000058566              -0.001217692               0.999999988              -0.000021722              -0.001226905               0.999999988               0.000021802              -0.001234255               0.999999988               0.000072435              -0.001239789               0.999999988               0.000130518              -0.001243844               0.999999988               0.000196025              -0.001246977               0.999999988              -0.000243660              -0.001221033               0.999999988              -0.000169375              -0.001215214               0.999999988              -0.000135647              -0.001207902               0.999999988              -0.000119948              -0.001207502               0.999999988              -0.000112222              -0.001214532               0.999999988              -0.000107379              -0.001227330               0.999999988              -0.000102473              -0.001244172               0.999999988              -0.000095692              -0.001263512               0.999999988              -0.000086376              -0.001284136               0.999999988              -0.000073499              -0.001305032               0.999999988              -0.000056023              -0.001325332               0.999999988              -0.000032950              -0.001344740               0.999999988              -0.000004021              -0.001362900               0.999999988               0.000031048              -0.001379578               0.999999988               0.000072956              -0.001394668               0.999999988               0.000122919              -0.001408093               0.999999988               0.000182452              -0.001420210               0.999999988              -0.000163642              -0.001255123               0.999999988              -0.000112167              -0.001268799               0.999999988              -0.000087422              -0.001272245               0.999999988              -0.000075241              -0.001277829               0.999999988              -0.000069012              -0.001288485               0.999999988              -0.000065166              -0.001304059               0.999999988              -0.000061616              -0.001323653               0.999999988              -0.000056916              -0.001346198               0.999999988              -0.000050743              -0.001370633               0.999999988              -0.000042394              -0.001396175               0.999999988              -0.000030784              -0.001422370               0.999999988              -0.000015236              -0.001448631               0.999999988               0.000004702              -0.001474555               0.999999988               0.000029393              -0.001499834               0.999999988               0.000059770              -0.001524016               0.999999988               0.000097271              -0.001546649               0.999999988               0.000144182              -0.001567463               0.999999988              -0.000082159              -0.001275855               0.999999988              -0.000055903              -0.001302018               0.999999988              -0.000042749              -0.001312901               0.999999988              -0.000036104              -0.001323033               0.999999988              -0.000032582              -0.001336602               0.999999988              -0.000030347              -0.001354474               0.999999988              -0.000028453              -0.001376227               0.999999988              -0.000026044              -0.001401008               0.999999988              -0.000023060              -0.001428132               0.999999988              -0.000018921              -0.001457031               0.999999988              -0.000013008              -0.001487250               0.999999988              -0.000005090              -0.001518206               0.999999988               0.000005169              -0.001549443               0.999999988               0.000018076              -0.001580571               0.999999988               0.000034119              -0.001611093               0.999999988               0.000054357              -0.001640432               0.999999988               0.000080327              -0.001667843               0.999999988               0.000000000              -0.001282694               0.999999988              -0.000000000              -0.001313219               0.999999988              -0.000000000              -0.001326830               0.999999988               0.000000000              -0.001338598               0.999999988               0.000000000              -0.001353294               0.999999988               0.000000000              -0.001372068               0.999999988               0.000000000              -0.001394572               0.999999988              -0.000000000              -0.001420109               0.999999988              -0.000000000              -0.001448264               0.999999988              -0.000000000              -0.001478366               0.999999988               0.000000000              -0.001509938               0.999999988              -0.000000000              -0.001542552               0.999999988              -0.000000000              -0.001575682               0.999999988               0.000000000              -0.001608890               0.999999988               0.000000000              -0.001641607               0.999999988              -0.000000000              -0.001673202               0.999999988              -0.000000000              -0.001702937               0.999999988               0.000874765               0.000000000               0.999999988               0.000920600               0.000000000               0.999999988               0.000939326               0.000000000               0.999999988               0.000949301              -0.000000000               0.999999988               0.000957143               0.000000000               0.999999988               0.000965220               0.000000000               0.999999988               0.000974179               0.000000000               0.999999988               0.000984049               0.000000000               0.999999988               0.000994556               0.000000000               0.999999988               0.001005441               0.000000000               0.999999988               0.001016255               0.000000000               0.999999988               0.001026633              -0.000000000               0.999999988               0.001036279              -0.000000000               0.999999988               0.001044819              -0.000000000               0.999999988               0.001051702               0.000000000               0.999999988               0.001056342               0.000000000               0.999999988               0.001058121              -0.000000000               0.999999988               0.000869925              -0.000120703               0.999999988               0.000911806              -0.000095225               0.999999988               0.000927956              -0.000083293               0.999999988               0.000936186              -0.000078017               0.999999988               0.000942751              -0.000075925               0.999999988               0.000949773              -0.000075365               0.999999988               0.000957776              -0.000075280               0.999999988               0.000966664              -0.000074977               0.999999988               0.000976147              -0.000074112               0.999999988               0.000985897              -0.000072208               0.999999988               0.000995364              -0.000069043               0.999999988               0.001004139              -0.000064329               0.999999988               0.001011920              -0.000057667               0.999999988               0.001018231              -0.000048557               0.999999988               0.001022730              -0.000036525               0.999999988               0.001024984              -0.000020660               0.999999988               0.001024406               0.000000267               0.999999988               0.000855763              -0.000240383               0.999999988               0.000885975              -0.000190132               0.999999988               0.000894766              -0.000167435               0.999999988               0.000898325              -0.000157947               0.999999988               0.000901631              -0.000154565               0.999999988               0.000906001              -0.000153981               0.999999988               0.000911477              -0.000154158               0.999999988               0.000917697              -0.000153866               0.999999988               0.000924309              -0.000152391               0.999999988               0.000930715              -0.000148901               0.999999988               0.000936335              -0.000142731               0.999999988               0.000940632              -0.000133348               0.999999988               0.000943175              -0.000120228               0.999999988               0.000943695              -0.000102858               0.999999988               0.000942004              -0.000080505               0.999999988               0.000937848              -0.000051967               0.999999988               0.000931099              -0.000015456               0.999999988               0.000832458              -0.000358060               0.999999988               0.000844207              -0.000284540               0.999999988               0.000842386              -0.000253320               0.999999988               0.000839661              -0.000241346               0.999999988               0.000838661              -0.000237953               0.999999988               0.000839624              -0.000238174               0.999999988               0.000841936              -0.000239188               0.999999988               0.000844670              -0.000239144               0.999999988               0.000847049              -0.000237199               0.999999988               0.000848432              -0.000232120               0.999999988               0.000848076              -0.000223022               0.999999988               0.000845510              -0.000209297               0.999999988               0.000840542              -0.000190582               0.999999988               0.000832984              -0.000166451               0.999999988               0.000822806              -0.000136215               0.999999988               0.000809981              -0.000098991               0.999999988               0.000794797              -0.000053850               0.999999988               0.000800243              -0.000472747               0.999999988               0.000788579              -0.000378579               0.999999988               0.000775003              -0.000341521               0.999999988               0.000765749              -0.000329073               0.999999988               0.000760718              -0.000326995               0.999999988               0.000758380              -0.000328813               0.999999988               0.000757186              -0.000330994               0.999999988               0.000755926              -0.000331339               0.999999988               0.000753324              -0.000328596               0.999999988               0.000748490              -0.000321783               0.999999988               0.000740868              -0.000309829               0.999999988               0.000730210              -0.000292273               0.999999988               0.000716524              -0.000268801               0.999999988               0.000699726              -0.000239262               0.999999988               0.000679823              -0.000203386               0.999999988               0.000657116              -0.000160973               0.999999988               0.000632195              -0.000112195               0.999999988               0.000759791              -0.000583423               0.999999988               0.000721689              -0.000472527               0.999999988               0.000697006              -0.000432506               0.999999988               0.000682816              -0.000421122               0.999999988               0.000675008              -0.000421173               0.999999988               0.000670089              -0.000424818               0.999999988               0.000665723              -0.000428110               0.999999988               0.000660056              -0.000428634               0.999999988               0.000651676              -0.000424799               0.999999988               0.000639677              -0.000415929               0.999999988               0.000623717              -0.000401284               0.999999988               0.000603844              -0.000380277               0.999999988               0.000580060              -0.000352802               0.999999988               0.000552494              -0.000319148               0.999999988               0.000521523              -0.000279680               0.999999988               0.000487901              -0.000235033               0.999999988               0.000452683              -0.000186290               0.999999988               0.000711737              -0.000689132               0.999999988               0.000646705              -0.000566516               0.999999988               0.000613490              -0.000525997               0.999999988               0.000596844              -0.000516584               0.999999988               0.000587822              -0.000518953               0.999999988               0.000581216              -0.000524132               0.999999988               0.000573715              -0.000528217               0.999999988               0.000563099              -0.000528327               0.999999988               0.000547940              -0.000522965               0.999999988               0.000527582              -0.000511801               0.999999988               0.000502036              -0.000494510               0.999999988               0.000471455              -0.000470547               0.999999988               0.000436225              -0.000440109               0.999999988               0.000396942              -0.000403941               0.999999988               0.000354625              -0.000363031               0.999999988               0.000310480              -0.000318874               0.999999988               0.000265827              -0.000273325               0.999999988               0.000657029              -0.000788681               0.999999988               0.000567264              -0.000660349               0.999999988               0.000529267              -0.000621036               0.999999988               0.000512827              -0.000613789               0.999999988               0.000503995              -0.000618063               0.999999988               0.000495985              -0.000624407               0.999999988               0.000484925              -0.000628568               0.999999988               0.000468472              -0.000627624               0.999999988               0.000445509              -0.000620379               0.999999988               0.000415807              -0.000606879               0.999999988               0.000379591              -0.000587119               0.999999988               0.000337399              -0.000560716               0.999999988               0.000290137              -0.000528534               0.999999988               0.000239135              -0.000491611               0.999999988               0.000185851              -0.000451531               0.999999988               0.000131580              -0.000410190               0.999999988               0.000077621              -0.000369521               0.999999988               0.000597483              -0.000880069               0.999999988               0.000486233              -0.000753814               0.999999988               0.000448569              -0.000716223               0.999999988               0.000434338              -0.000710584               0.999999988               0.000426402              -0.000716213               0.999999988               0.000416710              -0.000723259               0.999999988               0.000401323              -0.000726870               0.999999988               0.000377941              -0.000724622               0.999999988               0.000346182              -0.000715537               0.999999988               0.000306107              -0.000699911               0.999999988               0.000258188              -0.000677985               0.999999988               0.000203552              -0.000650196               0.999999988               0.000143763              -0.000617878               0.999999988               0.000080456              -0.000582647               0.999999988               0.000015187              -0.000546428               0.999999988              -0.000050381              -0.000510863               0.999999988              -0.000115342              -0.000476761               0.999999988               0.000535632              -0.000966729               0.999999988               0.000418095              -0.000859467               0.999999988               0.000378184              -0.000819075               0.999999988               0.000363759              -0.000809226               0.999999988               0.000356802              -0.000812510               0.999999988               0.000349266              -0.000819839               0.999999988               0.000337105              -0.000826258               0.999999988               0.000318350              -0.000829108               0.999999988               0.000291819              -0.000827117               0.999999988               0.000257437              -0.000820104               0.999999988               0.000215329              -0.000808237               0.999999988               0.000166099              -0.000791804               0.999999988               0.000110825              -0.000771332               0.999999988               0.000050412              -0.000747867               0.999999988              -0.000013980              -0.000722605               0.999999988              -0.000080935              -0.000697064               0.999999988              -0.000148540              -0.000672703               0.999999988               0.000468195              -0.001045862               0.999999988               0.000352229              -0.000962021               0.999999988               0.000310437              -0.000924830               0.999999988               0.000294876              -0.000913257               0.999999988               0.000288089              -0.000915096               0.999999988               0.000281894              -0.000922770               0.999999988               0.000272278              -0.000931749               0.999999988               0.000257442              -0.000939243               0.999999988               0.000235869              -0.000943734               0.999999988               0.000207262              -0.000944416               0.999999988               0.000171143              -0.000941451               0.999999988               0.000127819              -0.000934953               0.999999988               0.000077894              -0.000925319               0.999999988               0.000021918              -0.000912852               0.999999988              -0.000039546              -0.000898380               0.999999988              -0.000105429              -0.000882678               0.999999988              -0.000173820              -0.000867188               0.999999988               0.000396588              -0.001115469               0.999999988               0.000288914              -0.001058087               0.999999988               0.000246943              -0.001028470               0.999999988               0.000230236              -0.001018284               0.999999988               0.000222823              -0.001020261               0.999999988               0.000217268              -0.001028908               0.999999988               0.000209573              -0.001040414               0.999999988               0.000197950              -0.001052205               0.999999988               0.000181095              -0.001062512               0.999999988               0.000158002              -0.001070590               0.999999988               0.000127948              -0.001075894               0.999999988               0.000090941              -0.001078428               0.999999988               0.000047228              -0.001078428               0.999999988              -0.000003064              -0.001076123               0.999999988              -0.000060071              -0.001071962               0.999999988              -0.000123091              -0.001066320               0.999999988              -0.000191100              -0.001060169               0.999999988               0.000321491              -0.001174295               0.999999988               0.000228091              -0.001143824               0.999999988               0.000188628              -0.001124713               0.999999988               0.000171576              -0.001118628               0.999999988               0.000163627              -0.001122402               0.999999988               0.000158373              -0.001132783               0.999999988               0.000152112              -0.001146860               0.999999988               0.000143160              -0.001162645               0.999999988               0.000130381              -0.001178478               0.999999988               0.000112613              -0.001193313               0.999999988               0.000088849              -0.001206465               0.999999988               0.000058566              -0.001217692               0.999999988               0.000021722              -0.001226905               0.999999988              -0.000021802              -0.001234255               0.999999988              -0.000072435              -0.001239789               0.999999988              -0.000130518              -0.001243844               0.999999988              -0.000196025              -0.001246977               0.999999988               0.000243660              -0.001221033               0.999999988               0.000169375              -0.001215214               0.999999988               0.000135647              -0.001207902               0.999999988               0.000119948              -0.001207502               0.999999988               0.000112222              -0.001214532               0.999999988               0.000107379              -0.001227330               0.999999988               0.000102473              -0.001244172               0.999999988               0.000095692              -0.001263512               0.999999988               0.000086376              -0.001284136               0.999999988               0.000073499              -0.001305032               0.999999988               0.000056023              -0.001325332               0.999999988               0.000032950              -0.001344740               0.999999988               0.000004021              -0.001362900               0.999999988              -0.000031048              -0.001379578               0.999999988              -0.000072956              -0.001394668               0.999999988              -0.000122919              -0.001408093               0.999999988              -0.000182452              -0.001420210               0.999999988               0.000163642              -0.001255123               0.999999988               0.000112167              -0.001268799               0.999999988               0.000087422              -0.001272245               0.999999988               0.000075241              -0.001277829               0.999999988               0.000069012              -0.001288485               0.999999988               0.000065166              -0.001304059               0.999999988               0.000061616              -0.001323653               0.999999988               0.000056916              -0.001346198               0.999999988               0.000050743              -0.001370633               0.999999988               0.000042394              -0.001396175               0.999999988               0.000030784              -0.001422370               0.999999988               0.000015236              -0.001448631               0.999999988              -0.000004702              -0.001474555               0.999999988              -0.000029393              -0.001499834               0.999999988              -0.000059770              -0.001524016               0.999999988              -0.000097271              -0.001546649               0.999999988              -0.000144182              -0.001567463               0.999999988               0.000082159              -0.001275855               0.999999988               0.000055903              -0.001302018               0.999999988               0.000042749              -0.001312901               0.999999988               0.000036104              -0.001323033               0.999999988               0.000032582              -0.001336602               0.999999988               0.000030347              -0.001354474               0.999999988               0.000028453              -0.001376227               0.999999988               0.000026044              -0.001401008               0.999999988               0.000023060              -0.001428132               0.999999988               0.000018921              -0.001457031               0.999999988               0.000013008              -0.001487250               0.999999988               0.000005090              -0.001518206               0.999999988              -0.000005169              -0.001549443               0.999999988              -0.000018076              -0.001580571               0.999999988              -0.000034119              -0.001611093               0.999999988              -0.000054357              -0.001640432               0.999999988              -0.000080327              -0.001667843               0.999999988               0.000000000              -0.001282694               0.999999988              -0.000000000              -0.001313219               0.999999988              -0.000000000              -0.001326830               0.999999988               0.000000000              -0.001338598               0.999999988               0.000000000              -0.001353294               0.999999988               0.000000000              -0.001372068               0.999999988               0.000000000              -0.001394572               0.999999988              -0.000000000              -0.001420109               0.999999988              -0.000000000              -0.001448264               0.999999988              -0.000000000              -0.001478366               0.999999988               0.000000000              -0.001509938               0.999999988              -0.000000000              -0.001542552               0.999999988              -0.000000000              -0.001575682               0.999999988               0.000000000              -0.001608890               0.999999988               0.000000000              -0.001641607               0.999999988              -0.000000000              -0.001673202               0.999999988              -0.000000000              -0.001702937               0.999999988               0.000874765               0.000000000               0.999999988               0.000920600               0.000000000               0.999999988               0.000939326               0.000000000               0.999999988               0.000949301              -0.000000000               0.999999988               0.000957143               0.000000000               0.999999988               0.000965220               0.000000000               0.999999988               0.000974179               0.000000000               0.999999988               0.000984049               0.000000000               0.999999988               0.000994556               0.000000000               0.999999988               0.001005441               0.000000000               0.999999988               0.001016255               0.000000000               0.999999988               0.001026633              -0.000000000               0.999999988               0.001036279              -0.000000000               0.999999988               0.001044819              -0.000000000               0.999999988               0.001051702               0.000000000               0.999999988               0.001056342               0.000000000               0.999999988               0.001058121              -0.000000000               0.999999988               0.000869925               0.000120703               0.999999988               0.000911806               0.000095225               0.999999988               0.000927956               0.000083293               0.999999988               0.000936186               0.000078017               0.999999988               0.000942751               0.000075925               0.999999988               0.000949773               0.000075365               0.999999988               0.000957776               0.000075280               0.999999988               0.000966664               0.000074977               0.999999988               0.000976147               0.000074112               0.999999988               0.000985897               0.000072208               0.999999988               0.000995364               0.000069043               0.999999988               0.001004139               0.000064329               0.999999988               0.001011920               0.000057667               0.999999988               0.001018231               0.000048557               0.999999988               0.001022730               0.000036525               0.999999988               0.001024984               0.000020660               0.999999988               0.001024406              -0.000000267               0.999999988               0.000855763               0.000240383               0.999999988               0.000885975               0.000190132               0.999999988               0.000894766               0.000167435               0.999999988               0.000898325               0.000157947               0.999999988               0.000901631               0.000154565               0.999999988               0.000906001               0.000153981               0.999999988               0.000911477               0.000154158               0.999999988               0.000917697               0.000153866               0.999999988               0.000924309               0.000152391               0.999999988               0.000930715               0.000148901               0.999999988               0.000936335               0.000142731               0.999999988               0.000940632               0.000133348               0.999999988               0.000943175               0.000120228               0.999999988               0.000943695               0.000102858               0.999999988               0.000942004               0.000080505               0.999999988               0.000937848               0.000051967               0.999999988               0.000931099               0.000015456               0.999999988               0.000832458               0.000358060               0.999999988               0.000844207               0.000284540               0.999999988               0.000842386               0.000253320               0.999999988               0.000839661               0.000241346               0.999999988               0.000838661               0.000237953               0.999999988               0.000839624               0.000238174               0.999999988               0.000841936               0.000239188               0.999999988               0.000844670               0.000239144               0.999999988               0.000847049               0.000237199               0.999999988               0.000848432               0.000232120               0.999999988               0.000848076               0.000223022               0.999999988               0.000845510               0.000209297               0.999999988               0.000840542               0.000190582               0.999999988               0.000832984               0.000166451               0.999999988               0.000822806               0.000136215               0.999999988               0.000809981               0.000098991               0.999999988               0.000794797               0.000053850               0.999999988               0.000800243               0.000472747               0.999999988               0.000788579               0.000378579               0.999999988               0.000775003               0.000341521               0.999999988               0.000765749               0.000329073               0.999999988               0.000760718               0.000326995               0.999999988               0.000758380               0.000328813               0.999999988               0.000757186               0.000330994               0.999999988               0.000755926               0.000331339               0.999999988               0.000753324               0.000328596               0.999999988               0.000748490               0.000321783               0.999999988               0.000740868               0.000309829               0.999999988               0.000730210               0.000292273               0.999999988               0.000716524               0.000268801               0.999999988               0.000699726               0.000239262               0.999999988               0.000679823               0.000203386               0.999999988               0.000657116               0.000160973               0.999999988               0.000632195               0.000112195               0.999999988               0.000759791               0.000583423               0.999999988               0.000721689               0.000472527               0.999999988               0.000697006               0.000432506               0.999999988               0.000682816               0.000421122               0.999999988               0.000675008               0.000421173               0.999999988               0.000670089               0.000424818               0.999999988               0.000665723               0.000428110               0.999999988               0.000660056               0.000428634               0.999999988               0.000651676               0.000424799               0.999999988               0.000639677               0.000415929               0.999999988               0.000623717               0.000401284               0.999999988               0.000603844               0.000380277               0.999999988               0.000580060               0.000352802               0.999999988               0.000552494               0.000319148               0.999999988               0.000521523               0.000279680               0.999999988               0.000487901               0.000235033               0.999999988               0.000452683               0.000186290               0.999999988               0.000711737               0.000689132               0.999999988               0.000646705               0.000566516               0.999999988               0.000613490               0.000525997               0.999999988               0.000596844               0.000516584               0.999999988               0.000587822               0.000518953               0.999999988               0.000581216               0.000524132               0.999999988               0.000573715               0.000528217               0.999999988               0.000563099               0.000528327               0.999999988               0.000547940               0.000522965               0.999999988               0.000527582               0.000511801               0.999999988               0.000502036               0.000494510               0.999999988               0.000471455               0.000470547               0.999999988               0.000436225               0.000440109               0.999999988               0.000396942               0.000403941               0.999999988               0.000354625               0.000363031               0.999999988               0.000310480               0.000318874               0.999999988               0.000265827               0.000273325               0.999999988               0.000657029               0.000788681               0.999999988               0.000567264               0.000660349               0.999999988               0.000529267               0.000621036               0.999999988               0.000512827               0.000613789               0.999999988               0.000503995               0.000618063               0.999999988               0.000495985               0.000624407               0.999999988               0.000484925               0.000628568               0.999999988               0.000468472               0.000627624               0.999999988               0.000445509               0.000620379               0.999999988               0.000415807               0.000606879               0.999999988               0.000379591               0.000587119               0.999999988               0.000337399               0.000560716               0.999999988               0.000290137               0.000528534               0.999999988               0.000239135               0.000491611               0.999999988               0.000185851               0.000451531               0.999999988               0.000131580               0.000410190               0.999999988               0.000077621               0.000369521               0.999999988               0.000597483               0.000880069               0.999999988               0.000486233               0.000753814               0.999999988               0.000448569               0.000716223               0.999999988               0.000434338               0.000710584               0.999999988               0.000426402               0.000716213               0.999999988               0.000416710               0.000723259               0.999999988               0.000401323               0.000726870               0.999999988               0.000377941               0.000724622               0.999999988               0.000346182               0.000715537               0.999999988               0.000306107               0.000699911               0.999999988               0.000258188               0.000677985               0.999999988               0.000203552               0.000650196               0.999999988               0.000143763               0.000617878               0.999999988               0.000080456               0.000582647               0.999999988               0.000015187               0.000546428               0.999999988              -0.000050381               0.000510863               0.999999988              -0.000115342               0.000476761               0.999999988               0.000535632               0.000966729               0.999999988               0.000418095               0.000859467               0.999999988               0.000378184               0.000819075               0.999999988               0.000363759               0.000809226               0.999999988               0.000356802               0.000812510               0.999999988               0.000349266               0.000819839               0.999999988               0.000337105               0.000826258               0.999999988               0.000318350               0.000829108               0.999999988               0.000291819               0.000827117               0.999999988               0.000257437               0.000820104               0.999999988               0.000215329               0.000808237               0.999999988               0.000166099               0.000791804               0.999999988               0.000110825               0.000771332               0.999999988               0.000050412               0.000747867               0.999999988              -0.000013980               0.000722605               0.999999988              -0.000080935               0.000697064               0.999999988              -0.000148540               0.000672703               0.999999988               0.000468195               0.001045862               0.999999988               0.000352229               0.000962021               0.999999988               0.000310437               0.000924830               0.999999988               0.000294876               0.000913257               0.999999988               0.000288089               0.000915096               0.999999988               0.000281894               0.000922770               0.999999988               0.000272278               0.000931749               0.999999988               0.000257442               0.000939243               0.999999988               0.000235869               0.000943734               0.999999988               0.000207262               0.000944416               0.999999988               0.000171143               0.000941451               0.999999988               0.000127819               0.000934953               0.999999988               0.000077894               0.000925319               0.999999988               0.000021918               0.000912852               0.999999988              -0.000039546               0.000898380               0.999999988              -0.000105429               0.000882678               0.999999988              -0.000173820               0.000867188               0.999999988               0.000396588               0.001115469               0.999999988               0.000288914               0.001058087               0.999999988               0.000246943               0.001028470               0.999999988               0.000230236               0.001018284               0.999999988               0.000222823               0.001020261               0.999999988               0.000217268               0.001028908               0.999999988               0.000209573               0.001040414               0.999999988               0.000197950               0.001052205               0.999999988               0.000181095               0.001062512               0.999999988               0.000158002               0.001070590               0.999999988               0.000127948               0.001075894               0.999999988               0.000090941               0.001078428               0.999999988               0.000047228               0.001078428               0.999999988              -0.000003064               0.001076123               0.999999988              -0.000060071               0.001071962               0.999999988              -0.000123091               0.001066320               0.999999988              -0.000191100               0.001060169               0.999999988               0.000321491               0.001174295               0.999999988               0.000228091               0.001143824               0.999999988               0.000188628               0.001124713               0.999999988               0.000171576               0.001118628               0.999999988               0.000163627               0.001122402               0.999999988               0.000158373               0.001132783               0.999999988               0.000152112               0.001146860               0.999999988               0.000143160               0.001162645               0.999999988               0.000130381               0.001178478               0.999999988               0.000112613               0.001193313               0.999999988               0.000088849               0.001206465               0.999999988               0.000058566               0.001217692               0.999999988               0.000021722               0.001226905               0.999999988              -0.000021802               0.001234255               0.999999988              -0.000072435               0.001239789               0.999999988              -0.000130518               0.001243844               0.999999988              -0.000196025               0.001246977               0.999999988               0.000243660               0.001221033               0.999999988               0.000169375               0.001215214               0.999999988               0.000135647               0.001207902               0.999999988               0.000119948               0.001207502               0.999999988               0.000112222               0.001214532               0.999999988               0.000107379               0.001227330               0.999999988               0.000102473               0.001244172               0.999999988               0.000095692               0.001263512               0.999999988               0.000086376               0.001284136               0.999999988               0.000073499               0.001305032               0.999999988               0.000056023               0.001325332               0.999999988               0.000032950               0.001344740               0.999999988               0.000004021               0.001362900               0.999999988              -0.000031048               0.001379578               0.999999988              -0.000072956               0.001394668               0.999999988              -0.000122919               0.001408093               0.999999988              -0.000182452               0.001420210               0.999999988               0.000163642               0.001255123               0.999999988               0.000112167               0.001268799               0.999999988               0.000087422               0.001272245               0.999999988               0.000075241               0.001277829               0.999999988               0.000069012               0.001288485               0.999999988               0.000065166               0.001304059               0.999999988               0.000061616               0.001323653               0.999999988               0.000056916               0.001346198               0.999999988               0.000050743               0.001370633               0.999999988               0.000042394               0.001396175               0.999999988               0.000030784               0.001422370               0.999999988               0.000015236               0.001448631               0.999999988              -0.000004702               0.001474555               0.999999988              -0.000029393               0.001499834               0.999999988              -0.000059770               0.001524016               0.999999988              -0.000097271               0.001546649               0.999999988              -0.000144182               0.001567463               0.999999988               0.000082159               0.001275855               0.999999988               0.000055903               0.001302018               0.999999988               0.000042749               0.001312901               0.999999988               0.000036104               0.001323033               0.999999988               0.000032582               0.001336602               0.999999988               0.000030347               0.001354474               0.999999988               0.000028453               0.001376227               0.999999988               0.000026044               0.001401008               0.999999988               0.000023060               0.001428132               0.999999988               0.000018921               0.001457031               0.999999988               0.000013008               0.001487250               0.999999988               0.000005090               0.001518206               0.999999988              -0.000005169               0.001549443               0.999999988              -0.000018076               0.001580571               0.999999988              -0.000034119               0.001611093               0.999999988              -0.000054357               0.001640432               0.999999988              -0.000080327               0.001667843               0.999999988               0.000000000               0.001282694               0.999999988               0.000000000               0.001313219               0.999999988              -0.000000000               0.001326830               0.999999988               0.000000000               0.001338598               0.999999988               0.000000000               0.001353294               0.999999988               0.000000000               0.001372068               0.999999988              -0.000000000               0.001394572               0.999999988               0.000000000               0.001420109               0.999999988               0.000000000               0.001448264               0.999999988               0.000000000               0.001478366               0.999999988               0.000000000               0.001509938               0.999999988              -0.000000000               0.001542552               0.999999988              -0.000000000               0.001575682               0.999999988              -0.000000000               0.001608890               0.999999988              -0.000000000               0.001641607               0.999999988              -0.000000000               0.001673202               0.999999988               0.000000000               0.001702937               0.999999988 </DataArray>
<DataArray type="Float64"                                    Name="stress"                                                      NumberOfComponents="10" format="ascii">
              0.002078400               0.021878562               0.000000000              -0.001955416               0.007944586               0.005989171               0.000000000               0.000000000               0.000000000               0.000000000               0.001993407               0.016728992               0.000000000              -0.001343593               0.006024139               0.004680546               0.000000000               0.000000000               0.000000000               0.000000000               0.002553846               0.012537094               0.000000000              -0.000609443               0.004382137               0.003772694               0.000000000               0.000000000               0.000000000               0.000000000               0.002345566               0.010157108               0.000000000              -0.000390050               0.003515686               0.003125635               0.000000000               0.000000000               0.000000000               0.000000000               0.001930464               0.008633030              -0.000000000              -0.000355204               0.002996049               0.002640845               0.000000000               0.000000000               0.000000000               0.000000000               0.001501939               0.007556257               0.000000000              -0.000381304               0.002645828               0.002264524               0.000000000               0.000000000               0.000000000               0.000000000               0.001121292               0.006722772               0.000000000              -0.000419861               0.002380855               0.001960994               0.000000000               0.000000000               0.000000000               0.000000000               0.000802200               0.006023160               0.000000000              -0.000452069               0.002158389               0.001706321               0.000000000               0.000000000               0.000000000               0.000000000               0.000539916               0.005398145              -0.000000000              -0.000472299               0.001956797               0.001484498               0.000000000               0.000000000               0.000000000               0.000000000               0.000333285               0.004807906               0.000000000              -0.000476005               0.001761288               0.001285282               0.000000000               0.000000000               0.000000000               0.000000000               0.000180550               0.004231779               0.000000000              -0.000461265               0.001564334               0.001103069               0.000000000               0.000000000               0.000000000               0.000000000               0.000063727               0.003647818              -0.000000000              -0.000432078               0.001359953               0.000927875               0.000000000               0.000000000               0.000000000               0.000000000              -0.000021586               0.003037082               0.000000000              -0.000387729               0.001141594               0.000753865               0.000000000               0.000000000               0.000000000               0.000000000              -0.000069924               0.002383937               0.000000000              -0.000324213               0.000902709               0.000578496               0.000000000               0.000000000               0.000000000               0.000000000              -0.000078846               0.001672130              -0.000000000              -0.000238583               0.000636899               0.000398316               0.000000000               0.000000000               0.000000000               0.000000000              -0.000050662               0.000872121              -0.000000000              -0.000128013               0.000333375               0.000205362               0.000000000               0.000000000               0.000000000               0.000000000              -0.000092964               0.000259867              -0.000000000              -0.000067345               0.000109069               0.000041724               0.000000000               0.000000000               0.000000000               0.000000000               0.002134638               0.021405924              -0.001441944              -0.001875247               0.007760319               0.005885072               0.000000000               0.000000000               0.000000000               0.000000000               0.001928254               0.016427626              -0.000633805              -0.001330355               0.005919272               0.004588917               0.000000000               0.000000000               0.000000000               0.000000000               0.002360133               0.012416095               0.000164238              -0.000666960               0.004360977               0.003694017               0.000000000               0.000000000               0.000000000               0.000000000               0.002105755               0.010132732               0.000489342              -0.000476932               0.003536521               0.003059589               0.000000000               0.000000000               0.000000000               0.000000000               0.001684455               0.008660101               0.000613716              -0.000450841               0.003036952               0.002586111               0.000000000               0.000000000               0.000000000               0.000000000               0.001266894               0.007609004               0.000650835              -0.000476039               0.002694989               0.002218950               0.000000000               0.000000000               0.000000000               0.000000000               0.000904844               0.006788079               0.000646323              -0.000509192               0.002432401               0.001923209               0.000000000               0.000000000               0.000000000               0.000000000               0.000606057               0.006096295               0.000624460              -0.000534765               0.002210333               0.001675568               0.000000000               0.000000000               0.000000000               0.000000000               0.000365580               0.005477358               0.000592156              -0.000547576               0.002008293               0.001460717               0.000000000               0.000000000               0.000000000               0.000000000               0.000185040               0.004894601               0.000554370              -0.000542434               0.001812329               0.001269895               0.000000000               0.000000000               0.000000000               0.000000000               0.000059384               0.004322977               0.000515617              -0.000518102               0.001613679               0.001095577               0.000000000               0.000000000               0.000000000               0.000000000              -0.000030365               0.003742060               0.000473992              -0.000479143               0.001407055               0.000927912               0.000000000               0.000000000               0.000000000               0.000000000              -0.000087095               0.003141035               0.000425980              -0.000425289               0.001188764               0.000763475               0.000000000               0.000000000               0.000000000               0.000000000              -0.000110919               0.002511668               0.000367388              -0.000355552               0.000955732               0.000600179               0.000000000               0.000000000               0.000000000               0.000000000              -0.000103960               0.001841553               0.000286195              -0.000269179               0.000703571               0.000434392               0.000000000               0.000000000               0.000000000               0.000000000              -0.000061283               0.001113164               0.000165018              -0.000162126               0.000425093               0.000262967               0.000000000               0.000000000               0.000000000               0.000000000              -0.000088774               0.000568831               0.000103792              -0.000104394               0.000224406               0.000120012               0.000000000               0.000000000               0.000000000               0.000000000               0.002269898               0.020058323              -0.002667260              -0.001656076               0.007238066               0.005581990               0.000000000               0.000000000               0.000000000               0.000000000               0.001726611               0.015576893              -0.001163446              -0.001299629               0.005625455               0.004325826               0.000000000               0.000000000               0.000000000               0.000000000               0.001801596               0.012082271               0.000303898              -0.000834683               0.004305611               0.003470928               0.000000000               0.000000000               0.000000000               0.000000000               0.001426259               0.010061668               0.000876880              -0.000722860               0.003594809               0.002871949               0.000000000               0.000000000               0.000000000               0.000000000               0.000997150               0.008726096               0.001083321              -0.000716829               0.003147613               0.002430783               0.000000000               0.000000000               0.000000000               0.000000000               0.000621384               0.007744878               0.001134639              -0.000735089               0.002826630               0.002091541               0.000000000               0.000000000               0.000000000               0.000000000               0.000323535               0.006959826               0.001114780              -0.000748651               0.002569469               0.001820818               0.000000000               0.000000000               0.000000000               0.000000000               0.000092156               0.006284445               0.001068401              -0.000750996               0.002345126               0.001594130               0.000000000               0.000000000               0.000000000               0.000000000              -0.000079411               0.005674833               0.001008870              -0.000739132               0.002137969               0.001398837               0.000000000               0.000000000               0.000000000               0.000000000              -0.000189205               0.005099810               0.000938908              -0.000708427               0.001936062               0.001227635               0.000000000               0.000000000               0.000000000               0.000000000              -0.000246385               0.004536034               0.000864766              -0.000659398               0.001731795               0.001072398               0.000000000               0.000000000               0.000000000               0.000000000              -0.000265300               0.003971814               0.000786726              -0.000595963               0.001522579               0.000926616               0.000000000               0.000000000               0.000000000               0.000000000              -0.000254882               0.003406746               0.000700275              -0.000521423               0.001309378               0.000787955               0.000000000               0.000000000               0.000000000               0.000000000              -0.000222311               0.002841163               0.000595938              -0.000438511               0.001093215               0.000654704               0.000000000               0.000000000               0.000000000               0.000000000              -0.000167381               0.002273833               0.000456490              -0.000346996               0.000873602               0.000526606               0.000000000               0.000000000               0.000000000               0.000000000              -0.000088987               0.001708031               0.000258164              -0.000246873               0.000651629               0.000404756               0.000000000               0.000000000               0.000000000               0.000000000              -0.000086064               0.001317434               0.000156570              -0.000196953               0.000504791               0.000307838               0.000000000               0.000000000               0.000000000               0.000000000               0.002366267               0.018015814              -0.003498549              -0.001364625               0.006460086               0.005095461               0.000000000               0.000000000               0.000000000               0.000000000               0.001355157               0.014312643              -0.001517203              -0.001280894               0.005197798               0.003916904               0.000000000               0.000000000               0.000000000               0.000000000               0.000940042               0.011594113               0.000384609              -0.001096746               0.004230248               0.003133502               0.000000000               0.000000000               0.000000000               0.000000000               0.000433224               0.009947071               0.001084762              -0.001080922               0.003675964               0.002595042               0.000000000               0.000000000               0.000000000               0.000000000               0.000026142               0.008798506               0.001314047              -0.001090008               0.003296142               0.002206134               0.000000000               0.000000000               0.000000000               0.000000000              -0.000271557               0.007907958               0.001354392              -0.001090326               0.002999402               0.001909075               0.000000000               0.000000000               0.000000000               0.000000000              -0.000468070               0.007163790               0.001312794              -0.001070998               0.002744905               0.001673907               0.000000000               0.000000000               0.000000000               0.000000000              -0.000581528               0.006505760               0.001243035              -0.001031291               0.002512329               0.001481038               0.000000000               0.000000000               0.000000000               0.000000000              -0.000636246               0.005897917               0.001163770              -0.000975830               0.002291229               0.001315399               0.000000000               0.000000000               0.000000000               0.000000000              -0.000637601               0.005325404               0.001072285              -0.000904774               0.002076708               0.001171934               0.000000000               0.000000000               0.000000000               0.000000000              -0.000594559               0.004775998               0.000974088              -0.000819958               0.001865303               0.001045345               0.000000000               0.000000000               0.000000000               0.000000000              -0.000527747               0.004243681               0.000871230              -0.000728364               0.001657334               0.000928970               0.000000000               0.000000000               0.000000000               0.000000000              -0.000443124               0.003731405               0.000759589              -0.000632596               0.001454654               0.000822059               0.000000000               0.000000000               0.000000000               0.000000000              -0.000343032               0.003245239               0.000628718              -0.000534291               0.001259832               0.000725541               0.000000000               0.000000000               0.000000000               0.000000000              -0.000230948               0.002793865               0.000464587              -0.000435838               0.001076558               0.000640721               0.000000000               0.000000000               0.000000000               0.000000000              -0.000114197               0.002395082               0.000253678              -0.000342208               0.000912422               0.000570214               0.000000000               0.000000000               0.000000000               0.000000000              -0.000082386               0.002153686               0.000148726              -0.000300105               0.000817923               0.000517818               0.000000000               0.000000000               0.000000000               0.000000000               0.002269255               0.015521832              -0.003861031              -0.001089259               0.005536978               0.004447719               0.000000000               0.000000000               0.000000000               0.000000000               0.000779081               0.012810193              -0.001682582              -0.001309116               0.004706394               0.003397277               0.000000000               0.000000000               0.000000000               0.000000000              -0.000129584               0.011021925               0.000373520              -0.001426331               0.004149382               0.002723051               0.000000000               0.000000000               0.000000000               0.000000000              -0.000706097               0.009782954               0.001073028              -0.001487652               0.003756836               0.002269184               0.000000000               0.000000000               0.000000000               0.000000000              -0.001032990               0.008822239               0.001272498              -0.001490148               0.003437433               0.001947285               0.000000000               0.000000000               0.000000000               0.000000000              -0.001195810               0.008017179               0.001287494              -0.001450573               0.003155890               0.001705318               0.000000000               0.000000000               0.000000000               0.000000000              -0.001252555               0.007306465               0.001229858              -0.001383013               0.002896468               0.001513455               0.000000000               0.000000000               0.000000000               0.000000000              -0.001226512               0.006660296               0.001148330              -0.001292476               0.002650901               0.001358425               0.000000000               0.000000000               0.000000000               0.000000000              -0.001139792               0.006054762               0.001064485              -0.001184265               0.002412988               0.001228724               0.000000000               0.000000000               0.000000000               0.000000000              -0.001015581               0.005490116               0.000972314              -0.001067105               0.002185722               0.001118617               0.000000000               0.000000000               0.000000000               0.000000000              -0.000871713               0.004963838               0.000868639              -0.000947370               0.001970386               0.001023016               0.000000000               0.000000000               0.000000000               0.000000000              -0.000725205               0.004469532               0.000757949              -0.000830641               0.001766709               0.000936068               0.000000000               0.000000000               0.000000000               0.000000000              -0.000576287               0.004010730               0.000641901              -0.000717447               0.001576045               0.000858598               0.000000000               0.000000000               0.000000000               0.000000000              -0.000418667               0.003601547               0.000514388              -0.000607192               0.001402901               0.000795709               0.000000000               0.000000000               0.000000000               0.000000000              -0.000262077               0.003256968               0.000365764              -0.000505399               0.001254111               0.000748713               0.000000000               0.000000000               0.000000000               0.000000000              -0.000122901               0.002996304               0.000193081              -0.000420625               0.001138966               0.000718342               0.000000000               0.000000000               0.000000000               0.000000000              -0.000074066               0.002864669               0.000109967              -0.000385857               0.001083499               0.000697642               0.000000000               0.000000000               0.000000000               0.000000000               0.001869688               0.012843745              -0.003766058              -0.000904336               0.004582650               0.003678314               0.000000000               0.000000000               0.000000000               0.000000000               0.000011496               0.011236345              -0.001687972              -0.001400230               0.004212154               0.002811924               0.000000000               0.000000000               0.000000000               0.000000000              -0.001292679               0.010408676               0.000240097              -0.001785835               0.004064802               0.002278967               0.000000000               0.000000000               0.000000000               0.000000000              -0.001832997               0.009546107               0.000839580              -0.001880633               0.003808881               0.001928249               0.000000000               0.000000000               0.000000000               0.000000000              -0.002003671               0.008743455               0.000988300              -0.001844304               0.003529224               0.001684920               0.000000000               0.000000000               0.000000000               0.000000000              -0.001986783               0.008002624               0.000984731              -0.001745367               0.003249304               0.001503936               0.000000000               0.000000000               0.000000000               0.000000000              -0.001868584               0.007321780               0.000928950              -0.001615938               0.002979215               0.001363277               0.000000000               0.000000000               0.000000000               0.000000000              -0.001686788               0.006685292               0.000858368              -0.001468204               0.002717810               0.001249606               0.000000000               0.000000000               0.000000000               0.000000000              -0.001465077               0.006088843               0.000791959              -0.001310506               0.002466429               0.001155923               0.000000000               0.000000000               0.000000000               0.000000000              -0.001229890               0.005540860               0.000724290              -0.001153814               0.002231539               0.001077726               0.000000000               0.000000000               0.000000000               0.000000000              -0.001002887               0.005045348               0.000640402              -0.001006749               0.002017349               0.001010600               0.000000000               0.000000000               0.000000000               0.000000000              -0.000790509               0.004597347               0.000544966              -0.000871107               0.001822803               0.000951695               0.000000000               0.000000000               0.000000000               0.000000000              -0.000586553               0.004204638               0.000447375              -0.000745535               0.001650044               0.000904508               0.000000000               0.000000000               0.000000000               0.000000000              -0.000393153               0.003879476               0.000346080              -0.000632365               0.001503934               0.000871569               0.000000000               0.000000000               0.000000000               0.000000000              -0.000223709               0.003635731               0.000235722              -0.000538356               0.001391350               0.000852994               0.000000000               0.000000000               0.000000000               0.000000000              -0.000096024               0.003489604               0.000119598              -0.000472208               0.001320592               0.000848384               0.000000000               0.000000000               0.000000000               0.000000000              -0.000045771               0.003443767               0.000062140              -0.000447634               0.001297122               0.000849488               0.000000000               0.000000000               0.000000000               0.000000000               0.001104834               0.010200665              -0.003298403              -0.000860771               0.003687110               0.002826340               0.000000000               0.000000000               0.000000000               0.000000000              -0.000902832               0.009706790              -0.001597689              -0.001551908               0.003752867               0.002200959               0.000000000               0.000000000               0.000000000               0.000000000              -0.002412636               0.009760322              -0.000031676              -0.002124774               0.003961666               0.001836892               0.000000000               0.000000000               0.000000000               0.000000000              -0.002798938               0.009212476               0.000425405              -0.002201156               0.003804513               0.001603357               0.000000000               0.000000000               0.000000000               0.000000000              -0.002755666               0.008534436               0.000536976              -0.002100174               0.003544842               0.001444667               0.000000000               0.000000000               0.000000000               0.000000000              -0.002537361               0.007849159               0.000542584              -0.001932650               0.003260577               0.001327927               0.000000000               0.000000000               0.000000000               0.000000000              -0.002240323               0.007193181               0.000517974              -0.001739264               0.002977458               0.001238193               0.000000000               0.000000000               0.000000000               0.000000000              -0.001909176               0.006568271               0.000482586              -0.001536971               0.002701725               0.001164754               0.000000000               0.000000000               0.000000000               0.000000000              -0.001567577               0.005993054               0.000453053              -0.001336970               0.002443321               0.001106352               0.000000000               0.000000000               0.000000000               0.000000000              -0.001240905               0.005478663               0.000424333              -0.001150169               0.002209593               0.001059423               0.000000000               0.000000000               0.000000000               0.000000000              -0.000943894               0.005027061               0.000376128              -0.000982341               0.002003117               0.001020776               0.000000000               0.000000000               0.000000000               0.000000000              -0.000679163               0.004638687               0.000310930              -0.000834520               0.001824387               0.000989867               0.000000000               0.000000000               0.000000000               0.000000000              -0.000445437               0.004325398               0.000240378              -0.000707712               0.001677689               0.000969977               0.000000000               0.000000000               0.000000000               0.000000000              -0.000251869               0.004091482               0.000167064              -0.000605885               0.001565775               0.000959891               0.000000000               0.000000000               0.000000000               0.000000000              -0.000110027               0.003944270               0.000095603              -0.000534293               0.001492841               0.000958548               0.000000000               0.000000000               0.000000000               0.000000000              -0.000031446               0.003888610               0.000037713              -0.000497867               0.001462146               0.000964279               0.000000000               0.000000000               0.000000000               0.000000000              -0.000001016               0.003900268               0.000008314              -0.000487913               0.001462714               0.000974801               0.000000000               0.000000000               0.000000000               0.000000000               0.000014538               0.007750782              -0.002569732              -0.000963396               0.002904699               0.001941304               0.000000000               0.000000000               0.000000000               0.000000000              -0.001903713               0.008305001              -0.001467104              -0.001752014               0.003352310               0.001600296               0.000000000               0.000000000               0.000000000               0.000000000              -0.003371623               0.009078198              -0.000424870              -0.002399128               0.003825745               0.001426618               0.000000000               0.000000000               0.000000000               0.000000000              -0.003505986               0.008768509              -0.000095938              -0.002410802               0.003726408               0.001315606               0.000000000               0.000000000               0.000000000               0.000000000              -0.003223092               0.008196330               0.000017142              -0.002233195               0.003476481               0.001243286               0.000000000               0.000000000               0.000000000               0.000000000              -0.002809350               0.007568850               0.000062691              -0.001999607               0.003189461               0.001189853               0.000000000               0.000000000               0.000000000               0.000000000              -0.002354607               0.006940962               0.000090005              -0.001750593               0.002897162               0.001146569               0.000000000               0.000000000               0.000000000               0.000000000              -0.001899413               0.006347573               0.000105206              -0.001505723               0.002617744               0.001112021               0.000000000               0.000000000               0.000000000               0.000000000              -0.001463293               0.005816860               0.000119901              -0.001275839               0.002364214               0.001088375               0.000000000               0.000000000               0.000000000               0.000000000              -0.001062597               0.005356344               0.000132464              -0.001068014               0.002141435               0.001073421               0.000000000               0.000000000               0.000000000               0.000000000              -0.000713115               0.004963364               0.000123690              -0.000887836               0.001950384               0.001062547               0.000000000               0.000000000               0.000000000               0.000000000              -0.000419658               0.004650102               0.000094423              -0.000738633               0.001796229               0.001057597               0.000000000               0.000000000               0.000000000               0.000000000              -0.000189862               0.004427764               0.000056372              -0.000624667               0.001684129               0.001059462               0.000000000               0.000000000               0.000000000               0.000000000              -0.000033808               0.004296382               0.000016258              -0.000549724               0.001615355               0.001065630               0.000000000               0.000000000               0.000000000               0.000000000               0.000046750               0.004253641              -0.000012646              -0.000514173               0.001589257               0.001075084               0.000000000               0.000000000               0.000000000               0.000000000               0.000051342               0.004280433              -0.000018805              -0.000515800               0.001598730               0.001082930               0.000000000               0.000000000               0.000000000               0.000000000               0.000038520               0.004325843              -0.000020126              -0.000526284               0.001617361               0.001091077               0.000000000               0.000000000               0.000000000               0.000000000              -0.001263927               0.005681070              -0.001696436              -0.001184104               0.002288372               0.001104268               0.000000000               0.000000000               0.000000000               0.000000000              -0.002880793               0.007045507              -0.001328789              -0.001960981               0.003002139               0.001041158               0.000000000               0.000000000               0.000000000               0.000000000              -0.004128420               0.008379589              -0.000898080              -0.002595600               0.003658368               0.001062768               0.000000000               0.000000000               0.000000000               0.000000000              -0.003997517               0.008316312              -0.000652013              -0.002538602               0.003618277               0.001079675               0.000000000               0.000000000               0.000000000               0.000000000              -0.003513053               0.007880131              -0.000504011              -0.002302406               0.003394153               0.001091747               0.000000000               0.000000000               0.000000000               0.000000000              -0.002942412               0.007331344              -0.000401836              -0.002019817               0.003117029               0.001097212               0.000000000               0.000000000               0.000000000               0.000000000              -0.002365418               0.006759421              -0.000317716              -0.001731955               0.002830436               0.001098481               0.000000000               0.000000000               0.000000000               0.000000000              -0.001810979               0.006218951              -0.000250167              -0.001456482               0.002558457               0.001101975               0.000000000               0.000000000               0.000000000               0.000000000              -0.001303867               0.005743628              -0.000191742              -0.001206901               0.002316824               0.001109923               0.000000000               0.000000000               0.000000000               0.000000000              -0.000849857               0.005340864              -0.000138483              -0.000986302               0.002109037               0.001122736               0.000000000               0.000000000               0.000000000               0.000000000              -0.000466340               0.005001848              -0.000100858              -0.000800106               0.001933968               0.001133862               0.000000000               0.000000000               0.000000000               0.000000000              -0.000161272               0.004746726              -0.000082842              -0.000653816               0.001800165               0.001146349               0.000000000               0.000000000               0.000000000               0.000000000               0.000062431               0.004588423              -0.000074453              -0.000550140               0.001712839               0.001162699               0.000000000               0.000000000               0.000000000               0.000000000               0.000199283               0.004529988              -0.000064572              -0.000491516               0.001673820               0.001182304               0.000000000               0.000000000               0.000000000               0.000000000               0.000245073               0.004560672              -0.000046685              -0.000478181               0.001679602               0.001201422               0.000000000               0.000000000               0.000000000               0.000000000               0.000212165               0.004653413              -0.000023425              -0.000502113               0.001718493               0.001216380               0.000000000               0.000000000               0.000000000               0.000000000               0.000168473               0.004717204              -0.000010005              -0.000526472               0.001747876               0.001221404               0.000000000               0.000000000               0.000000000               0.000000000              -0.002735092               0.003775631              -0.000786909              -0.001497610               0.001757734               0.000260124               0.000000000               0.000000000               0.000000000               0.000000000              -0.003712068               0.005579802              -0.001177004              -0.002089496               0.002556414               0.000466918               0.000000000               0.000000000               0.000000000               0.000000000              -0.004591859               0.007309810              -0.001388817              -0.002635667               0.003315135               0.000679467               0.000000000               0.000000000               0.000000000               0.000000000              -0.004313931               0.007624588              -0.001234651              -0.002570791               0.003398434               0.000827643               0.000000000               0.000000000               0.000000000               0.000000000              -0.003749016               0.007454015              -0.001052753              -0.002337627               0.003263856               0.000926229               0.000000000               0.000000000               0.000000000               0.000000000              -0.003128480               0.007093324              -0.000890732              -0.002059841               0.003051031               0.000991190               0.000000000               0.000000000               0.000000000               0.000000000              -0.002518481               0.006667267              -0.000754457              -0.001777834               0.002815012               0.001037177               0.000000000               0.000000000               0.000000000               0.000000000              -0.001928408               0.006241374              -0.000639826              -0.001503321               0.002581544               0.001078223               0.000000000               0.000000000               0.000000000               0.000000000              -0.001382504               0.005854892              -0.000537779              -0.001250297               0.002368377               0.001118080               0.000000000               0.000000000               0.000000000               0.000000000              -0.000890367               0.005523479              -0.000442559              -0.001024320               0.002182581               0.001158261               0.000000000               0.000000000               0.000000000               0.000000000              -0.000466075               0.005245284              -0.000355016              -0.000830437               0.002025223               0.001194786               0.000000000               0.000000000               0.000000000               0.000000000              -0.000119101               0.005023456              -0.000283688              -0.000672593               0.001898666               0.001226073               0.000000000               0.000000000               0.000000000               0.000000000               0.000147315               0.004869541              -0.000221476              -0.000553448               0.001807647               0.001254199               0.000000000               0.000000000               0.000000000               0.000000000               0.000328278               0.004788643              -0.000156150              -0.000475475               0.001754690               0.001279215               0.000000000               0.000000000               0.000000000               0.000000000               0.000421896               0.004784305              -0.000088191              -0.000439826               0.001741361               0.001301535               0.000000000               0.000000000               0.000000000               0.000000000               0.000440238               0.004861242              -0.000031850              -0.000442565               0.001767919               0.001325354               0.000000000               0.000000000               0.000000000               0.000000000               0.000414998               0.004913005              -0.000003933              -0.000458500               0.001790486               0.001331985               0.000000000               0.000000000               0.000000000               0.000000000              -0.004575850               0.002065606               0.000083740              -0.001974141               0.001346573              -0.000627568               0.000000000               0.000000000               0.000000000               0.000000000              -0.004640732               0.004093650              -0.000969061              -0.002251976               0.002115194              -0.000136782               0.000000000               0.000000000               0.000000000               0.000000000              -0.004972745               0.006022683              -0.001778822              -0.002617609               0.002880077               0.000262468               0.000000000               0.000000000               0.000000000               0.000000000              -0.004558674               0.006690847              -0.001780838              -0.002545853               0.003078877               0.000533024               0.000000000               0.000000000               0.000000000               0.000000000              -0.003953329               0.006821981              -0.001603420              -0.002335240               0.003052384               0.000717144               0.000000000               0.000000000               0.000000000               0.000000000              -0.003312330               0.006703140              -0.001402182              -0.002080012               0.002927695               0.000847683               0.000000000               0.000000000               0.000000000               0.000000000              -0.002687947               0.006467696              -0.001224109              -0.001816438               0.002761356               0.000944918               0.000000000               0.000000000               0.000000000               0.000000000              -0.002085830               0.006186861              -0.001070502              -0.001555540               0.002580780               0.001025239               0.000000000               0.000000000               0.000000000               0.000000000              -0.001510835               0.005902425              -0.000933291              -0.001304363               0.002402243               0.001097880               0.000000000               0.000000000               0.000000000               0.000000000              -0.000979165               0.005646166              -0.000801835              -0.001072955               0.002239688               0.001166733               0.000000000               0.000000000               0.000000000               0.000000000              -0.000505861               0.005425543              -0.000670018              -0.000867889               0.002097793               0.001229904               0.000000000               0.000000000               0.000000000               0.000000000              -0.000100002               0.005240591              -0.000548470              -0.000692573               0.001977704               0.001285131               0.000000000               0.000000000               0.000000000               0.000000000               0.000232536               0.005092173              -0.000433949              -0.000549319               0.001880481               0.001331161               0.000000000               0.000000000               0.000000000               0.000000000               0.000487698               0.004986686              -0.000315377              -0.000440448               0.001809028               0.001368580               0.000000000               0.000000000               0.000000000               0.000000000               0.000656080               0.004929223              -0.000193699              -0.000370122               0.001766432               0.001396310               0.000000000               0.000000000               0.000000000               0.000000000               0.000741303               0.004937579              -0.000086904              -0.000339208               0.001758913               0.001419705               0.000000000               0.000000000               0.000000000               0.000000000               0.000750140               0.004956108              -0.000035747              -0.000338210               0.001764756               0.001426546               0.000000000               0.000000000               0.000000000               0.000000000              -0.006665242               0.000683736               0.000822093              -0.002584930               0.001089548              -0.001495382               0.000000000               0.000000000               0.000000000               0.000000000              -0.005701762               0.002692505              -0.000701081              -0.002474720               0.001722396              -0.000752323               0.000000000               0.000000000               0.000000000               0.000000000              -0.005292460               0.004546759              -0.001970104              -0.002553012               0.002366574              -0.000186438               0.000000000               0.000000000               0.000000000               0.000000000              -0.004660878               0.005449604              -0.002158388              -0.002429024               0.002626190               0.000197166               0.000000000               0.000000000               0.000000000               0.000000000              -0.003994548               0.005854942              -0.002035003              -0.002229818               0.002694900               0.000465082               0.000000000               0.000000000               0.000000000               0.000000000              -0.003335597               0.005986602              -0.001834399              -0.001999170               0.002661903               0.000662734               0.000000000               0.000000000               0.000000000               0.000000000              -0.002704785               0.005962562              -0.001636281              -0.001759611               0.002574037               0.000814427               0.000000000               0.000000000               0.000000000               0.000000000              -0.002102747               0.005850946              -0.001463010              -0.001519895               0.002456927               0.000937032               0.000000000               0.000000000               0.000000000               0.000000000              -0.001516006               0.005706064              -0.001305701              -0.001281757               0.002329254               0.001047497               0.000000000               0.000000000               0.000000000               0.000000000              -0.000958698               0.005557008              -0.001150027              -0.001054136               0.002203696               0.001149560               0.000000000               0.000000000               0.000000000               0.000000000              -0.000446290               0.005411807              -0.000992860              -0.000843833               0.002085195               0.001241362               0.000000000               0.000000000               0.000000000               0.000000000               0.000010561               0.005285399              -0.000840618              -0.000656713               0.001980686               0.001323973               0.000000000               0.000000000               0.000000000               0.000000000               0.000404468               0.005177183              -0.000688527              -0.000495471               0.001890867               0.001395396               0.000000000               0.000000000               0.000000000               0.000000000               0.000731348               0.005091988              -0.000524050              -0.000362242               0.001818060               0.001455818               0.000000000               0.000000000               0.000000000               0.000000000               0.000977811               0.005026299              -0.000347634              -0.000261608               0.001762619               0.001501011               0.000000000               0.000000000               0.000000000               0.000000000               0.001131302               0.004998562              -0.000172932              -0.000200581               0.001733031               0.001532450               0.000000000               0.000000000               0.000000000               0.000000000               0.001178128               0.004997572              -0.000086653              -0.000182898               0.001726807               0.001543909               0.000000000               0.000000000               0.000000000               0.000000000              -0.008860489              -0.000296021               0.001322187              -0.003285678               0.000996545              -0.002289133               0.000000000               0.000000000               0.000000000               0.000000000              -0.006844955               0.001455510              -0.000419112              -0.002748794               0.001401425              -0.001347369               0.000000000               0.000000000               0.000000000               0.000000000              -0.005577355               0.003015629              -0.001939369              -0.002468457               0.001828016              -0.000640442               0.000000000               0.000000000               0.000000000               0.000000000              -0.004648507               0.004017007              -0.002286470              -0.002245311               0.002087424              -0.000157887               0.000000000               0.000000000               0.000000000               0.000000000              -0.003878434               0.004630554              -0.002246457              -0.002033228               0.002221244               0.000188017               0.000000000               0.000000000               0.000000000               0.000000000              -0.003192329               0.004984538              -0.002080565              -0.001820187               0.002268224               0.000448037               0.000000000               0.000000000               0.000000000               0.000000000              -0.002557258               0.005171749              -0.001890278              -0.001605437               0.002259044               0.000653607               0.000000000               0.000000000               0.000000000               0.000000000              -0.001965012               0.005249013              -0.001715282              -0.001393003               0.002213987               0.000820984               0.000000000               0.000000000               0.000000000               0.000000000              -0.001390768               0.005261377              -0.001555453              -0.001179208               0.002146844               0.000967636               0.000000000               0.000000000               0.000000000               0.000000000              -0.000827736               0.005237303              -0.001395577              -0.000965062               0.002067437               0.001102375               0.000000000               0.000000000               0.000000000               0.000000000              -0.000284037               0.005198937              -0.001231581              -0.000756380               0.001985088               0.001228708               0.000000000               0.000000000               0.000000000               0.000000000               0.000221518               0.005159575              -0.001068485              -0.000561877               0.001907133               0.001345256               0.000000000               0.000000000               0.000000000               0.000000000               0.000679922               0.005121035              -0.000903810              -0.000385158               0.001835380               0.001450222               0.000000000               0.000000000               0.000000000               0.000000000               0.001087851               0.005082534              -0.000721945              -0.000227373               0.001769952               0.001542579               0.000000000               0.000000000               0.000000000               0.000000000               0.001434651               0.005043087              -0.000511347              -0.000092392               0.001711809               0.001619418               0.000000000               0.000000000               0.000000000               0.000000000               0.001693244               0.005016864              -0.000269463               0.000007858               0.001669652               0.001677510               0.000000000               0.000000000               0.000000000               0.000000000               0.001808675               0.005014981              -0.000145709               0.000051380               0.001654517               0.001705897               0.000000000               0.000000000               0.000000000               0.000000000              -0.010952681              -0.000884278               0.001486513              -0.003996718               0.001037472              -0.002959246               0.000000000               0.000000000               0.000000000               0.000000000              -0.007969794               0.000457957              -0.000177284              -0.003045915               0.001167949              -0.001877966               0.000000000               0.000000000               0.000000000               0.000000000              -0.005838405               0.001580665              -0.001683715              -0.002386982               0.001322539              -0.001064443               0.000000000               0.000000000               0.000000000               0.000000000              -0.004559393               0.002564332              -0.002112344              -0.002030311               0.001531536              -0.000498774               0.000000000               0.000000000               0.000000000               0.000000000              -0.003651389               0.003307531              -0.002148634              -0.001782709               0.001696734              -0.000085975               0.000000000               0.000000000               0.000000000               0.000000000              -0.002924004               0.003836210              -0.002039228              -0.001576025               0.001804065               0.000228040               0.000000000               0.000000000               0.000000000               0.000000000              -0.002285826               0.004208525              -0.001882905              -0.001383248               0.001863909               0.000480662               0.000000000               0.000000000               0.000000000               0.000000000              -0.001706892               0.004461673              -0.001727673              -0.001197791               0.001886473               0.000688681               0.000000000               0.000000000               0.000000000               0.000000000              -0.001152516               0.004631424              -0.001584769              -0.001011120               0.001880832               0.000869712               0.000000000               0.000000000               0.000000000               0.000000000              -0.000601891               0.004743528              -0.001440385              -0.000818649               0.001854043               0.001035394               0.000000000               0.000000000               0.000000000               0.000000000              -0.000050406               0.004827908              -0.001288863              -0.000622390               0.001816750               0.001194360               0.000000000               0.000000000               0.000000000               0.000000000               0.000496441               0.004897704              -0.001136167              -0.000426047               0.001774567               0.001348520               0.000000000               0.000000000               0.000000000               0.000000000               0.001026828               0.004949352              -0.000985342              -0.000233609               0.001727637               0.001494028               0.000000000               0.000000000               0.000000000               0.000000000               0.001534825               0.004983613              -0.000819061              -0.000047393               0.001676985               0.001629593               0.000000000               0.000000000               0.000000000               0.000000000               0.002008176               0.004996277              -0.000611542               0.000128530               0.001622566               0.001751096               0.000000000               0.000000000               0.000000000               0.000000000               0.002426719               0.004998247              -0.000337565               0.000285236               0.001570987               0.001856223               0.000000000               0.000000000               0.000000000               0.000000000               0.002670047               0.005019942              -0.000192890               0.000373771               0.001548707               0.001922478               0.000000000               0.000000000               0.000000000               0.000000000              -0.012706595              -0.001179621               0.001269634              -0.004617518               0.001145957              -0.003471560               0.000000000               0.000000000               0.000000000               0.000000000              -0.008938818              -0.000263098              -0.000026903              -0.003319167               0.001018683              -0.002300484               0.000000000               0.000000000               0.000000000               0.000000000              -0.006061005               0.000408988              -0.001233226              -0.002323998               0.000910989              -0.001413010               0.000000000               0.000000000               0.000000000               0.000000000              -0.004445337               0.001300937              -0.001627226              -0.001829616               0.001043510              -0.000786106               0.000000000               0.000000000               0.000000000               0.000000000              -0.003395107               0.002101721              -0.001699663              -0.001535878               0.001212524              -0.000323354               0.000000000               0.000000000               0.000000000               0.000000000              -0.002619528               0.002751259              -0.001644485              -0.001326228               0.001359152               0.000032924               0.000000000               0.000000000               0.000000000               0.000000000              -0.001976403               0.003261482              -0.001538792              -0.001148834               0.001470094               0.000321260               0.000000000               0.000000000               0.000000000               0.000000000              -0.001402826               0.003651360              -0.001427061              -0.000982478               0.001544600               0.000562122               0.000000000               0.000000000               0.000000000               0.000000000              -0.000862483               0.003950111              -0.001323583              -0.000817194               0.001589088               0.000771894               0.000000000               0.000000000               0.000000000               0.000000000              -0.000327202               0.004193949              -0.001213369              -0.000646943               0.001613617               0.000966673               0.000000000               0.000000000               0.000000000               0.000000000               0.000219406               0.004400165              -0.001096185              -0.000467743               0.001622621               0.001154878               0.000000000               0.000000000               0.000000000               0.000000000               0.000789011               0.004574330              -0.000978938              -0.000275912               0.001616732               0.001340820               0.000000000               0.000000000               0.000000000               0.000000000               0.001379324               0.004724932              -0.000862530              -0.000073370               0.001599418               0.001526048               0.000000000               0.000000000               0.000000000               0.000000000               0.001983529               0.004846390              -0.000732762               0.000138023               0.001569440               0.001707462               0.000000000               0.000000000               0.000000000               0.000000000               0.002597709               0.004927734              -0.000562867               0.000358171               0.001523171               0.001881342               0.000000000               0.000000000               0.000000000               0.000000000               0.003222110               0.004974008              -0.000320388               0.000586534               0.001462475               0.002049009               0.000000000               0.000000000               0.000000000               0.000000000               0.003653500               0.005033177              -0.000193100               0.000740908               0.001430740               0.002171648               0.000000000               0.000000000               0.000000000               0.000000000              -0.013874792              -0.001296656               0.000731067              -0.005040962               0.001248094              -0.003792868               0.000000000               0.000000000               0.000000000               0.000000000              -0.009601959              -0.000696090               0.000021934              -0.003513721               0.000939204              -0.002574517               0.000000000               0.000000000               0.000000000               0.000000000              -0.006214451              -0.000355837              -0.000649034              -0.002285938               0.000643362              -0.001642576               0.000000000               0.000000000               0.000000000               0.000000000              -0.004356115               0.000439173              -0.000884759              -0.001688438               0.000709198              -0.000979240               0.000000000               0.000000000               0.000000000               0.000000000              -0.003196291               0.001255398              -0.000939312              -0.001355532               0.000870304              -0.000485228               0.000000000               0.000000000               0.000000000               0.000000000              -0.002376555               0.001971138              -0.000920643              -0.001137598               0.001036238              -0.000101360               0.000000000               0.000000000               0.000000000               0.000000000              -0.001726663               0.002556883              -0.000869482              -0.000967107               0.001174655               0.000207548               0.000000000               0.000000000               0.000000000               0.000000000              -0.001155978               0.003032526              -0.000812528              -0.000812556               0.001281683               0.000469128               0.000000000               0.000000000               0.000000000               0.000000000              -0.000625451               0.003425805              -0.000759798              -0.000662768               0.001362846               0.000700078               0.000000000               0.000000000               0.000000000               0.000000000              -0.000100751               0.003761726              -0.000699631              -0.000507997               0.001423228               0.000915232               0.000000000               0.000000000               0.000000000               0.000000000               0.000447603               0.004051976              -0.000635507              -0.000338645               0.001463527               0.001124882               0.000000000               0.000000000               0.000000000               0.000000000               0.001032749               0.004300221              -0.000572528              -0.000150247               0.001483475               0.001333228               0.000000000               0.000000000               0.000000000               0.000000000               0.001661419               0.004517523              -0.000507910               0.000058341               0.001486379               0.001544720               0.000000000               0.000000000               0.000000000               0.000000000               0.002334900               0.004700641              -0.000435017               0.000288004               0.001470863               0.001758868               0.000000000               0.000000000               0.000000000               0.000000000               0.003063014               0.004841520              -0.000337449               0.000543435               0.001432679               0.001976114               0.000000000               0.000000000               0.000000000               0.000000000               0.003867180               0.004936797              -0.000193617               0.000833085               0.001367888               0.002200972               0.000000000               0.000000000               0.000000000               0.000000000               0.004467439               0.005034543              -0.000120037               0.001045961               0.001329510               0.002375472               0.000000000               0.000000000               0.000000000               0.000000000              -0.014282622              -0.001319343               0.000000000              -0.005191062               0.001290564              -0.003900498               0.000000000               0.000000000               0.000000000               0.000000000              -0.009838600              -0.000836412              -0.000000000              -0.003584921               0.000916164              -0.002668758               0.000000000               0.000000000               0.000000000               0.000000000              -0.006269649              -0.000620855              -0.000000000              -0.002273510               0.000550881              -0.001722629               0.000000000               0.000000000               0.000000000               0.000000000              -0.004324171               0.000132273               0.000000000              -0.001638097               0.000590119              -0.001047978               0.000000000               0.000000000               0.000000000               0.000000000              -0.003120660               0.000951550               0.000000000              -0.001289189               0.000746908              -0.000542281               0.000000000               0.000000000               0.000000000               0.000000000              -0.002280208               0.001686080              -0.000000000              -0.001065836               0.000917299              -0.000148537               0.000000000               0.000000000               0.000000000               0.000000000              -0.001628314               0.002292706               0.000000000              -0.000897204               0.001063296               0.000166092               0.000000000               0.000000000               0.000000000               0.000000000              -0.001059963               0.002800313              -0.000000000              -0.000747524               0.001182603               0.000435079               0.000000000               0.000000000               0.000000000               0.000000000              -0.000536845               0.003227846               0.000000000              -0.000604796               0.001277537               0.000672740               0.000000000               0.000000000               0.000000000               0.000000000              -0.000016691               0.003591535               0.000000000              -0.000455200               0.001348900               0.000893700               0.000000000               0.000000000               0.000000000               0.000000000               0.000536633               0.003911845              -0.000000000              -0.000287743               0.001399850               0.001112107               0.000000000               0.000000000               0.000000000               0.000000000               0.001131720               0.004189810              -0.000000000              -0.000099331               0.001429700               0.001330369               0.000000000               0.000000000               0.000000000               0.000000000               0.001776959               0.004431504               0.000000000               0.000112420               0.001439680               0.001552100               0.000000000               0.000000000               0.000000000               0.000000000               0.002478334               0.004636047               0.000000000               0.000349866               0.001428712               0.001778577               0.000000000               0.000000000               0.000000000               0.000000000               0.003248319               0.004796300               0.000000000               0.000618576               0.001392559               0.002011135               0.000000000               0.000000000               0.000000000               0.000000000               0.004120623               0.004911930               0.000000000               0.000931233               0.001326883               0.002258116               0.000000000               0.000000000               0.000000000               0.000000000               0.004784993               0.005026763               0.000000000               0.001166015               0.001286899               0.002452914               0.000000000               0.000000000               0.000000000               0.000000000               0.000000000               0.000000000               0.000000000               0.000000000               0.000000000               0.000000000               0.000000000               0.000000000               0.000000000               0.000000000               0.000000000               0.000000000               0.000000000               0.000000000               0.000000000               0.000000000               0.000000000               0.000000000               0.000000000               0.000000000               0.000000000               0.000000000               0.000000000               0.000000000               0.000000000               0.000000000               0.000000000               0.000000000               0.000000000               0.000000000               0.000000000               0.000000000               0.000000000               0.000000000               0.000000000               0.000000000               0.000000000               0.000000000               0.000000000               0.000000000               0.000000000               0.000000000               0.000000000               0.000000000               0.000000000               0.000000000               0.000000000               0.000000000               0.000000000               0.000000000               0.000000000               0.000000000               0.000000000               0.000000000               0.000000000               0.000000000               0.000000000               0.000000000               0.000000000               0.000000000               0.000000000               0.000000000               0.000000000               0.000000000               0.000000000               0.000000000               0.000000000               0.000000000               0.000000000               0.000000000               0.000000000               0.000000000               0.000000000               0.000000000               0.000000000               0.000000000               0.000000000               0.000000000               0.000000000               0.000000000               0.000000000               0.000000000               0.000000000               0.000000000               0.000000000               0.000000000               0.000000000               0.000000000               0.000000000               0.000000000               0.000000000               0.000000000               0.000000000               0.000000000               0.000000000               0.000000000               0.000000000               0.000000000               0.000000000               0.000000000               0.000000000               0.000000000               0.000000000               0.000000000               0.000000000               0.000000000               0.000000000               0.000000000               0.000000000               0.000000000               0.000000000               0.000000000               0.000000000               0.000000000               0.000000000               0.000000000               0.000000000               0.000000000               0.000000000               0.000000000               0.000000000               0.000000000               0.000000000               0.000000000               0.000000000               0.000000000               0.000000000               0.000000000               0.000000000               0.000000000               0.000000000               0.000000000               0.000000000               0.000000000               0.000000000               0.000000000               0.000000000               0.000000000               0.000000000               0.000000000               0.000000000               0.000000000               0.000000000               0.000000000               0.000000000               0.000000000               0.000000000               0.000000000               0.000000000               0.000000000               0.000000000               0.000000000               0.000000000               0.000000000               0.000000000               0.000000000               0.000000000               0.000000000               0.000000000               0.000000000               0.000000000               0.000000000               0.000000000               0.000000000               0.000000000               0.000000000               0.000000000               0.000000000               0.000000000               0.000000000               0.002134638               0.021405924               0.001441944              -0.001875247               0.007760319               0.005885072               0.000000000               0.000000000               0.000000000               0.000000000               0.001928254               0.016427626               0.000633805              -0.001330355               0.005919272               0.004588917               0.000000000               0.000000000               0.000000000               0.000000000               0.002360133               0.012416095              -0.000164238              -0.000666960               0.004360977               0.003694017               0.000000000               0.000000000               0.000000000               0.000000000               0.002105755               0.010132732              -0.000489342              -0.000476932               0.003536521               0.003059589               0.000000000               0.000000000               0.000000000               0.000000000               0.001684455               0.008660101              -0.000613716              -0.000450841               0.003036952               0.002586111               0.000000000               0.000000000               0.000000000               0.000000000               0.001266894               0.007609004              -0.000650835              -0.000476039               0.002694989               0.002218950               0.000000000               0.000000000               0.000000000               0.000000000               0.000904844               0.006788079              -0.000646323              -0.000509192               0.002432401               0.001923209               0.000000000               0.000000000               0.000000000               0.000000000               0.000606057               0.006096295              -0.000624460              -0.000534765               0.002210333               0.001675568               0.000000000               0.000000000               0.000000000               0.000000000               0.000365580               0.005477358              -0.000592156              -0.000547576               0.002008293               0.001460717               0.000000000               0.000000000               0.000000000               0.000000000               0.000185040               0.004894601              -0.000554370              -0.000542434               0.001812329               0.001269895               0.000000000               0.000000000               0.000000000               0.000000000               0.000059384               0.004322977              -0.000515617              -0.000518102               0.001613679               0.001095577               0.000000000               0.000000000               0.000000000               0.000000000              -0.000030365               0.003742060              -0.000473992              -0.000479143               0.001407055               0.000927912               0.000000000               0.000000000               0.000000000               0.000000000              -0.000087095               0.003141035              -0.000425980              -0.000425289               0.001188764               0.000763475               0.000000000               0.000000000               0.000000000               0.000000000              -0.000110919               0.002511668              -0.000367388              -0.000355552               0.000955732               0.000600179               0.000000000               0.000000000               0.000000000               0.000000000              -0.000103960               0.001841553              -0.000286195              -0.000269179               0.000703571               0.000434392               0.000000000               0.000000000               0.000000000               0.000000000              -0.000061283               0.001113164              -0.000165018              -0.000162126               0.000425093               0.000262967               0.000000000               0.000000000               0.000000000               0.000000000              -0.000088774               0.000568831              -0.000103792              -0.000104394               0.000224406               0.000120012               0.000000000               0.000000000               0.000000000               0.000000000               0.002269898               0.020058323               0.002667260              -0.001656076               0.007238066               0.005581990               0.000000000               0.000000000               0.000000000               0.000000000               0.001726611               0.015576893               0.001163446              -0.001299629               0.005625455               0.004325826               0.000000000               0.000000000               0.000000000               0.000000000               0.001801596               0.012082271              -0.000303898              -0.000834683               0.004305611               0.003470928               0.000000000               0.000000000               0.000000000               0.000000000               0.001426259               0.010061668              -0.000876880              -0.000722860               0.003594809               0.002871949               0.000000000               0.000000000               0.000000000               0.000000000               0.000997150               0.008726096              -0.001083321              -0.000716829               0.003147613               0.002430783               0.000000000               0.000000000               0.000000000               0.000000000               0.000621384               0.007744878              -0.001134639              -0.000735089               0.002826630               0.002091541               0.000000000               0.000000000               0.000000000               0.000000000               0.000323535               0.006959826              -0.001114780              -0.000748651               0.002569469               0.001820818               0.000000000               0.000000000               0.000000000               0.000000000               0.000092156               0.006284445              -0.001068401              -0.000750996               0.002345126               0.001594130               0.000000000               0.000000000               0.000000000               0.000000000              -0.000079411               0.005674833              -0.001008870              -0.000739132               0.002137969               0.001398837               0.000000000               0.000000000               0.000000000               0.000000000              -0.000189205               0.005099810              -0.000938908              -0.000708427               0.001936062               0.001227635               0.000000000               0.000000000               0.000000000               0.000000000              -0.000246385               0.004536034              -0.000864766              -0.000659398               0.001731795               0.001072398               0.000000000               0.000000000               0.000000000               0.000000000              -0.000265300               0.003971814              -0.000786726              -0.000595963               0.001522579               0.000926616               0.000000000               0.000000000               0.000000000               0.000000000              -0.000254882               0.003406746              -0.000700275              -0.000521423               0.001309378               0.000787955               0.000000000               0.000000000               0.000000000               0.000000000              -0.000222311               0.002841163              -0.000595938              -0.000438511               0.001093215               0.000654704               0.000000000               0.000000000               0.000000000               0.000000000              -0.000167381               0.002273833              -0.000456490              -0.000346996               0.000873602               0.000526606               0.000000000               0.000000000               0.000000000               0.000000000              -0.000088987               0.001708031              -0.000258164              -0.000246873               0.000651629               0.000404756               0.000000000               0.000000000               0.000000000               0.000000000              -0.000086064               0.001317434              -0.000156570              -0.000196953               0.000504791               0.000307838               0.000000000               0.000000000               0.000000000               0.000000000               0.002366267               0.018015814               0.003498549              -0.001364625               0.006460086               0.005095461               0.000000000               0.000000000               0.000000000               0.000000000               0.001355157               0.014312643               0.001517203              -0.001280894               0.005197798               0.003916904               0.000000000               0.000000000               0.000000000               0.000000000               0.000940042               0.011594113              -0.000384609              -0.001096746               0.004230248               0.003133502               0.000000000               0.000000000               0.000000000               0.000000000               0.000433224               0.009947071              -0.001084762              -0.001080922               0.003675964               0.002595042               0.000000000               0.000000000               0.000000000               0.000000000               0.000026142               0.008798506              -0.001314047              -0.001090008               0.003296142               0.002206134               0.000000000               0.000000000               0.000000000               0.000000000              -0.000271557               0.007907958              -0.001354392              -0.001090326               0.002999402               0.001909075               0.000000000               0.000000000               0.000000000               0.000000000              -0.000468070               0.007163790              -0.001312794              -0.001070998               0.002744905               0.001673907               0.000000000               0.000000000               0.000000000               0.000000000              -0.000581528               0.006505760              -0.001243035              -0.001031291               0.002512329               0.001481038               0.000000000               0.000000000               0.000000000               0.000000000              -0.000636246               0.005897917              -0.001163770              -0.000975830               0.002291229               0.001315399               0.000000000               0.000000000               0.000000000               0.000000000              -0.000637601               0.005325404              -0.001072285              -0.000904774               0.002076708               0.001171934               0.000000000               0.000000000               0.000000000               0.000000000              -0.000594559               0.004775998              -0.000974088              -0.000819958               0.001865303               0.001045345               0.000000000               0.000000000               0.000000000               0.000000000              -0.000527747               0.004243681              -0.000871230              -0.000728364               0.001657334               0.000928970               0.000000000               0.000000000               0.000000000               0.000000000              -0.000443124               0.003731405              -0.000759589              -0.000632596               0.001454654               0.000822059               0.000000000               0.000000000               0.000000000               0.000000000              -0.000343032               0.003245239              -0.000628718              -0.000534291               0.001259832               0.000725541               0.000000000               0.000000000               0.000000000               0.000000000              -0.000230948               0.002793865              -0.000464587              -0.000435838               0.001076558               0.000640721               0.000000000               0.000000000               0.000000000               0.000000000              -0.000114197               0.002395082              -0.000253678              -0.000342208               0.000912422               0.000570214               0.000000000               0.000000000               0.000000000               0.000000000              -0.000082386               0.002153686              -0.000148726              -0.000300105               0.000817923               0.000517818               0.000000000               0.000000000               0.000000000               0.000000000               0.002269255               0.015521832               0.003861031              -0.001089259               0.005536978               0.004447719               0.000000000               0.000000000               0.000000000               0.000000000               0.000779081               0.012810193               0.001682582              -0.001309116               0.004706394               0.003397277               0.000000000               0.000000000               0.000000000               0.000000000              -0.000129584               0.011021925              -0.000373520              -0.001426331               0.004149382               0.002723051               0.000000000               0.000000000               0.000000000               0.000000000              -0.000706097               0.009782954              -0.001073028              -0.001487652               0.003756836               0.002269184               0.000000000               0.000000000               0.000000000               0.000000000              -0.001032990               0.008822239              -0.001272498              -0.001490148               0.003437433               0.001947285               0.000000000               0.000000000               0.000000000               0.000000000              -0.001195810               0.008017179              -0.001287494              -0.001450573               0.003155890               0.001705318               0.000000000               0.000000000               0.000000000               0.000000000              -0.001252555               0.007306465              -0.001229858              -0.001383013               0.002896468               0.001513455               0.000000000               0.000000000               0.000000000               0.000000000              -0.001226512               0.006660296              -0.001148330              -0.001292476               0.002650901               0.001358425               0.000000000               0.000000000               0.000000000               0.000000000              -0.001139792               0.006054762              -0.001064485              -0.001184265               0.002412988               0.001228724               0.000000000               0.000000000               0.000000000               0.000000000              -0.001015581               0.005490116              -0.000972314              -0.001067105               0.002185722               0.001118617               0.000000000               0.000000000               0.000000000               0.000000000              -0.000871713               0.004963838              -0.000868639              -0.000947370               0.001970386               0.001023016               0.000000000               0.000000000               0.000000000               0.000000000              -0.000725205               0.004469532              -0.000757949              -0.000830641               0.001766709               0.000936068               0.000000000               0.000000000               0.000000000               0.000000000              -0.000576287               0.004010730              -0.000641901              -0.000717447               0.001576045               0.000858598               0.000000000               0.000000000               0.000000000               0.000000000              -0.000418667               0.003601547              -0.000514388              -0.000607192               0.001402901               0.000795709               0.000000000               0.000000000               0.000000000               0.000000000              -0.000262077               0.003256968              -0.000365764              -0.000505399               0.001254111               0.000748713               0.000000000               0.000000000               0.000000000               0.000000000              -0.000122901               0.002996304              -0.000193081              -0.000420625               0.001138966               0.000718342               0.000000000               0.000000000               0.000000000               0.000000000              -0.000074066               0.002864669              -0.000109967              -0.000385857               0.001083499               0.000697642               0.000000000               0.000000000               0.000000000               0.000000000               0.001869688               0.012843745               0.003766058              -0.000904336               0.004582650               0.003678314               0.000000000               0.000000000               0.000000000               0.000000000               0.000011496               0.011236345               0.001687972              -0.001400230               0.004212154               0.002811924               0.000000000               0.000000000               0.000000000               0.000000000              -0.001292679               0.010408676              -0.000240097              -0.001785835               0.004064802               0.002278967               0.000000000               0.000000000               0.000000000               0.000000000              -0.001832997               0.009546107              -0.000839580              -0.001880633               0.003808881               0.001928249               0.000000000               0.000000000               0.000000000               0.000000000              -0.002003671               0.008743455              -0.000988300              -0.001844304               0.003529224               0.001684920               0.000000000               0.000000000               0.000000000               0.000000000              -0.001986783               0.008002624              -0.000984731              -0.001745367               0.003249304               0.001503936               0.000000000               0.000000000               0.000000000               0.000000000              -0.001868584               0.007321780              -0.000928950              -0.001615938               0.002979215               0.001363277               0.000000000               0.000000000               0.000000000               0.000000000              -0.001686788               0.006685292              -0.000858368              -0.001468204               0.002717810               0.001249606               0.000000000               0.000000000               0.000000000               0.000000000              -0.001465077               0.006088843              -0.000791959              -0.001310506               0.002466429               0.001155923               0.000000000               0.000000000               0.000000000               0.000000000              -0.001229890               0.005540860              -0.000724290              -0.001153814               0.002231539               0.001077726               0.000000000               0.000000000               0.000000000               0.000000000              -0.001002887               0.005045348              -0.000640402              -0.001006749               0.002017349               0.001010600               0.000000000               0.000000000               0.000000000               0.000000000              -0.000790509               0.004597347              -0.000544966              -0.000871107               0.001822803               0.000951695               0.000000000               0.000000000               0.000000000               0.000000000              -0.000586553               0.004204638              -0.000447375              -0.000745535               0.001650044               0.000904508               0.000000000               0.000000000               0.000000000               0.000000000              -0.000393153               0.003879476              -0.000346080              -0.000632365               0.001503934               0.000871569               0.000000000               0.000000000               0.000000000               0.000000000              -0.000223709               0.003635731              -0.000235722              -0.000538356               0.001391350               0.000852994               0.000000000               0.000000000               0.000000000               0.000000000              -0.000096024               0.003489604              -0.000119598              -0.000472208               0.001320592               0.000848384               0.000000000               0.000000000               0.000000000               0.000000000              -0.000045771               0.003443767              -0.000062140              -0.000447634               0.001297122               0.000849488               0.000000000               0.000000000               0.000000000               0.000000000               0.001104834               0.010200665               0.003298403              -0.000860771               0.003687110               0.002826340               0.000000000               0.000000000               0.000000000               0.000000000              -0.000902832               0.009706790               0.001597689              -0.001551908               0.003752867               0.002200959               0.000000000               0.000000000               0.000000000               0.000000000              -0.002412636               0.009760322               0.000031676              -0.002124774               0.003961666               0.001836892               0.000000000               0.000000000               0.000000000               0.000000000              -0.002798938               0.009212476              -0.000425405              -0.002201156               0.003804513               0.001603357               0.000000000               0.000000000               0.000000000               0.000000000              -0.002755666               0.008534436              -0.000536976              -0.002100174               0.003544842               0.001444667               0.000000000               0.000000000               0.000000000               0.000000000              -0.002537361               0.007849159              -0.000542584              -0.001932650               0.003260577               0.001327927               0.000000000               0.000000000               0.000000000               0.000000000              -0.002240323               0.007193181              -0.000517974              -0.001739264               0.002977458               0.001238193               0.000000000               0.000000000               0.000000000               0.000000000              -0.001909176               0.006568271              -0.000482586              -0.001536971               0.002701725               0.001164754               0.000000000               0.000000000               0.000000000               0.000000000              -0.001567577               0.005993054              -0.000453053              -0.001336970               0.002443321               0.001106352               0.000000000               0.000000000               0.000000000               0.000000000              -0.001240905               0.005478663              -0.000424333              -0.001150169               0.002209593               0.001059423               0.000000000               0.000000000               0.000000000               0.000000000              -0.000943894               0.005027061              -0.000376128              -0.000982341               0.002003117               0.001020776               0.000000000               0.000000000               0.000000000               0.000000000              -0.000679163               0.004638687              -0.000310930              -0.000834520               0.001824387               0.000989867               0.000000000               0.000000000               0.000000000               0.000000000              -0.000445437               0.004325398              -0.000240378              -0.000707712               0.001677689               0.000969977               0.000000000               0.000000000               0.000000000               0.000000000              -0.000251869               0.004091482              -0.000167064              -0.000605885               0.001565775               0.000959891               0.000000000               0.000000000               0.000000000               0.000000000              -0.000110027               0.003944270              -0.000095603              -0.000534293               0.001492841               0.000958548               0.000000000               0.000000000               0.000000000               0.000000000              -0.000031446               0.003888610              -0.000037713              -0.000497867               0.001462146               0.000964279               0.000000000               0.000000000               0.000000000               0.000000000              -0.000001016               0.003900268              -0.000008314              -0.000487913               0.001462714               0.000974801               0.000000000               0.000000000               0.000000000               0.000000000               0.000014538               0.007750782               0.002569732              -0.000963396               0.002904699               0.001941304               0.000000000               0.000000000               0.000000000               0.000000000              -0.001903713               0.008305001               0.001467104              -0.001752014               0.003352310               0.001600296               0.000000000               0.000000000               0.000000000               0.000000000              -0.003371623               0.009078198               0.000424870              -0.002399128               0.003825745               0.001426618               0.000000000               0.000000000               0.000000000               0.000000000              -0.003505986               0.008768509               0.000095938              -0.002410802               0.003726408               0.001315606               0.000000000               0.000000000               0.000000000               0.000000000              -0.003223092               0.008196330              -0.000017142              -0.002233195               0.003476481               0.001243286               0.000000000               0.000000000               0.000000000               0.000000000              -0.002809350               0.007568850              -0.000062691              -0.001999607               0.003189461               0.001189853               0.000000000               0.000000000               0.000000000               0.000000000              -0.002354607               0.006940962              -0.000090005              -0.001750593               0.002897162               0.001146569               0.000000000               0.000000000               0.000000000               0.000000000              -0.001899413               0.006347573              -0.000105206              -0.001505723               0.002617744               0.001112021               0.000000000               0.000000000               0.000000000               0.000000000              -0.001463293               0.005816860              -0.000119901              -0.001275839               0.002364214               0.001088375               0.000000000               0.000000000               0.000000000               0.000000000              -0.001062597               0.005356344              -0.000132464              -0.001068014               0.002141435               0.001073421               0.000000000               0.000000000               0.000000000               0.000000000              -0.000713115               0.004963364              -0.000123690              -0.000887836               0.001950384               0.001062547               0.000000000               0.000000000               0.000000000               0.000000000              -0.000419658               0.004650102              -0.000094423              -0.000738633               0.001796229               0.001057597               0.000000000               0.000000000               0.000000000               0.000000000              -0.000189862               0.004427764              -0.000056372              -0.000624667               0.001684129               0.001059462               0.000000000               0.000000000               0.000000000               0.000000000              -0.000033808               0.004296382              -0.000016258              -0.000549724               0.001615355               0.001065630               0.000000000               0.000000000               0.000000000               0.000000000               0.000046750               0.004253641               0.000012646              -0.000514173               0.001589257               0.001075084               0.000000000               0.000000000               0.000000000               0.000000000               0.000051342               0.004280433               0.000018805              -0.000515800               0.001598730               0.001082930               0.000000000               0.000000000               0.000000000               0.000000000               0.000038520               0.004325843               0.000020126              -0.000526284               0.001617361               0.001091077               0.000000000               0.000000000               0.000000000               0.000000000              -0.001263927               0.005681070               0.001696436              -0.001184104               0.002288372               0.001104268               0.000000000               0.000000000               0.000000000               0.000000000              -0.002880793               0.007045507               0.001328789              -0.001960981               0.003002139               0.001041158               0.000000000               0.000000000               0.000000000               0.000000000              -0.004128420               0.008379589               0.000898080              -0.002595600               0.003658368               0.001062768               0.000000000               0.000000000               0.000000000               0.000000000              -0.003997517               0.008316312               0.000652013              -0.002538602               0.003618277               0.001079675               0.000000000               0.000000000               0.000000000               0.000000000              -0.003513053               0.007880131               0.000504011              -0.002302406               0.003394153               0.001091747               0.000000000               0.000000000               0.000000000               0.000000000              -0.002942412               0.007331344               0.000401836              -0.002019817               0.003117029               0.001097212               0.000000000               0.000000000               0.000000000               0.000000000              -0.002365418               0.006759421               0.000317716              -0.001731955               0.002830436               0.001098481               0.000000000               0.000000000               0.000000000               0.000000000              -0.001810979               0.006218951               0.000250167              -0.001456482               0.002558457               0.001101975               0.000000000               0.000000000               0.000000000               0.000000000              -0.001303867               0.005743628               0.000191742              -0.001206901               0.002316824               0.001109923               0.000000000               0.000000000               0.000000000               0.000000000              -0.000849857               0.005340864               0.000138483              -0.000986302               0.002109037               0.001122736               0.000000000               0.000000000               0.000000000               0.000000000              -0.000466340               0.005001848               0.000100858              -0.000800106               0.001933968               0.001133862               0.000000000               0.000000000               0.000000000               0.000000000              -0.000161272               0.004746726               0.000082842              -0.000653816               0.001800165               0.001146349               0.000000000               0.000000000               0.000000000               0.000000000               0.000062431               0.004588423               0.000074453              -0.000550140               0.001712839               0.001162699               0.000000000               0.000000000               0.000000000               0.000000000               0.000199283               0.004529988               0.000064572              -0.000491516               0.001673820               0.001182304               0.000000000               0.000000000               0.000000000               0.000000000               0.000245073               0.004560672               0.000046685              -0.000478181               0.001679602               0.001201422               0.000000000               0.000000000               0.000000000               0.000000000               0.000212165               0.004653413               0.000023425              -0.000502113               0.001718493               0.001216380               0.000000000               0.000000000               0.000000000               0.000000000               0.000168473               0.004717204               0.000010005              -0.000526472               0.001747876               0.001221404               0.000000000               0.000000000               0.000000000               0.000000000              -0.002735092               0.003775631               0.000786909              -0.001497610               0.001757734               0.000260124               0.000000000               0.000000000               0.000000000               0.000000000              -0.003712068               0.005579802               0.001177004              -0.002089496               0.002556414               0.000466918               0.000000000               0.000000000               0.000000000               0.000000000              -0.004591859               0.007309810               0.001388817              -0.002635667               0.003315135               0.000679467               0.000000000               0.000000000               0.000000000               0.000000000              -0.004313931               0.007624588               0.001234651              -0.002570791               0.003398434               0.000827643               0.000000000               0.000000000               0.000000000               0.000000000              -0.003749016               0.007454015               0.001052753              -0.002337627               0.003263856               0.000926229               0.000000000               0.000000000               0.000000000               0.000000000              -0.003128480               0.007093324               0.000890732              -0.002059841               0.003051031               0.000991190               0.000000000               0.000000000               0.000000000               0.000000000              -0.002518481               0.006667267               0.000754457              -0.001777834               0.002815012               0.001037177               0.000000000               0.000000000               0.000000000               0.000000000              -0.001928408               0.006241374               0.000639826              -0.001503321               0.002581544               0.001078223               0.000000000               0.000000000               0.000000000               0.000000000              -0.001382504               0.005854892               0.000537779              -0.001250297               0.002368377               0.001118080               0.000000000               0.000000000               0.000000000               0.000000000              -0.000890367               0.005523479               0.000442559              -0.001024320               0.002182581               0.001158261               0.000000000               0.000000000               0.000000000               0.000000000              -0.000466075               0.005245284               0.000355016              -0.000830437               0.002025223               0.001194786               0.000000000               0.000000000               0.000000000               0.000000000              -0.000119101               0.005023456               0.000283688              -0.000672593               0.001898666               0.001226073               0.000000000               0.000000000               0.000000000               0.000000000               0.000147315               0.004869541               0.000221476              -0.000553448               0.001807647               0.001254199               0.000000000               0.000000000               0.000000000               0.000000000               0.000328278               0.004788643               0.000156150              -0.000475475               0.001754690               0.001279215               0.000000000               0.000000000               0.000000000               0.000000000               0.000421896               0.004784305               0.000088191              -0.000439826               0.001741361               0.001301535               0.000000000               0.000000000               0.000000000               0.000000000               0.000440238               0.004861242               0.000031850              -0.000442565               0.001767919               0.001325354               0.000000000               0.000000000               0.000000000               0.000000000               0.000414998               0.004913005               0.000003933              -0.000458500               0.001790486               0.001331985               0.000000000               0.000000000               0.000000000               0.000000000              -0.004575850               0.002065606              -0.000083740              -0.001974141               0.001346573              -0.000627568               0.000000000               0.000000000               0.000000000               0.000000000              -0.004640732               0.004093650               0.000969061              -0.002251976               0.002115194              -0.000136782               0.000000000               0.000000000               0.000000000               0.000000000              -0.004972745               0.006022683               0.001778822              -0.002617609               0.002880077               0.000262468               0.000000000               0.000000000               0.000000000               0.000000000              -0.004558674               0.006690847               0.001780838              -0.002545853               0.003078877               0.000533024               0.000000000               0.000000000               0.000000000               0.000000000              -0.003953329               0.006821981               0.001603420              -0.002335240               0.003052384               0.000717144               0.000000000               0.000000000               0.000000000               0.000000000              -0.003312330               0.006703140               0.001402182              -0.002080012               0.002927695               0.000847683               0.000000000               0.000000000               0.000000000               0.000000000              -0.002687947               0.006467696               0.001224109              -0.001816438               0.002761356               0.000944918               0.000000000               0.000000000               0.000000000               0.000000000              -0.002085830               0.006186861               0.001070502              -0.001555540               0.002580780               0.001025239               0.000000000               0.000000000               0.000000000               0.000000000              -0.001510835               0.005902425               0.000933291              -0.001304363               0.002402243               0.001097880               0.000000000               0.000000000               0.000000000               0.000000000              -0.000979165               0.005646166               0.000801835              -0.001072955               0.002239688               0.001166733               0.000000000               0.000000000               0.000000000               0.000000000              -0.000505861               0.005425543               0.000670018              -0.000867889               0.002097793               0.001229904               0.000000000               0.000000000               0.000000000               0.000000000              -0.000100002               0.005240591               0.000548470              -0.000692573               0.001977704               0.001285131               0.000000000               0.000000000               0.000000000               0.000000000               0.000232536               0.005092173               0.000433949              -0.000549319               0.001880481               0.001331161               0.000000000               0.000000000               0.000000000               0.000000000               0.000487698               0.004986686               0.000315377              -0.000440448               0.001809028               0.001368580               0.000000000               0.000000000               0.000000000               0.000000000               0.000656080               0.004929223               0.000193699              -0.000370122               0.001766432               0.001396310               0.000000000               0.000000000               0.000000000               0.000000000               0.000741303               0.004937579               0.000086904              -0.000339208               0.001758913               0.001419705               0.000000000               0.000000000               0.000000000               0.000000000               0.000750140               0.004956108               0.000035747              -0.000338210               0.001764756               0.001426546               0.000000000               0.000000000               0.000000000               0.000000000              -0.006665242               0.000683736              -0.000822093              -0.002584930               0.001089548              -0.001495382               0.000000000               0.000000000               0.000000000               0.000000000              -0.005701762               0.002692505               0.000701081              -0.002474720               0.001722396              -0.000752323               0.000000000               0.000000000               0.000000000               0.000000000              -0.005292460               0.004546759               0.001970104              -0.002553012               0.002366574              -0.000186438               0.000000000               0.000000000               0.000000000               0.000000000              -0.004660878               0.005449604               0.002158388              -0.002429024               0.002626190               0.000197166               0.000000000               0.000000000               0.000000000               0.000000000              -0.003994548               0.005854942               0.002035003              -0.002229818               0.002694900               0.000465082               0.000000000               0.000000000               0.000000000               0.000000000              -0.003335597               0.005986602               0.001834399              -0.001999170               0.002661903               0.000662734               0.000000000               0.000000000               0.000000000               0.000000000              -0.002704785               0.005962562               0.001636281              -0.001759611               0.002574037               0.000814427               0.000000000               0.000000000               0.000000000               0.000000000              -0.002102747               0.005850946               0.001463010              -0.001519895               0.002456927               0.000937032               0.000000000               0.000000000               0.000000000               0.000000000              -0.001516006               0.005706064               0.001305701              -0.001281757               0.002329254               0.001047497               0.000000000               0.000000000               0.000000000               0.000000000              -0.000958698               0.005557008               0.001150027              -0.001054136               0.002203696               0.001149560               0.000000000               0.000000000               0.000000000               0.000000000              -0.000446290               0.005411807               0.000992860              -0.000843833               0.002085195               0.001241362               0.000000000               0.000000000               0.000000000               0.000000000               0.000010561               0.005285399               0.000840618              -0.000656713               0.001980686               0.001323973               0.000000000               0.000000000               0.000000000               0.000000000               0.000404468               0.005177183               0.000688527              -0.000495471               0.001890867               0.001395396               0.000000000               0.000000000               0.000000000               0.000000000               0.000731348               0.005091988               0.000524050              -0.000362242               0.001818060               0.001455818               0.000000000               0.000000000               0.000000000               0.000000000               0.000977811               0.005026299               0.000347634              -0.000261608               0.001762619               0.001501011               0.000000000               0.000000000               0.000000000               0.000000000               0.001131302               0.004998562               0.000172932              -0.000200581               0.001733031               0.001532450               0.000000000               0.000000000               0.000000000               0.000000000               0.001178128               0.004997572               0.000086653              -0.000182898               0.001726807               0.001543909               0.000000000               0.000000000               0.000000000               0.000000000              -0.008860489              -0.000296021              -0.001322187              -0.003285678               0.000996545              -0.002289133               0.000000000               0.000000000               0.000000000               0.000000000              -0.006844955               0.001455510               0.000419112              -0.002748794               0.001401425              -0.001347369               0.000000000               0.000000000               0.000000000               0.000000000              -0.005577355               0.003015629               0.001939369              -0.002468457               0.001828016              -0.000640442               0.000000000               0.000000000               0.000000000               0.000000000              -0.004648507               0.004017007               0.002286470              -0.002245311               0.002087424              -0.000157887               0.000000000               0.000000000               0.000000000               0.000000000              -0.003878434               0.004630554               0.002246457              -0.002033228               0.002221244               0.000188017               0.000000000               0.000000000               0.000000000               0.000000000              -0.003192329               0.004984538               0.002080565              -0.001820187               0.002268224               0.000448037               0.000000000               0.000000000               0.000000000               0.000000000              -0.002557258               0.005171749               0.001890278              -0.001605437               0.002259044               0.000653607               0.000000000               0.000000000               0.000000000               0.000000000              -0.001965012               0.005249013               0.001715282              -0.001393003               0.002213987               0.000820984               0.000000000               0.000000000               0.000000000               0.000000000              -0.001390768               0.005261377               0.001555453              -0.001179208               0.002146844               0.000967636               0.000000000               0.000000000               0.000000000               0.000000000              -0.000827736               0.005237303               0.001395577              -0.000965062               0.002067437               0.001102375               0.000000000               0.000000000               0.000000000               0.000000000              -0.000284037               0.005198937               0.001231581              -0.000756380               0.001985088               0.001228708               0.000000000               0.000000000               0.000000000               0.000000000               0.000221518               0.005159575               0.001068485              -0.000561877               0.001907133               0.001345256               0.000000000               0.000000000               0.000000000               0.000000000               0.000679922               0.005121035               0.000903810              -0.000385158               0.001835380               0.001450222               0.000000000               0.000000000               0.000000000               0.000000000               0.001087851               0.005082534               0.000721945              -0.000227373               0.001769952               0.001542579               0.000000000               0.000000000               0.000000000               0.000000000               0.001434651               0.005043087               0.000511347              -0.000092392               0.001711809               0.001619418               0.000000000               0.000000000               0.000000000               0.000000000               0.001693244               0.005016864               0.000269463               0.000007858               0.001669652               0.001677510               0.000000000               0.000000000               0.000000000               0.000000000               0.001808675               0.005014981               0.000145709               0.000051380               0.001654517               0.001705897               0.000000000               0.000000000               0.000000000               0.000000000              -0.010952681              -0.000884278              -0.001486513              -0.003996718               0.001037472              -0.002959246               0.000000000               0.000000000               0.000000000               0.000000000              -0.007969794               0.000457957               0.000177284              -0.003045915               0.001167949              -0.001877966               0.000000000               0.000000000               0.000000000               0.000000000              -0.005838405               0.001580665               0.001683715              -0.002386982               0.001322539              -0.001064443               0.000000000               0.000000000               0.000000000               0.000000000              -0.004559393               0.002564332               0.002112344              -0.002030311               0.001531536              -0.000498774               0.000000000               0.000000000               0.000000000               0.000000000              -0.003651389               0.003307531               0.002148634              -0.001782709               0.001696734              -0.000085975               0.000000000               0.000000000               0.000000000               0.000000000              -0.002924004               0.003836210               0.002039228              -0.001576025               0.001804065               0.000228040               0.000000000               0.000000000               0.000000000               0.000000000              -0.002285826               0.004208525               0.001882905              -0.001383248               0.001863909               0.000480662               0.000000000               0.000000000               0.000000000               0.000000000              -0.001706892               0.004461673               0.001727673              -0.001197791               0.001886473               0.000688681               0.000000000               0.000000000               0.000000000               0.000000000              -0.001152516               0.004631424               0.001584769              -0.001011120               0.001880832               0.000869712               0.000000000               0.000000000               0.000000000               0.000000000              -0.000601891               0.004743528               0.001440385              -0.000818649               0.001854043               0.001035394               0.000000000               0.000000000               0.000000000               0.000000000              -0.000050406               0.004827908               0.001288863              -0.000622390               0.001816750               0.001194360               0.000000000               0.000000000               0.000000000               0.000000000               0.000496441               0.004897704               0.001136167              -0.000426047               0.001774567               0.001348520               0.000000000               0.000000000               0.000000000               0.000000000               0.001026828               0.004949352               0.000985342              -0.000233609               0.001727637               0.001494028               0.000000000               0.000000000               0.000000000               0.000000000               0.001534825               0.004983613               0.000819061              -0.000047393               0.001676985               0.001629593               0.000000000               0.000000000               0.000000000               0.000000000               0.002008176               0.004996277               0.000611542               0.000128530               0.001622566               0.001751096               0.000000000               0.000000000               0.000000000               0.000000000               0.002426719               0.004998247               0.000337565               0.000285236               0.001570987               0.001856223               0.000000000               0.000000000               0.000000000               0.000000000               0.002670047               0.005019942               0.000192890               0.000373771               0.001548707               0.001922478               0.000000000               0.000000000               0.000000000               0.000000000              -0.012706595              -0.001179621              -0.001269634              -0.004617518               0.001145957              -0.003471560               0.000000000               0.000000000               0.000000000               0.000000000              -0.008938818              -0.000263098               0.000026903              -0.003319167               0.001018683              -0.002300484               0.000000000               0.000000000               0.000000000               0.000000000              -0.006061005               0.000408988               0.001233226              -0.002323998               0.000910989              -0.001413010               0.000000000               0.000000000               0.000000000               0.000000000              -0.004445337               0.001300937               0.001627226              -0.001829616               0.001043510              -0.000786106               0.000000000               0.000000000               0.000000000               0.000000000              -0.003395107               0.002101721               0.001699663              -0.001535878               0.001212524              -0.000323354               0.000000000               0.000000000               0.000000000               0.000000000              -0.002619528               0.002751259               0.001644485              -0.001326228               0.001359152               0.000032924               0.000000000               0.000000000               0.000000000               0.000000000              -0.001976403               0.003261482               0.001538792              -0.001148834               0.001470094               0.000321260               0.000000000               0.000000000               0.000000000               0.000000000              -0.001402826               0.003651360               0.001427061              -0.000982478               0.001544600               0.000562122               0.000000000               0.000000000               0.000000000               0.000000000              -0.000862483               0.003950111               0.001323583              -0.000817194               0.001589088               0.000771894               0.000000000               0.000000000               0.000000000               0.000000000              -0.000327202               0.004193949               0.001213369              -0.000646943               0.001613617               0.000966673               0.000000000               0.000000000               0.000000000               0.000000000               0.000219406               0.004400165               0.001096185              -0.000467743               0.001622621               0.001154878               0.000000000               0.000000000               0.000000000               0.000000000               0.000789011               0.004574330               0.000978938              -0.000275912               0.001616732               0.001340820               0.000000000               0.000000000               0.000000000               0.000000000               0.001379324               0.004724932               0.000862530              -0.000073370               0.001599418               0.001526048               0.000000000               0.000000000               0.000000000               0.000000000               0.001983529               0.004846390               0.000732762               0.000138023               0.001569440               0.001707462               0.000000000               0.000000000               0.000000000               0.000000000               0.002597709               0.004927734               0.000562867               0.000358171               0.001523171               0.001881342               0.000000000               0.000000000               0.000000000               0.000000000               0.003222110               0.004974008               0.000320388               0.000586534               0.001462475               0.002049009               0.000000000               0.000000000               0.000000000               0.000000000               0.003653500               0.005033177               0.000193100               0.000740908               0.001430740               0.002171648               0.000000000               0.000000000               0.000000000               0.000000000              -0.013874792              -0.001296656              -0.000731067              -0.005040962               0.001248094              -0.003792868               0.000000000               0.000000000               0.000000000               0.000000000              -0.009601959              -0.000696090              -0.000021934              -0.003513721               0.000939204              -0.002574517               0.000000000               0.000000000               0.000000000               0.000000000              -0.006214451              -0.000355837               0.000649034              -0.002285938               0.000643362              -0.001642576               0.000000000               0.000000000               0.000000000               0.000000000              -0.004356115               0.000439173               0.000884759              -0.001688438               0.000709198              -0.000979240               0.000000000               0.000000000               0.000000000               0.000000000              -0.003196291               0.001255398               0.000939312              -0.001355532               0.000870304              -0.000485228               0.000000000               0.000000000               0.000000000               0.000000000              -0.002376555               0.001971138               0.000920643              -0.001137598               0.001036238              -0.000101360               0.000000000               0.000000000               0.000000000               0.000000000              -0.001726663               0.002556883               0.000869482              -0.000967107               0.001174655               0.000207548               0.000000000               0.000000000               0.000000000               0.000000000              -0.001155978               0.003032526               0.000812528              -0.000812556               0.001281683               0.000469128               0.000000000               0.000000000               0.000000000               0.000000000              -0.000625451               0.003425805               0.000759798              -0.000662768               0.001362846               0.000700078               0.000000000               0.000000000               0.000000000               0.000000000              -0.000100751               0.003761726               0.000699631              -0.000507997               0.001423228               0.000915232               0.000000000               0.000000000               0.000000000               0.000000000               0.000447603               0.004051976               0.000635507              -0.000338645               0.001463527               0.001124882               0.000000000               0.000000000               0.000000000               0.000000000               0.001032749               0.004300221               0.000572528              -0.000150247               0.001483475               0.001333228               0.000000000               0.000000000               0.000000000               0.000000000               0.001661419               0.004517523               0.000507910               0.000058341               0.001486379               0.001544720               0.000000000               0.000000000               0.000000000               0.000000000               0.002334900               0.004700641               0.000435017               0.000288004               0.001470863               0.001758868               0.000000000               0.000000000               0.000000000               0.000000000               0.003063014               0.004841520               0.000337449               0.000543435               0.001432679               0.001976114               0.000000000               0.000000000               0.000000000               0.000000000               0.003867180               0.004936797               0.000193617               0.000833085               0.001367888               0.002200972               0.000000000               0.000000000               0.000000000               0.000000000               0.004467439               0.005034543               0.000120037               0.001045961               0.001329510               0.002375472               0.000000000               0.000000000               0.000000000               0.000000000              -0.014282622              -0.001319343               0.000000000              -0.005191062               0.001290564              -0.003900498               0.000000000               0.000000000               0.000000000               0.000000000              -0.009838600              -0.000836412              -0.000000000              -0.003584921               0.000916164              -0.002668758               0.000000000               0.000000000               0.000000000               0.000000000              -0.006269649              -0.000620855              -0.000000000              -0.002273510               0.000550881              -0.001722629               0.000000000               0.000000000               0.000000000               0.000000000              -0.004324171               0.000132273               0.000000000              -0.001638097               0.000590119              -0.001047978               0.000000000               0.000000000               0.000000000               0.000000000              -0.003120660               0.000951550              -0.000000000              -0.001289189               0.000746908              -0.000542281               0.000000000               0.000000000               0.000000000               0.000000000              -0.002280208               0.001686080              -0.000000000              -0.001065836               0.000917299              -0.000148537               0.000000000               0.000000000               0.000000000               0.000000000              -0.001628314               0.002292706              -0.000000000              -0.000897204               0.001063296               0.000166092               0.000000000               0.000000000               0.000000000               0.000000000              -0.001059963               0.002800313               0.000000000              -0.000747524               0.001182603               0.000435079               0.000000000               0.000000000               0.000000000               0.000000000              -0.000536845               0.003227846               0.000000000              -0.000604796               0.001277537               0.000672740               0.000000000               0.000000000               0.000000000               0.000000000              -0.000016691               0.003591535              -0.000000000              -0.000455200               0.001348900               0.000893700               0.000000000               0.000000000               0.000000000               0.000000000               0.000536633               0.003911845              -0.000000000              -0.000287743               0.001399850               0.001112107               0.000000000               0.000000000               0.000000000               0.000000000               0.001131720               0.004189810               0.000000000              -0.000099331               0.001429700               0.001330369               0.000000000               0.000000000               0.000000000               0.000000000               0.001776959               0.004431504              -0.000000000               0.000112420               0.001439680               0.001552100               0.000000000               0.000000000               0.000000000               0.000000000               0.002478334               0.004636047              -0.000000000               0.000349866               0.001428712               0.001778577               0.000000000               0.000000000               0.000000000               0.000000000               0.003248319               0.004796300              -0.000000000               0.000618576               0.001392559               0.002011135               0.000000000               0.000000000               0.000000000               0.000000000               0.004120623               0.004911930               0.000000000               0.000931233               0.001326883               0.002258116               0.000000000               0.000000000               0.000000000               0.000000000               0.004784993               0.005026763               0.000000000               0.001166015               0.001286899               0.002452914               0.000000000               0.000000000               0.000000000               0.000000000               0.002078400               0.021878562              -0.000000000              -0.001955416               0.007944586               0.005989171               0.000000000               0.000000000               0.000000000               0.000000000               0.001993407               0.016728992               0.000000000              -0.001343593               0.006024139               0.004680546               0.000000000               0.000000000               0.000000000               0.000000000               0.002553846               0.012537094               0.000000000              -0.000609443               0.004382137               0.003772694               0.000000000               0.000000000               0.000000000               0.000000000               0.002345566               0.010157108               0.000000000              -0.000390050               0.003515686               0.003125635               0.000000000               0.000000000               0.000000000               0.000000000               0.001930464               0.008633030               0.000000000              -0.000355204               0.002996049               0.002640845               0.000000000               0.000000000               0.000000000               0.000000000               0.001501939               0.007556257              -0.000000000              -0.000381304               0.002645828               0.002264524               0.000000000               0.000000000               0.000000000               0.000000000               0.001121292               0.006722772              -0.000000000              -0.000419861               0.002380855               0.001960994               0.000000000               0.000000000               0.000000000               0.000000000               0.000802200               0.006023160              -0.000000000              -0.000452069               0.002158389               0.001706321               0.000000000               0.000000000               0.000000000               0.000000000               0.000539916               0.005398145               0.000000000              -0.000472299               0.001956797               0.001484498               0.000000000               0.000000000               0.000000000               0.000000000               0.000333285               0.004807906               0.000000000              -0.000476005               0.001761288               0.001285282               0.000000000               0.000000000               0.000000000               0.000000000               0.000180550               0.004231779              -0.000000000              -0.000461265               0.001564334               0.001103069               0.000000000               0.000000000               0.000000000               0.000000000               0.000063727               0.003647818              -0.000000000              -0.000432078               0.001359953               0.000927875               0.000000000               0.000000000               0.000000000               0.000000000              -0.000021586               0.003037082               0.000000000              -0.000387729               0.001141594               0.000753865               0.000000000               0.000000000               0.000000000               0.000000000              -0.000069924               0.002383937               0.000000000              -0.000324213               0.000902709               0.000578496               0.000000000               0.000000000               0.000000000               0.000000000              -0.000078846               0.001672130              -0.000000000              -0.000238583               0.000636899               0.000398316               0.000000000               0.000000000               0.000000000               0.000000000              -0.000050662               0.000872121              -0.000000000              -0.000128013               0.000333375               0.000205362               0.000000000               0.000000000               0.000000000               0.000000000              -0.000092964               0.000259867               0.000000000              -0.000067345               0.000109069               0.000041724               0.000000000               0.000000000               0.000000000               0.000000000               0.002134638               0.021405924              -0.001441944              -0.001875247               0.007760319               0.005885072               0.000000000               0.000000000               0.000000000               0.000000000               0.001928254               0.016427626              -0.000633805              -0.001330355               0.005919272               0.004588917               0.000000000               0.000000000               0.000000000               0.000000000               0.002360133               0.012416095               0.000164238              -0.000666960               0.004360977               0.003694017               0.000000000               0.000000000               0.000000000               0.000000000               0.002105755               0.010132732               0.000489342              -0.000476932               0.003536521               0.003059589               0.000000000               0.000000000               0.000000000               0.000000000               0.001684455               0.008660101               0.000613716              -0.000450841               0.003036952               0.002586111               0.000000000               0.000000000               0.000000000               0.000000000               0.001266894               0.007609004               0.000650835              -0.000476039               0.002694989               0.002218950               0.000000000               0.000000000               0.000000000               0.000000000               0.000904844               0.006788079               0.000646323              -0.000509192               0.002432401               0.001923209               0.000000000               0.000000000               0.000000000               0.000000000               0.000606057               0.006096295               0.000624460              -0.000534765               0.002210333               0.001675568               0.000000000               0.000000000               0.000000000               0.000000000               0.000365580               0.005477358               0.000592156              -0.000547576               0.002008293               0.001460717               0.000000000               0.000000000               0.000000000               0.000000000               0.000185040               0.004894601               0.000554370              -0.000542434               0.001812329               0.001269895               0.000000000               0.000000000               0.000000000               0.000000000               0.000059384               0.004322977               0.000515617              -0.000518102               0.001613679               0.001095577               0.000000000               0.000000000               0.000000000               0.000000000              -0.000030365               0.003742060               0.000473992              -0.000479143               0.001407055               0.000927912               0.000000000               0.000000000               0.000000000               0.000000000              -0.000087095               0.003141035               0.000425980              -0.000425289               0.001188764               0.000763475               0.000000000               0.000000000               0.000000000               0.000000000              -0.000110919               0.002511668               0.000367388              -0.000355552               0.000955732               0.000600179               0.000000000               0.000000000               0.000000000               0.000000000              -0.000103960               0.001841553               0.000286195              -0.000269179               0.000703571               0.000434392               0.000000000               0.000000000               0.000000000               0.000000000              -0.000061283               0.001113164               0.000165018              -0.000162126               0.000425093               0.000262967               0.000000000               0.000000000               0.000000000               0.000000000              -0.000088774               0.000568831               0.000103792              -0.000104394               0.000224406               0.000120012               0.000000000               0.000000000               0.000000000               0.000000000               0.002269898               0.020058323              -0.002667260              -0.001656076               0.007238066               0.005581990               0.000000000               0.000000000               0.000000000               0.000000000               0.001726611               0.015576893              -0.001163446              -0.001299629               0.005625455               0.004325826               0.000000000               0.000000000               0.000000000               0.000000000               0.001801596               0.012082271               0.000303898              -0.000834683               0.004305611               0.003470928               0.000000000               0.000000000               0.000000000               0.000000000               0.001426259               0.010061668               0.000876880              -0.000722860               0.003594809               0.002871949               0.000000000               0.000000000               0.000000000               0.000000000               0.000997150               0.008726096               0.001083321              -0.000716829               0.003147613               0.002430783               0.000000000               0.000000000               0.000000000               0.000000000               0.000621384               0.007744878               0.001134639              -0.000735089               0.002826630               0.002091541               0.000000000               0.000000000               0.000000000               0.000000000               0.000323535               0.006959826               0.001114780              -0.000748651               0.002569469               0.001820818               0.000000000               0.000000000               0.000000000               0.000000000               0.000092156               0.006284445               0.001068401              -0.000750996               0.002345126               0.001594130               0.000000000               0.000000000               0.000000000               0.000000000              -0.000079411               0.005674833               0.001008870              -0.000739132               0.002137969               0.001398837               0.000000000               0.000000000               0.000000000               0.000000000              -0.000189205               0.005099810               0.000938908              -0.000708427               0.001936062               0.001227635               0.000000000               0.000000000               0.000000000               0.000000000              -0.000246385               0.004536034               0.000864766              -0.000659398               0.001731795               0.001072398               0.000000000               0.000000000               0.000000000               0.000000000              -0.000265300               0.003971814               0.000786726              -0.000595963               0.001522579               0.000926616               0.000000000               0.000000000               0.000000000               0.000000000              -0.000254882               0.003406746               0.000700275              -0.000521423               0.001309378               0.000787955               0.000000000               0.000000000               0.000000000               0.000000000              -0.000222311               0.002841163               0.000595938              -0.000438511               0.001093215               0.000654704               0.000000000               0.000000000               0.000000000               0.000000000              -0.000167381               0.002273833               0.000456490              -0.000346996               0.000873602               0.000526606               0.000000000               0.000000000               0.000000000               0.000000000              -0.000088987               0.001708031               0.000258164              -0.000246873               0.000651629               0.000404756               0.000000000               0.000000000               0.000000000               0.000000000              -0.000086064               0.001317434               0.000156570              -0.000196953               0.000504791               0.000307838               0.000000000               0.000000000               0.000000000               0.000000000               0.002366267               0.018015814              -0.003498549              -0.001364625               0.006460086               0.005095461               0.000000000               0.000000000               0.000000000               0.000000000               0.001355157               0.014312643              -0.001517203              -0.001280894               0.005197798               0.003916904               0.000000000               0.000000000               0.000000000               0.000000000               0.000940042               0.011594113               0.000384609              -0.001096746               0.004230248               0.003133502               0.000000000               0.000000000               0.000000000               0.000000000               0.000433224               0.009947071               0.001084762              -0.001080922               0.003675964               0.002595042               0.000000000               0.000000000               0.000000000               0.000000000               0.000026142               0.008798506               0.001314047              -0.001090008               0.003296142               0.002206134               0.000000000               0.000000000               0.000000000               0.000000000              -0.000271557               0.007907958               0.001354392              -0.001090326               0.002999402               0.001909075               0.000000000               0.000000000               0.000000000               0.000000000              -0.000468070               0.007163790               0.001312794              -0.001070998               0.002744905               0.001673907               0.000000000               0.000000000               0.000000000               0.000000000              -0.000581528               0.006505760               0.001243035              -0.001031291               0.002512329               0.001481038               0.000000000               0.000000000               0.000000000               0.000000000              -0.000636246               0.005897917               0.001163770              -0.000975830               0.002291229               0.001315399               0.000000000               0.000000000               0.000000000               0.000000000              -0.000637601               0.005325404               0.001072285              -0.000904774               0.002076708               0.001171934               0.000000000               0.000000000               0.000000000               0.000000000              -0.000594559               0.004775998               0.000974088              -0.000819958               0.001865303               0.001045345               0.000000000               0.000000000               0.000000000               0.000000000              -0.000527747               0.004243681               0.000871230              -0.000728364               0.001657334               0.000928970               0.000000000               0.000000000               0.000000000               0.000000000              -0.000443124               0.003731405               0.000759589              -0.000632596               0.001454654               0.000822059               0.000000000               0.000000000               0.000000000               0.000000000              -0.000343032               0.003245239               0.000628718              -0.000534291               0.001259832               0.000725541               0.000000000               0.000000000               0.000000000               0.000000000              -0.000230948               0.002793865               0.000464587              -0.000435838               0.001076558               0.000640721               0.000000000               0.000000000               0.000000000               0.000000000              -0.000114197               0.002395082               0.000253678              -0.000342208               0.000912422               0.000570214               0.000000000               0.000000000               0.000000000               0.000000000              -0.000082386               0.002153686               0.000148726              -0.000300105               0.000817923               0.000517818               0.000000000               0.000000000               0.000000000               0.000000000               0.002269255               0.015521832              -0.003861031              -0.001089259               0.005536978               0.004447719               0.000000000               0.000000000               0.000000000               0.000000000               0.000779081               0.012810193              -0.001682582              -0.001309116               0.004706394               0.003397277               0.000000000               0.000000000               0.000000000               0.000000000              -0.000129584               0.011021925               0.000373520              -0.001426331               0.004149382               0.002723051               0.000000000               0.000000000               0.000000000               0.000000000              -0.000706097               0.009782954               0.001073028              -0.001487652               0.003756836               0.002269184               0.000000000               0.000000000               0.000000000               0.000000000              -0.001032990               0.008822239               0.001272498              -0.001490148               0.003437433               0.001947285               0.000000000               0.000000000               0.000000000               0.000000000              -0.001195810               0.008017179               0.001287494              -0.001450573               0.003155890               0.001705318               0.000000000               0.000000000               0.000000000               0.000000000              -0.001252555               0.007306465               0.001229858              -0.001383013               0.002896468               0.001513455               0.000000000               0.000000000               0.000000000               0.000000000              -0.001226512               0.006660296               0.001148330              -0.001292476               0.002650901               0.001358425               0.000000000               0.000000000               0.000000000               0.000000000              -0.001139792               0.006054762               0.001064485              -0.001184265               0.002412988               0.001228724               0.000000000               0.000000000               0.000000000               0.000000000              -0.001015581               0.005490116               0.000972314              -0.001067105               0.002185722               0.001118617               0.000000000               0.000000000               0.000000000               0.000000000              -0.000871713               0.004963838               0.000868639              -0.000947370               0.001970386               0.001023016               0.000000000               0.000000000               0.000000000               0.000000000              -0.000725205               0.004469532               0.000757949              -0.000830641               0.001766709               0.000936068               0.000000000               0.000000000               0.000000000               0.000000000              -0.000576287               0.004010730               0.000641901              -0.000717447               0.001576045               0.000858598               0.000000000               0.000000000               0.000000000               0.000000000              -0.000418667               0.003601547               0.000514388              -0.000607192               0.001402901               0.000795709               0.000000000               0.000000000               0.000000000               0.000000000              -0.000262077               0.003256968               0.000365764              -0.000505399               0.001254111               0.000748713               0.000000000               0.000000000               0.000000000               0.000000000              -0.000122901               0.002996304               0.000193081              -0.000420625               0.001138966               0.000718342               0.000000000               0.000000000               0.000000000               0.000000000              -0.000074066               0.002864669               0.000109967              -0.000385857               0.001083499               0.000697642               0.000000000               0.000000000               0.000000000               0.000000000               0.001869688               0.012843745              -0.003766058              -0.000904336               0.004582650               0.003678314               0.000000000               0.000000000               0.000000000               0.000000000               0.000011496               0.011236345              -0.001687972              -0.001400230               0.004212154               0.002811924               0.000000000               0.000000000               0.000000000               0.000000000              -0.001292679               0.010408676               0.000240097              -0.001785835               0.004064802               0.002278967               0.000000000               0.000000000               0.000000000               0.000000000              -0.001832997               0.009546107               0.000839580              -0.001880633               0.003808881               0.001928249               0.000000000               0.000000000               0.000000000               0.000000000              -0.002003671               0.008743455               0.000988300              -0.001844304               0.003529224               0.001684920               0.000000000               0.000000000               0.000000000               0.000000000              -0.001986783               0.008002624               0.000984731              -0.001745367               0.003249304               0.001503936               0.000000000               0.000000000               0.000000000               0.000000000              -0.001868584               0.007321780               0.000928950              -0.001615938               0.002979215               0.001363277               0.000000000               0.000000000               0.000000000               0.000000000              -0.001686788               0.006685292               0.000858368              -0.001468204               0.002717810               0.001249606               0.000000000               0.000000000               0.000000000               0.000000000              -0.001465077               0.006088843               0.000791959              -0.001310506               0.002466429               0.001155923               0.000000000               0.000000000               0.000000000               0.000000000              -0.001229890               0.005540860               0.000724290              -0.001153814               0.002231539               0.001077726               0.000000000               0.000000000               0.000000000               0.000000000              -0.001002887               0.005045348               0.000640402              -0.001006749               0.002017349               0.001010600               0.000000000               0.000000000               0.000000000               0.000000000              -0.000790509               0.004597347               0.000544966              -0.000871107               0.001822803               0.000951695               0.000000000               0.000000000               0.000000000               0.000000000              -0.000586553               0.004204638               0.000447375              -0.000745535               0.001650044               0.000904508               0.000000000               0.000000000               0.000000000               0.000000000              -0.000393153               0.003879476               0.000346080              -0.000632365               0.001503934               0.000871569               0.000000000               0.000000000               0.000000000               0.000000000              -0.000223709               0.003635731               0.000235722              -0.000538356               0.001391350               0.000852994               0.000000000               0.000000000               0.000000000               0.000000000              -0.000096024               0.003489604               0.000119598              -0.000472208               0.001320592               0.000848384               0.000000000               0.000000000               0.000000000               0.000000000              -0.000045771               0.003443767               0.000062140              -0.000447634               0.001297122               0.000849488               0.000000000               0.000000000               0.000000000               0.000000000               0.001104834               0.010200665              -0.003298403              -0.000860771               0.003687110               0.002826340               0.000000000               0.000000000               0.000000000               0.000000000              -0.000902832               0.009706790              -0.001597689              -0.001551908               0.003752867               0.002200959               0.000000000               0.000000000               0.000000000               0.000000000              -0.002412636               0.009760322              -0.000031676              -0.002124774               0.003961666               0.001836892               0.000000000               0.000000000               0.000000000               0.000000000              -0.002798938               0.009212476               0.000425405              -0.002201156               0.003804513               0.001603357               0.000000000               0.000000000               0.000000000               0.000000000              -0.002755666               0.008534436               0.000536976              -0.002100174               0.003544842               0.001444667               0.000000000               0.000000000               0.000000000               0.000000000              -0.002537361               0.007849159               0.000542584              -0.001932650               0.003260577               0.001327927               0.000000000               0.000000000               0.000000000               0.000000000              -0.002240323               0.007193181               0.000517974              -0.001739264               0.002977458               0.001238193               0.000000000               0.000000000               0.000000000               0.000000000              -0.001909176               0.006568271               0.000482586              -0.001536971               0.002701725               0.001164754               0.000000000               0.000000000               0.000000000               0.000000000              -0.001567577               0.005993054               0.000453053              -0.001336970               0.002443321               0.001106352               0.000000000               0.000000000               0.000000000               0.000000000              -0.001240905               0.005478663               0.000424333              -0.001150169               0.002209593               0.001059423               0.000000000               0.000000000               0.000000000               0.000000000              -0.000943894               0.005027061               0.000376128              -0.000982341               0.002003117               0.001020776               0.000000000               0.000000000               0.000000000               0.000000000              -0.000679163               0.004638687               0.000310930              -0.000834520               0.001824387               0.000989867               0.000000000               0.000000000               0.000000000               0.000000000              -0.000445437               0.004325398               0.000240378              -0.000707712               0.001677689               0.000969977               0.000000000               0.000000000               0.000000000               0.000000000              -0.000251869               0.004091482               0.000167064              -0.000605885               0.001565775               0.000959891               0.000000000               0.000000000               0.000000000               0.000000000              -0.000110027               0.003944270               0.000095603              -0.000534293               0.001492841               0.000958548               0.000000000               0.000000000               0.000000000               0.000000000              -0.000031446               0.003888610               0.000037713              -0.000497867               0.001462146               0.000964279               0.000000000               0.000000000               0.000000000               0.000000000              -0.000001016               0.003900268               0.000008314              -0.000487913               0.001462714               0.000974801               0.000000000               0.000000000               0.000000000               0.000000000               0.000014538               0.007750782              -0.002569732              -0.000963396               0.002904699               0.001941304               0.000000000               0.000000000               0.000000000               0.000000000              -0.001903713               0.008305001              -0.001467104              -0.001752014               0.003352310               0.001600296               0.000000000               0.000000000               0.000000000               0.000000000              -0.003371623               0.009078198              -0.000424870              -0.002399128               0.003825745               0.001426618               0.000000000               0.000000000               0.000000000               0.000000000              -0.003505986               0.008768509              -0.000095938              -0.002410802               0.003726408               0.001315606               0.000000000               0.000000000               0.000000000               0.000000000              -0.003223092               0.008196330               0.000017142              -0.002233195               0.003476481               0.001243286               0.000000000               0.000000000               0.000000000               0.000000000              -0.002809350               0.007568850               0.000062691              -0.001999607               0.003189461               0.001189853               0.000000000               0.000000000               0.000000000               0.000000000              -0.002354607               0.006940962               0.000090005              -0.001750593               0.002897162               0.001146569               0.000000000               0.000000000               0.000000000               0.000000000              -0.001899413               0.006347573               0.000105206              -0.001505723               0.002617744               0.001112021               0.000000000               0.000000000               0.000000000               0.000000000              -0.001463293               0.005816860               0.000119901              -0.001275839               0.002364214               0.001088375               0.000000000               0.000000000               0.000000000               0.000000000              -0.001062597               0.005356344               0.000132464              -0.001068014               0.002141435               0.001073421               0.000000000               0.000000000               0.000000000               0.000000000              -0.000713115               0.004963364               0.000123690              -0.000887836               0.001950384               0.001062547               0.000000000               0.000000000               0.000000000               0.000000000              -0.000419658               0.004650102               0.000094423              -0.000738633               0.001796229               0.001057597               0.000000000               0.000000000               0.000000000               0.000000000              -0.000189862               0.004427764               0.000056372              -0.000624667               0.001684129               0.001059462               0.000000000               0.000000000               0.000000000               0.000000000              -0.000033808               0.004296382               0.000016258              -0.000549724               0.001615355               0.001065630               0.000000000               0.000000000               0.000000000               0.000000000               0.000046750               0.004253641              -0.000012646              -0.000514173               0.001589257               0.001075084               0.000000000               0.000000000               0.000000000               0.000000000               0.000051342               0.004280433              -0.000018805              -0.000515800               0.001598730               0.001082930               0.000000000               0.000000000               0.000000000               0.000000000               0.000038520               0.004325843              -0.000020126              -0.000526284               0.001617361               0.001091077               0.000000000               0.000000000               0.000000000               0.000000000              -0.001263927               0.005681070              -0.001696436              -0.001184104               0.002288372               0.001104268               0.000000000               0.000000000               0.000000000               0.000000000              -0.002880793               0.007045507              -0.001328789              -0.001960981               0.003002139               0.001041158               0.000000000               0.000000000               0.000000000               0.000000000              -0.004128420               0.008379589              -0.000898080              -0.002595600               0.003658368               0.001062768               0.000000000               0.000000000               0.000000000               0.000000000              -0.003997517               0.008316312              -0.000652013              -0.002538602               0.003618277               0.001079675               0.000000000               0.000000000               0.000000000               0.000000000              -0.003513053               0.007880131              -0.000504011              -0.002302406               0.003394153               0.001091747               0.000000000               0.000000000               0.000000000               0.000000000              -0.002942412               0.007331344              -0.000401836              -0.002019817               0.003117029               0.001097212               0.000000000               0.000000000               0.000000000               0.000000000              -0.002365418               0.006759421              -0.000317716              -0.001731955               0.002830436               0.001098481               0.000000000               0.000000000               0.000000000               0.000000000              -0.001810979               0.006218951              -0.000250167              -0.001456482               0.002558457               0.001101975               0.000000000               0.000000000               0.000000000               0.000000000              -0.001303867               0.005743628              -0.000191742              -0.001206901               0.002316824               0.001109923               0.000000000               0.000000000               0.000000000               0.000000000              -0.000849857               0.005340864              -0.000138483              -0.000986302               0.002109037               0.001122736               0.000000000               0.000000000               0.000000000               0.000000000              -0.000466340               0.005001848              -0.000100858              -0.000800106               0.001933968               0.001133862               0.000000000               0.000000000               0.000000000               0.000000000              -0.000161272               0.004746726              -0.000082842              -0.000653816               0.001800165               0.001146349               0.000000000               0.000000000               0.000000000               0.000000000               0.000062431               0.004588423              -0.000074453              -0.000550140               0.001712839               0.001162699               0.000000000               0.000000000               0.000000000               0.000000000               0.000199283               0.004529988              -0.000064572              -0.000491516               0.001673820               0.001182304               0.000000000               0.000000000               0.000000000               0.000000000               0.000245073               0.004560672              -0.000046685              -0.000478181               0.001679602               0.001201422               0.000000000               0.000000000               0.000000000               0.000000000               0.000212165               0.004653413              -0.000023425              -0.000502113               0.001718493               0.001216380               0.000000000               0.000000000               0.000000000               0.000000000               0.000168473               0.004717204              -0.000010005              -0.000526472               0.001747876               0.001221404               0.000000000               0.000000000               0.000000000               0.000000000              -0.002735092               0.003775631              -0.000786909              -0.001497610               0.001757734               0.000260124               0.000000000               0.000000000               0.000000000               0.000000000              -0.003712068               0.005579802              -0.001177004              -0.002089496               0.002556414               0.000466918               0.000000000               0.000000000               0.000000000               0.000000000              -0.004591859               0.007309810              -0.001388817              -0.002635667               0.003315135               0.000679467               0.000000000               0.000000000               0.000000000               0.000000000              -0.004313931               0.007624588              -0.001234651              -0.002570791               0.003398434               0.000827643               0.000000000               0.000000000               0.000000000               0.000000000              -0.003749016               0.007454015              -0.001052753              -0.002337627               0.003263856               0.000926229               0.000000000               0.000000000               0.000000000               0.000000000              -0.003128480               0.007093324              -0.000890732              -0.002059841               0.003051031               0.000991190               0.000000000               0.000000000               0.000000000               0.000000000              -0.002518481               0.006667267              -0.000754457              -0.001777834               0.002815012               0.001037177               0.000000000               0.000000000               0.000000000               0.000000000              -0.001928408               0.006241374              -0.000639826              -0.001503321               0.002581544               0.001078223               0.000000000               0.000000000               0.000000000               0.000000000              -0.001382504               0.005854892              -0.000537779              -0.001250297               0.002368377               0.001118080               0.000000000               0.000000000               0.000000000               0.000000000              -0.000890367               0.005523479              -0.000442559              -0.001024320               0.002182581               0.001158261               0.000000000               0.000000000               0.000000000               0.000000000              -0.000466075               0.005245284              -0.000355016              -0.000830437               0.002025223               0.001194786               0.000000000               0.000000000               0.000000000               0.000000000              -0.000119101               0.005023456              -0.000283688              -0.000672593               0.001898666               0.001226073               0.000000000               0.000000000               0.000000000               0.000000000               0.000147315               0.004869541              -0.000221476              -0.000553448               0.001807647               0.001254199               0.000000000               0.000000000               0.000000000               0.000000000               0.000328278               0.004788643              -0.000156150              -0.000475475               0.001754690               0.001279215               0.000000000               0.000000000               0.000000000               0.000000000               0.000421896               0.004784305              -0.000088191              -0.000439826               0.001741361               0.001301535               0.000000000               0.000000000               0.000000000               0.000000000               0.000440238               0.004861242              -0.000031850              -0.000442565               0.001767919               0.001325354               0.000000000               0.000000000               0.000000000               0.000000000               0.000414998               0.004913005              -0.000003933              -0.000458500               0.001790486               0.001331985               0.000000000               0.000000000               0.000000000               0.000000000              -0.004575850               0.002065606               0.000083740              -0.001974141               0.001346573              -0.000627568               0.000000000               0.000000000               0.000000000               0.000000000              -0.004640732               0.004093650              -0.000969061              -0.002251976               0.002115194              -0.000136782               0.000000000               0.000000000               0.000000000               0.000000000              -0.004972745               0.006022683              -0.001778822              -0.002617609               0.002880077               0.000262468               0.000000000               0.000000000               0.000000000               0.000000000              -0.004558674               0.006690847              -0.001780838              -0.002545853               0.003078877               0.000533024               0.000000000               0.000000000               0.000000000               0.000000000              -0.003953329               0.006821981              -0.001603420              -0.002335240               0.003052384               0.000717144               0.000000000               0.000000000               0.000000000               0.000000000              -0.003312330               0.006703140              -0.001402182              -0.002080012               0.002927695               0.000847683               0.000000000               0.000000000               0.000000000               0.000000000              -0.002687947               0.006467696              -0.001224109              -0.001816438               0.002761356               0.000944918               0.000000000               0.000000000               0.000000000               0.000000000              -0.002085830               0.006186861              -0.001070502              -0.001555540               0.002580780               0.001025239               0.000000000               0.000000000               0.000000000               0.000000000              -0.001510835               0.005902425              -0.000933291              -0.001304363               0.002402243               0.001097880               0.000000000               0.000000000               0.000000000               0.000000000              -0.000979165               0.005646166              -0.000801835              -0.001072955               0.002239688               0.001166733               0.000000000               0.000000000               0.000000000               0.000000000              -0.000505861               0.005425543              -0.000670018              -0.000867889               0.002097793               0.001229904               0.000000000               0.000000000               0.000000000               0.000000000              -0.000100002               0.005240591              -0.000548470              -0.000692573               0.001977704               0.001285131               0.000000000               0.000000000               0.000000000               0.000000000               0.000232536               0.005092173              -0.000433949              -0.000549319               0.001880481               0.001331161               0.000000000               0.000000000               0.000000000               0.000000000               0.000487698               0.004986686              -0.000315377              -0.000440448               0.001809028               0.001368580               0.000000000               0.000000000               0.000000000               0.000000000               0.000656080               0.004929223              -0.000193699              -0.000370122               0.001766432               0.001396310               0.000000000               0.000000000               0.000000000               0.000000000               0.000741303               0.004937579              -0.000086904              -0.000339208               0.001758913               0.001419705               0.000000000               0.000000000               0.000000000               0.000000000               0.000750140               0.004956108              -0.000035747              -0.000338210               0.001764756               0.001426546               0.000000000               0.000000000               0.000000000               0.000000000              -0.006665242               0.000683736               0.000822093              -0.002584930               0.001089548              -0.001495382               0.000000000               0.000000000               0.000000000               0.000000000              -0.005701762               0.002692505              -0.000701081              -0.002474720               0.001722396              -0.000752323               0.000000000               0.000000000               0.000000000               0.000000000              -0.005292460               0.004546759              -0.001970104              -0.002553012               0.002366574              -0.000186438               0.000000000               0.000000000               0.000000000               0.000000000              -0.004660878               0.005449604              -0.002158388              -0.002429024               0.002626190               0.000197166               0.000000000               0.000000000               0.000000000               0.000000000              -0.003994548               0.005854942              -0.002035003              -0.002229818               0.002694900               0.000465082               0.000000000               0.000000000               0.000000000               0.000000000              -0.003335597               0.005986602              -0.001834399              -0.001999170               0.002661903               0.000662734               0.000000000               0.000000000               0.000000000               0.000000000              -0.002704785               0.005962562              -0.001636281              -0.001759611               0.002574037               0.000814427               0.000000000               0.000000000               0.000000000               0.000000000              -0.002102747               0.005850946              -0.001463010              -0.001519895               0.002456927               0.000937032               0.000000000               0.000000000               0.000000000               0.000000000              -0.001516006               0.005706064              -0.001305701              -0.001281757               0.002329254               0.001047497               0.000000000               0.000000000               0.000000000               0.000000000              -0.000958698               0.005557008              -0.001150027              -0.001054136               0.002203696               0.001149560               0.000000000               0.000000000               0.000000000               0.000000000              -0.000446290               0.005411807              -0.000992860              -0.000843833               0.002085195               0.001241362               0.000000000               0.000000000               0.000000000               0.000000000               0.000010561               0.005285399              -0.000840618              -0.000656713               0.001980686               0.001323973               0.000000000               0.000000000               0.000000000               0.000000000               0.000404468               0.005177183              -0.000688527              -0.000495471               0.001890867               0.001395396               0.000000000               0.000000000               0.000000000               0.000000000               0.000731348               0.005091988              -0.000524050              -0.000362242               0.001818060               0.001455818               0.000000000               0.000000000               0.000000000               0.000000000               0.000977811               0.005026299              -0.000347634              -0.000261608               0.001762619               0.001501011               0.000000000               0.000000000               0.000000000               0.000000000               0.001131302               0.004998562              -0.000172932              -0.000200581               0.001733031               0.001532450               0.000000000               0.000000000               0.000000000               0.000000000               0.001178128               0.004997572              -0.000086653              -0.000182898               0.001726807               0.001543909               0.000000000               0.000000000               0.000000000               0.000000000              -0.008860489              -0.000296021               0.001322187              -0.003285678               0.000996545              -0.002289133               0.000000000               0.000000000               0.000000000               0.000000000              -0.006844955               0.001455510              -0.000419112              -0.002748794               0.001401425              -0.001347369               0.000000000               0.000000000               0.000000000               0.000000000              -0.005577355               0.003015629              -0.001939369              -0.002468457               0.001828016              -0.000640442               0.000000000               0.000000000               0.000000000               0.000000000              -0.004648507               0.004017007              -0.002286470              -0.002245311               0.002087424              -0.000157887               0.000000000               0.000000000               0.000000000               0.000000000              -0.003878434               0.004630554              -0.002246457              -0.002033228               0.002221244               0.000188017               0.000000000               0.000000000               0.000000000               0.000000000              -0.003192329               0.004984538              -0.002080565              -0.001820187               0.002268224               0.000448037               0.000000000               0.000000000               0.000000000               0.000000000              -0.002557258               0.005171749              -0.001890278              -0.001605437               0.002259044               0.000653607               0.000000000               0.000000000               0.000000000               0.000000000              -0.001965012               0.005249013              -0.001715282              -0.001393003               0.002213987               0.000820984               0.000000000               0.000000000               0.000000000               0.000000000              -0.001390768               0.005261377              -0.001555453              -0.001179208               0.002146844               0.000967636               0.000000000               0.000000000               0.000000000               0.000000000              -0.000827736               0.005237303              -0.001395577              -0.000965062               0.002067437               0.001102375               0.000000000               0.000000000               0.000000000               0.000000000              -0.000284037               0.005198937              -0.001231581              -0.000756380               0.001985088               0.001228708               0.000000000               0.000000000               0.000000000               0.000000000               0.000221518               0.005159575              -0.001068485              -0.000561877               0.001907133               0.001345256               0.000000000               0.000000000               0.000000000               0.000000000               0.000679922               0.005121035              -0.000903810              -0.000385158               0.001835380               0.001450222               0.000000000               0.000000000               0.000000000               0.000000000               0.001087851               0.005082534              -0.000721945              -0.000227373               0.001769952               0.001542579               0.000000000               0.000000000               0.000000000               0.000000000               0.001434651               0.005043087              -0.000511347              -0.000092392               0.001711809               0.001619418               0.000000000               0.000000000               0.000000000               0.000000000               0.001693244               0.005016864              -0.000269463               0.000007858               0.001669652               0.001677510               0.000000000               0.000000000               0.000000000               0.000000000               0.001808675               0.005014981              -0.000145709               0.000051380               0.001654517               0.001705897               0.000000000               0.000000000               0.000000000               0.000000000              -0.010952681              -0.000884278               0.001486513              -0.003996718               0.001037472              -0.002959246               0.000000000               0.000000000               0.000000000               0.000000000              -0.007969794               0.000457957              -0.000177284              -0.003045915               0.001167949              -0.001877966               0.000000000               0.000000000               0.000000000               0.000000000              -0.005838405               0.001580665              -0.001683715              -0.002386982               0.001322539              -0.001064443               0.000000000               0.000000000               0.000000000               0.000000000              -0.004559393               0.002564332              -0.002112344              -0.002030311               0.001531536              -0.000498774               0.000000000               0.000000000               0.000000000               0.000000000              -0.003651389               0.003307531              -0.002148634              -0.001782709               0.001696734              -0.000085975               0.000000000               0.000000000               0.000000000               0.000000000              -0.002924004               0.003836210              -0.002039228              -0.001576025               0.001804065               0.000228040               0.000000000               0.000000000               0.000000000               0.000000000              -0.002285826               0.004208525              -0.001882905              -0.001383248               0.001863909               0.000480662               0.000000000               0.000000000               0.000000000               0.000000000              -0.001706892               0.004461673              -0.001727673              -0.001197791               0.001886473               0.000688681               0.000000000               0.000000000               0.000000000               0.000000000              -0.001152516               0.004631424              -0.001584769              -0.001011120               0.001880832               0.000869712               0.000000000               0.000000000               0.000000000               0.000000000              -0.000601891               0.004743528              -0.001440385              -0.000818649               0.001854043               0.001035394               0.000000000               0.000000000               0.000000000               0.000000000              -0.000050406               0.004827908              -0.001288863              -0.000622390               0.001816750               0.001194360               0.000000000               0.000000000               0.000000000               0.000000000               0.000496441               0.004897704              -0.001136167              -0.000426047               0.001774567               0.001348520               0.000000000               0.000000000               0.000000000               0.000000000               0.001026828               0.004949352              -0.000985342              -0.000233609               0.001727637               0.001494028               0.000000000               0.000000000               0.000000000               0.000000000               0.001534825               0.004983613              -0.000819061              -0.000047393               0.001676985               0.001629593               0.000000000               0.000000000               0.000000000               0.000000000               0.002008176               0.004996277              -0.000611542               0.000128530               0.001622566               0.001751096               0.000000000               0.000000000               0.000000000               0.000000000               0.002426719               0.004998247              -0.000337565               0.000285236               0.001570987               0.001856223               0.000000000               0.000000000               0.000000000               0.000000000               0.002670047               0.005019942              -0.000192890               0.000373771               0.001548707               0.001922478               0.000000000               0.000000000               0.000000000               0.000000000              -0.012706595              -0.001179621               0.001269634              -0.004617518               0.001145957              -0.003471560               0.000000000               0.000000000               0.000000000               0.000000000              -0.008938818              -0.000263098              -0.000026903              -0.003319167               0.001018683              -0.002300484               0.000000000               0.000000000               0.000000000               0.000000000              -0.006061005               0.000408988              -0.001233226              -0.002323998               0.000910989              -0.001413010               0.000000000               0.000000000               0.000000000               0.000000000              -0.004445337               0.001300937              -0.001627226              -0.001829616               0.001043510              -0.000786106               0.000000000               0.000000000               0.000000000               0.000000000              -0.003395107               0.002101721              -0.001699663              -0.001535878               0.001212524              -0.000323354               0.000000000               0.000000000               0.000000000               0.000000000              -0.002619528               0.002751259              -0.001644485              -0.001326228               0.001359152               0.000032924               0.000000000               0.000000000               0.000000000               0.000000000              -0.001976403               0.003261482              -0.001538792              -0.001148834               0.001470094               0.000321260               0.000000000               0.000000000               0.000000000               0.000000000              -0.001402826               0.003651360              -0.001427061              -0.000982478               0.001544600               0.000562122               0.000000000               0.000000000               0.000000000               0.000000000              -0.000862483               0.003950111              -0.001323583              -0.000817194               0.001589088               0.000771894               0.000000000               0.000000000               0.000000000               0.000000000              -0.000327202               0.004193949              -0.001213369              -0.000646943               0.001613617               0.000966673               0.000000000               0.000000000               0.000000000               0.000000000               0.000219406               0.004400165              -0.001096185              -0.000467743               0.001622621               0.001154878               0.000000000               0.000000000               0.000000000               0.000000000               0.000789011               0.004574330              -0.000978938              -0.000275912               0.001616732               0.001340820               0.000000000               0.000000000               0.000000000               0.000000000               0.001379324               0.004724932              -0.000862530              -0.000073370               0.001599418               0.001526048               0.000000000               0.000000000               0.000000000               0.000000000               0.001983529               0.004846390              -0.000732762               0.000138023               0.001569440               0.001707462               0.000000000               0.000000000               0.000000000               0.000000000               0.002597709               0.004927734              -0.000562867               0.000358171               0.001523171               0.001881342               0.000000000               0.000000000               0.000000000               0.000000000               0.003222110               0.004974008              -0.000320388               0.000586534               0.001462475               0.002049009               0.000000000               0.000000000               0.000000000               0.000000000               0.003653500               0.005033177              -0.000193100               0.000740908               0.001430740               0.002171648               0.000000000               0.000000000               0.000000000               0.000000000              -0.013874792              -0.001296656               0.000731067              -0.005040962               0.001248094              -0.003792868               0.000000000               0.000000000               0.000000000               0.000000000              -0.009601959              -0.000696090               0.000021934              -0.003513721               0.000939204              -0.002574517               0.000000000               0.000000000               0.000000000               0.000000000              -0.006214451              -0.000355837              -0.000649034              -0.002285938               0.000643362              -0.001642576               0.000000000               0.000000000               0.000000000               0.000000000              -0.004356115               0.000439173              -0.000884759              -0.001688438               0.000709198              -0.000979240               0.000000000               0.000000000               0.000000000               0.000000000              -0.003196291               0.001255398              -0.000939312              -0.001355532               0.000870304              -0.000485228               0.000000000               0.000000000               0.000000000               0.000000000              -0.002376555               0.001971138              -0.000920643              -0.001137598               0.001036238              -0.000101360               0.000000000               0.000000000               0.000000000               0.000000000              -0.001726663               0.002556883              -0.000869482              -0.000967107               0.001174655               0.000207548               0.000000000               0.000000000               0.000000000               0.000000000              -0.001155978               0.003032526              -0.000812528              -0.000812556               0.001281683               0.000469128               0.000000000               0.000000000               0.000000000               0.000000000              -0.000625451               0.003425805              -0.000759798              -0.000662768               0.001362846               0.000700078               0.000000000               0.000000000               0.000000000               0.000000000              -0.000100751               0.003761726              -0.000699631              -0.000507997               0.001423228               0.000915232               0.000000000               0.000000000               0.000000000               0.000000000               0.000447603               0.004051976              -0.000635507              -0.000338645               0.001463527               0.001124882               0.000000000               0.000000000               0.000000000               0.000000000               0.001032749               0.004300221              -0.000572528              -0.000150247               0.001483475               0.001333228               0.000000000               0.000000000               0.000000000               0.000000000               0.001661419               0.004517523              -0.000507910               0.000058341               0.001486379               0.001544720               0.000000000               0.000000000               0.000000000               0.000000000               0.002334900               0.004700641              -0.000435017               0.000288004               0.001470863               0.001758868               0.000000000               0.000000000               0.000000000               0.000000000               0.003063014               0.004841520              -0.000337449               0.000543435               0.001432679               0.001976114               0.000000000               0.000000000               0.000000000               0.000000000               0.003867180               0.004936797              -0.000193617               0.000833085               0.001367888               0.002200972               0.000000000               0.000000000               0.000000000               0.000000000               0.004467439               0.005034543              -0.000120037               0.001045961               0.001329510               0.002375472               0.000000000               0.000000000               0.000000000               0.000000000               0.000000000               0.000000000               0.000000000               0.000000000               0.000000000               0.000000000               0.000000000               0.000000000               0.000000000               0.000000000               0.000000000               0.000000000               0.000000000               0.000000000               0.000000000               0.000000000               0.000000000               0.000000000               0.000000000               0.000000000               0.000000000               0.000000000               0.000000000               0.000000000               0.000000000               0.000000000               0.000000000               0.000000000               0.000000000               0.000000000               0.000000000               0.000000000               0.000000000               0.000000000               0.000000000               0.000000000               0.000000000               0.000000000               0.000000000               0.000000000               0.000000000               0.000000000               0.000000000               0.000000000               0.000000000               0.000000000               0.000000000               0.000000000               0.000000000               0.000000000               0.000000000               0.000000000               0.000000000               0.000000000               0.000000000               0.000000000               0.000000000               0.000000000               0.000000000               0.000000000               0.000000000               0.000000000               0.000000000               0.000000000               0.000000000               0.000000000               0.000000000               0.000000000               0.000000000               0.000000000               0.000000000               0.000000000               0.000000000               0.000000000               0.000000000               0.000000000               0.000000000               0.000000000               0.000000000               0.000000000               0.000000000               0.000000000               0.000000000               0.000000000               0.000000000               0.000000000               0.000000000               0.000000000               0.000000000               0.000000000               0.000000000               0.000000000               0.000000000               0.000000000               0.000000000               0.000000000               0.000000000               0.000000000               0.000000000               0.000000000               0.000000000               0.000000000               0.000000000               0.000000000               0.000000000               0.000000000               0.000000000               0.000000000               0.000000000               0.000000000               0.000000000               0.000000000               0.000000000               0.000000000               0.000000000               0.000000000               0.000000000               0.000000000               0.000000000               0.000000000               0.000000000               0.000000000               0.000000000               0.000000000               0.000000000               0.000000000               0.000000000               0.000000000               0.000000000               0.000000000               0.000000000               0.000000000               0.000000000               0.000000000               0.000000000               0.000000000               0.000000000               0.000000000               0.000000000               0.000000000               0.000000000               0.000000000               0.000000000               0.000000000               0.000000000               0.000000000               0.000000000               0.000000000               0.000000000               0.000000000               0.000000000               0.000000000               0.000000000               0.000000000               0.000000000               0.000000000               0.000000000               0.000000000               0.000000000               0.000000000               0.000000000               0.000000000               0.000000000               0.000000000               0.000000000               0.000000000               0.000000000               0.000000000               0.000000000               0.000000000               0.000000000               0.000000000               0.000000000               0.000000000               0.000000000               0.000000000               0.000000000               0.000000000               0.000000000               0.000000000               0.000000000               0.000000000               0.000000000               0.000000000               0.000000000               0.000000000               0.000000000               0.000000000               0.000000000               0.000000000               0.000000000               0.000000000               0.000000000               0.000000000               0.000000000               0.000000000               0.000000000               0.000000000               0.000000000               0.000000000               0.000000000               0.000000000               0.000000000               0.000000000               0.000000000               0.000000000               0.000000000               0.000000000               0.000000000               0.000000000               0.000000000               0.000000000               0.000000000               0.000000000               0.000000000               0.000000000               0.000000000               0.000000000               0.000000000               0.000000000               0.000000000               0.000000000               0.000000000               0.000000000               0.000000000               0.000000000               0.000000000               0.000000000               0.000000000               0.000000000               0.000000000               0.000000000               0.000000000               0.000000000               0.000000000               0.000000000               0.000000000               0.000000000               0.000000000               0.000000000               0.000000000               0.000000000               0.000000000               0.000000000               0.000000000               0.000000000               0.000000000               0.000000000               0.000000000               0.000000000               0.000000000               0.000000000               0.000000000               0.000000000               0.000000000               0.000000000               0.000000000               0.000000000               0.000000000               0.000000000               0.000000000               0.000000000               0.000000000               0.000000000               0.000000000               0.000000000               0.000000000               0.000000000               0.000000000               0.000000000               0.000000000               0.000000000               0.000000000               0.000000000               0.000000000               0.000000000               0.000000000               0.000000000               0.000000000               0.000000000               0.000000000               0.000000000               0.000000000               0.000000000               0.000000000               0.000000000               0.000000000               0.000000000               0.000000000               0.000000000               0.000000000               0.000000000               0.000000000               0.000000000               0.000000000               0.000000000               0.000000000               0.000000000               0.000000000               0.000000000               0.000000000               0.000000000               0.000000000               0.000000000               0.000000000               0.000000000               0.000000000               0.000000000               0.000000000               0.000000000               0.000000000               0.000000000               0.000000000               0.000000000               0.000000000               0.000000000               0.000000000               0.000000000               0.000000000               0.000000000               0.000000000               0.000000000               0.000000000               0.000000000               0.000000000               0.000000000               0.000000000               0.000000000               0.000000000               0.000000000               0.000000000               0.000000000               0.000000000               0.000000000               0.000000000               0.000000000               0.000000000               0.000000000               0.000000000               0.000000000               0.002134638               0.021405924               0.001441944              -0.001875247               0.007760319               0.005885072               0.000000000               0.000000000               0.000000000               0.000000000               0.001928254               0.016427626               0.000633805              -0.001330355               0.005919272               0.004588917               0.000000000               0.000000000               0.000000000               0.000000000               0.002360133               0.012416095              -0.000164238              -0.000666960               0.004360977               0.003694017               0.000000000               0.000000000               0.000000000               0.000000000               0.002105755               0.010132732              -0.000489342              -0.000476932               0.003536521               0.003059589               0.000000000               0.000000000               0.000000000               0.000000000               0.001684455               0.008660101              -0.000613716              -0.000450841               0.003036952               0.002586111               0.000000000               0.000000000               0.000000000               0.000000000               0.001266894               0.007609004              -0.000650835              -0.000476039               0.002694989               0.002218950               0.000000000               0.000000000               0.000000000               0.000000000               0.000904844               0.006788079              -0.000646323              -0.000509192               0.002432401               0.001923209               0.000000000               0.000000000               0.000000000               0.000000000               0.000606057               0.006096295              -0.000624460              -0.000534765               0.002210333               0.001675568               0.000000000               0.000000000               0.000000000               0.000000000               0.000365580               0.005477358              -0.000592156              -0.000547576               0.002008293               0.001460717               0.000000000               0.000000000               0.000000000               0.000000000               0.000185040               0.004894601              -0.000554370              -0.000542434               0.001812329               0.001269895               0.000000000               0.000000000               0.000000000               0.000000000               0.000059384               0.004322977              -0.000515617              -0.000518102               0.001613679               0.001095577               0.000000000               0.000000000               0.000000000               0.000000000              -0.000030365               0.003742060              -0.000473992              -0.000479143               0.001407055               0.000927912               0.000000000               0.000000000               0.000000000               0.000000000              -0.000087095               0.003141035              -0.000425980              -0.000425289               0.001188764               0.000763475               0.000000000               0.000000000               0.000000000               0.000000000              -0.000110919               0.002511668              -0.000367388              -0.000355552               0.000955732               0.000600179               0.000000000               0.000000000               0.000000000               0.000000000              -0.000103960               0.001841553              -0.000286195              -0.000269179               0.000703571               0.000434392               0.000000000               0.000000000               0.000000000               0.000000000              -0.000061283               0.001113164              -0.000165018              -0.000162126               0.000425093               0.000262967               0.000000000               0.000000000               0.000000000               0.000000000              -0.000088774               0.000568831              -0.000103792              -0.000104394               0.000224406               0.000120012               0.000000000               0.000000000               0.000000000               0.000000000               0.002269898               0.020058323               0.002667260              -0.001656076               0.007238066               0.005581990               0.000000000               0.000000000               0.000000000               0.000000000               0.001726611               0.015576893               0.001163446              -0.001299629               0.005625455               0.004325826               0.000000000               0.000000000               0.000000000               0.000000000               0.001801596               0.012082271              -0.000303898              -0.000834683               0.004305611               0.003470928               0.000000000               0.000000000               0.000000000               0.000000000               0.001426259               0.010061668              -0.000876880              -0.000722860               0.003594809               0.002871949               0.000000000               0.000000000               0.000000000               0.000000000               0.000997150               0.008726096              -0.001083321              -0.000716829               0.003147613               0.002430783               0.000000000               0.000000000               0.000000000               0.000000000               0.000621384               0.007744878              -0.001134639              -0.000735089               0.002826630               0.002091541               0.000000000               0.000000000               0.000000000               0.000000000               0.000323535               0.006959826              -0.001114780              -0.000748651               0.002569469               0.001820818               0.000000000               0.000000000               0.000000000               0.000000000               0.000092156               0.006284445              -0.001068401              -0.000750996               0.002345126               0.001594130               0.000000000               0.000000000               0.000000000               0.000000000              -0.000079411               0.005674833              -0.001008870              -0.000739132               0.002137969               0.001398837               0.000000000               0.000000000               0.000000000               0.000000000              -0.000189205               0.005099810              -0.000938908              -0.000708427               0.001936062               0.001227635               0.000000000               0.000000000               0.000000000               0.000000000              -0.000246385               0.004536034              -0.000864766              -0.000659398               0.001731795               0.001072398               0.000000000               0.000000000               0.000000000               0.000000000              -0.000265300               0.003971814              -0.000786726              -0.000595963               0.001522579               0.000926616               0.000000000               0.000000000               0.000000000               0.000000000              -0.000254882               0.003406746              -0.000700275              -0.000521423               0.001309378               0.000787955               0.000000000               0.000000000               0.000000000               0.000000000              -0.000222311               0.002841163              -0.000595938              -0.000438511               0.001093215               0.000654704               0.000000000               0.000000000               0.000000000               0.000000000              -0.000167381               0.002273833              -0.000456490              -0.000346996               0.000873602               0.000526606               0.000000000               0.000000000               0.000000000               0.000000000              -0.000088987               0.001708031              -0.000258164              -0.000246873               0.000651629               0.000404756               0.000000000               0.000000000               0.000000000               0.000000000              -0.000086064               0.001317434              -0.000156570              -0.000196953               0.000504791               0.000307838               0.000000000               0.000000000               0.000000000               0.000000000               0.002366267               0.018015814               0.003498549              -0.001364625               0.006460086               0.005095461               0.000000000               0.000000000               0.000000000               0.000000000               0.001355157               0.014312643               0.001517203              -0.001280894               0.005197798               0.003916904               0.000000000               0.000000000               0.000000000               0.000000000               0.000940042               0.011594113              -0.000384609              -0.001096746               0.004230248               0.003133502               0.000000000               0.000000000               0.000000000               0.000000000               0.000433224               0.009947071              -0.001084762              -0.001080922               0.003675964               0.002595042               0.000000000               0.000000000               0.000000000               0.000000000               0.000026142               0.008798506              -0.001314047              -0.001090008               0.003296142               0.002206134               0.000000000               0.000000000               0.000000000               0.000000000              -0.000271557               0.007907958              -0.001354392              -0.001090326               0.002999402               0.001909075               0.000000000               0.000000000               0.000000000               0.000000000              -0.000468070               0.007163790              -0.001312794              -0.001070998               0.002744905               0.001673907               0.000000000               0.000000000               0.000000000               0.000000000              -0.000581528               0.006505760              -0.001243035              -0.001031291               0.002512329               0.001481038               0.000000000               0.000000000               0.000000000               0.000000000              -0.000636246               0.005897917              -0.001163770              -0.000975830               0.002291229               0.001315399               0.000000000               0.000000000               0.000000000               0.000000000              -0.000637601               0.005325404              -0.001072285              -0.000904774               0.002076708               0.001171934               0.000000000               0.000000000               0.000000000               0.000000000              -0.000594559               0.004775998              -0.000974088              -0.000819958               0.001865303               0.001045345               0.000000000               0.000000000               0.000000000               0.000000000              -0.000527747               0.004243681              -0.000871230              -0.000728364               0.001657334               0.000928970               0.000000000               0.000000000               0.000000000               0.000000000              -0.000443124               0.003731405              -0.000759589              -0.000632596               0.001454654               0.000822059               0.000000000               0.000000000               0.000000000               0.000000000              -0.000343032               0.003245239              -0.000628718              -0.000534291               0.001259832               0.000725541               0.000000000               0.000000000               0.000000000               0.000000000              -0.000230948               0.002793865              -0.000464587              -0.000435838               0.001076558               0.000640721               0.000000000               0.000000000               0.000000000               0.000000000              -0.000114197               0.002395082              -0.000253678              -0.000342208               0.000912422               0.000570214               0.000000000               0.000000000               0.000000000               0.000000000              -0.000082386               0.002153686              -0.000148726              -0.000300105               0.000817923               0.000517818               0.000000000               0.000000000               0.000000000               0.000000000               0.002269255               0.015521832               0.003861031              -0.001089259               0.005536978               0.004447719               0.000000000               0.000000000               0.000000000               0.000000000               0.000779081               0.012810193               0.001682582              -0.001309116               0.004706394               0.003397277               0.000000000               0.000000000               0.000000000               0.000000000              -0.000129584               0.011021925              -0.000373520              -0.001426331               0.004149382               0.002723051               0.000000000               0.000000000               0.000000000               0.000000000              -0.000706097               0.009782954              -0.001073028              -0.001487652               0.003756836               0.002269184               0.000000000               0.000000000               0.000000000               0.000000000              -0.001032990               0.008822239              -0.001272498              -0.001490148               0.003437433               0.001947285               0.000000000               0.000000000               0.000000000               0.000000000              -0.001195810               0.008017179              -0.001287494              -0.001450573               0.003155890               0.001705318               0.000000000               0.000000000               0.000000000               0.000000000              -0.001252555               0.007306465              -0.001229858              -0.001383013               0.002896468               0.001513455               0.000000000               0.000000000               0.000000000               0.000000000              -0.001226512               0.006660296              -0.001148330              -0.001292476               0.002650901               0.001358425               0.000000000               0.000000000               0.000000000               0.000000000              -0.001139792               0.006054762              -0.001064485              -0.001184265               0.002412988               0.001228724               0.000000000               0.000000000               0.000000000               0.000000000              -0.001015581               0.005490116              -0.000972314              -0.001067105               0.002185722               0.001118617               0.000000000               0.000000000               0.000000000               0.000000000              -0.000871713               0.004963838              -0.000868639              -0.000947370               0.001970386               0.001023016               0.000000000               0.000000000               0.000000000               0.000000000              -0.000725205               0.004469532              -0.000757949              -0.000830641               0.001766709               0.000936068               0.000000000               0.000000000               0.000000000               0.000000000              -0.000576287               0.004010730              -0.000641901              -0.000717447               0.001576045               0.000858598               0.000000000               0.000000000               0.000000000               0.000000000              -0.000418667               0.003601547              -0.000514388              -0.000607192               0.001402901               0.000795709               0.000000000               0.000000000               0.000000000               0.000000000              -0.000262077               0.003256968              -0.000365764              -0.000505399               0.001254111               0.000748713               0.000000000               0.000000000               0.000000000               0.000000000              -0.000122901               0.002996304              -0.000193081              -0.000420625               0.001138966               0.000718342               0.000000000               0.000000000               0.000000000               0.000000000              -0.000074066               0.002864669              -0.000109967              -0.000385857               0.001083499               0.000697642               0.000000000               0.000000000               0.000000000               0.000000000               0.001869688               0.012843745               0.003766058              -0.000904336               0.004582650               0.003678314               0.000000000               0.000000000               0.000000000               0.000000000               0.000011496               0.011236345               0.001687972              -0.001400230               0.004212154               0.002811924               0.000000000               0.000000000               0.000000000               0.000000000              -0.001292679               0.010408676              -0.000240097              -0.001785835               0.004064802               0.002278967               0.000000000               0.000000000               0.000000000               0.000000000              -0.001832997               0.009546107              -0.000839580              -0.001880633               0.003808881               0.001928249               0.000000000               0.000000000               0.000000000               0.000000000              -0.002003671               0.008743455              -0.000988300              -0.001844304               0.003529224               0.001684920               0.000000000               0.000000000               0.000000000               0.000000000              -0.001986783               0.008002624              -0.000984731              -0.001745367               0.003249304               0.001503936               0.000000000               0.000000000               0.000000000               0.000000000              -0.001868584               0.007321780              -0.000928950              -0.001615938               0.002979215               0.001363277               0.000000000               0.000000000               0.000000000               0.000000000              -0.001686788               0.006685292              -0.000858368              -0.001468204               0.002717810               0.001249606               0.000000000               0.000000000               0.000000000               0.000000000              -0.001465077               0.006088843              -0.000791959              -0.001310506               0.002466429               0.001155923               0.000000000               0.000000000               0.000000000               0.000000000              -0.001229890               0.005540860              -0.000724290              -0.001153814               0.002231539               0.001077726               0.000000000               0.000000000               0.000000000               0.000000000              -0.001002887               0.005045348              -0.000640402              -0.001006749               0.002017349               0.001010600               0.000000000               0.000000000               0.000000000               0.000000000              -0.000790509               0.004597347              -0.000544966              -0.000871107               0.001822803               0.000951695               0.000000000               0.000000000               0.000000000               0.000000000              -0.000586553               0.004204638              -0.000447375              -0.000745535               0.001650044               0.000904508               0.000000000               0.000000000               0.000000000               0.000000000              -0.000393153               0.003879476              -0.000346080              -0.000632365               0.001503934               0.000871569               0.000000000               0.000000000               0.000000000               0.000000000              -0.000223709               0.003635731              -0.000235722              -0.000538356               0.001391350               0.000852994               0.000000000               0.000000000               0.000000000               0.000000000              -0.000096024               0.003489604              -0.000119598              -0.000472208               0.001320592               0.000848384               0.000000000               0.000000000               0.000000000               0.000000000              -0.000045771               0.003443767              -0.000062140              -0.000447634               0.001297122               0.000849488               0.000000000               0.000000000               0.000000000               0.000000000               0.001104834               0.010200665               0.003298403              -0.000860771               0.003687110               0.002826340               0.000000000               0.000000000               0.000000000               0.000000000              -0.000902832               0.009706790               0.001597689              -0.001551908               0.003752867               0.002200959               0.000000000               0.000000000               0.000000000               0.000000000              -0.002412636               0.009760322               0.000031676              -0.002124774               0.003961666               0.001836892               0.000000000               0.000000000               0.000000000               0.000000000              -0.002798938               0.009212476              -0.000425405              -0.002201156               0.003804513               0.001603357               0.000000000               0.000000000               0.000000000               0.000000000              -0.002755666               0.008534436              -0.000536976              -0.002100174               0.003544842               0.001444667               0.000000000               0.000000000               0.000000000               0.000000000              -0.002537361               0.007849159              -0.000542584              -0.001932650               0.003260577               0.001327927               0.000000000               0.000000000               0.000000000               0.000000000              -0.002240323               0.007193181              -0.000517974              -0.001739264               0.002977458               0.001238193               0.000000000               0.000000000               0.000000000               0.000000000              -0.001909176               0.006568271              -0.000482586              -0.001536971               0.002701725               0.001164754               0.000000000               0.000000000               0.000000000               0.000000000              -0.001567577               0.005993054              -0.000453053              -0.001336970               0.002443321               0.001106352               0.000000000               0.000000000               0.000000000               0.000000000              -0.001240905               0.005478663              -0.000424333              -0.001150169               0.002209593               0.001059423               0.000000000               0.000000000               0.000000000               0.000000000              -0.000943894               0.005027061              -0.000376128              -0.000982341               0.002003117               0.001020776               0.000000000               0.000000000               0.000000000               0.000000000              -0.000679163               0.004638687              -0.000310930              -0.000834520               0.001824387               0.000989867               0.000000000               0.000000000               0.000000000               0.000000000              -0.000445437               0.004325398              -0.000240378              -0.000707712               0.001677689               0.000969977               0.000000000               0.000000000               0.000000000               0.000000000              -0.000251869               0.004091482              -0.000167064              -0.000605885               0.001565775               0.000959891               0.000000000               0.000000000               0.000000000               0.000000000              -0.000110027               0.003944270              -0.000095603              -0.000534293               0.001492841               0.000958548               0.000000000               0.000000000               0.000000000               0.000000000              -0.000031446               0.003888610              -0.000037713              -0.000497867               0.001462146               0.000964279               0.000000000               0.000000000               0.000000000               0.000000000              -0.000001016               0.003900268              -0.000008314              -0.000487913               0.001462714               0.000974801               0.000000000               0.000000000               0.000000000               0.000000000               0.000014538               0.007750782               0.002569732              -0.000963396               0.002904699               0.001941304               0.000000000               0.000000000               0.000000000               0.000000000              -0.001903713               0.008305001               0.001467104              -0.001752014               0.003352310               0.001600296               0.000000000               0.000000000               0.000000000               0.000000000              -0.003371623               0.009078198               0.000424870              -0.002399128               0.003825745               0.001426618               0.000000000               0.000000000               0.000000000               0.000000000              -0.003505986               0.008768509               0.000095938              -0.002410802               0.003726408               0.001315606               0.000000000               0.000000000               0.000000000               0.000000000              -0.003223092               0.008196330              -0.000017142              -0.002233195               0.003476481               0.001243286               0.000000000               0.000000000               0.000000000               0.000000000              -0.002809350               0.007568850              -0.000062691              -0.001999607               0.003189461               0.001189853               0.000000000               0.000000000               0.000000000               0.000000000              -0.002354607               0.006940962              -0.000090005              -0.001750593               0.002897162               0.001146569               0.000000000               0.000000000               0.000000000               0.000000000              -0.001899413               0.006347573              -0.000105206              -0.001505723               0.002617744               0.001112021               0.000000000               0.000000000               0.000000000               0.000000000              -0.001463293               0.005816860              -0.000119901              -0.001275839               0.002364214               0.001088375               0.000000000               0.000000000               0.000000000               0.000000000              -0.001062597               0.005356344              -0.000132464              -0.001068014               0.002141435               0.001073421               0.000000000               0.000000000               0.000000000               0.000000000              -0.000713115               0.004963364              -0.000123690              -0.000887836               0.001950384               0.001062547               0.000000000               0.000000000               0.000000000               0.000000000              -0.000419658               0.004650102              -0.000094423              -0.000738633               0.001796229               0.001057597               0.000000000               0.000000000               0.000000000               0.000000000              -0.000189862               0.004427764              -0.000056372              -0.000624667               0.001684129               0.001059462               0.000000000               0.000000000               0.000000000               0.000000000              -0.000033808               0.004296382              -0.000016258              -0.000549724               0.001615355               0.001065630               0.000000000               0.000000000               0.000000000               0.000000000               0.000046750               0.004253641               0.000012646              -0.000514173               0.001589257               0.001075084               0.000000000               0.000000000               0.000000000               0.000000000               0.000051342               0.004280433               0.000018805              -0.000515800               0.001598730               0.001082930               0.000000000               0.000000000               0.000000000               0.000000000               0.000038520               0.004325843               0.000020126              -0.000526284               0.001617361               0.001091077               0.000000000               0.000000000               0.000000000               0.000000000              -0.001263927               0.005681070               0.001696436              -0.001184104               0.002288372               0.001104268               0.000000000               0.000000000               0.000000000               0.000000000              -0.002880793               0.007045507               0.001328789              -0.001960981               0.003002139               0.001041158               0.000000000               0.000000000               0.000000000               0.000000000              -0.004128420               0.008379589               0.000898080              -0.002595600               0.003658368               0.001062768               0.000000000               0.000000000               0.000000000               0.000000000              -0.003997517               0.008316312               0.000652013              -0.002538602               0.003618277               0.001079675               0.000000000               0.000000000               0.000000000               0.000000000              -0.003513053               0.007880131               0.000504011              -0.002302406               0.003394153               0.001091747               0.000000000               0.000000000               0.000000000               0.000000000              -0.002942412               0.007331344               0.000401836              -0.002019817               0.003117029               0.001097212               0.000000000               0.000000000               0.000000000               0.000000000              -0.002365418               0.006759421               0.000317716              -0.001731955               0.002830436               0.001098481               0.000000000               0.000000000               0.000000000               0.000000000              -0.001810979               0.006218951               0.000250167              -0.001456482               0.002558457               0.001101975               0.000000000               0.000000000               0.000000000               0.000000000              -0.001303867               0.005743628               0.000191742              -0.001206901               0.002316824               0.001109923               0.000000000               0.000000000               0.000000000               0.000000000              -0.000849857               0.005340864               0.000138483              -0.000986302               0.002109037               0.001122736               0.000000000               0.000000000               0.000000000               0.000000000              -0.000466340               0.005001848               0.000100858              -0.000800106               0.001933968               0.001133862               0.000000000               0.000000000               0.000000000               0.000000000              -0.000161272               0.004746726               0.000082842              -0.000653816               0.001800165               0.001146349               0.000000000               0.000000000               0.000000000               0.000000000               0.000062431               0.004588423               0.000074453              -0.000550140               0.001712839               0.001162699               0.000000000               0.000000000               0.000000000               0.000000000               0.000199283               0.004529988               0.000064572              -0.000491516               0.001673820               0.001182304               0.000000000               0.000000000               0.000000000               0.000000000               0.000245073               0.004560672               0.000046685              -0.000478181               0.001679602               0.001201422               0.000000000               0.000000000               0.000000000               0.000000000               0.000212165               0.004653413               0.000023425              -0.000502113               0.001718493               0.001216380               0.000000000               0.000000000               0.000000000               0.000000000               0.000168473               0.004717204               0.000010005              -0.000526472               0.001747876               0.001221404               0.000000000               0.000000000               0.000000000               0.000000000              -0.002735092               0.003775631               0.000786909              -0.001497610               0.001757734               0.000260124               0.000000000               0.000000000               0.000000000               0.000000000              -0.003712068               0.005579802               0.001177004              -0.002089496               0.002556414               0.000466918               0.000000000               0.000000000               0.000000000               0.000000000              -0.004591859               0.007309810               0.001388817              -0.002635667               0.003315135               0.000679467               0.000000000               0.000000000               0.000000000               0.000000000              -0.004313931               0.007624588               0.001234651              -0.002570791               0.003398434               0.000827643               0.000000000               0.000000000               0.000000000               0.000000000              -0.003749016               0.007454015               0.001052753              -0.002337627               0.003263856               0.000926229               0.000000000               0.000000000               0.000000000               0.000000000              -0.003128480               0.007093324               0.000890732              -0.002059841               0.003051031               0.000991190               0.000000000               0.000000000               0.000000000               0.000000000              -0.002518481               0.006667267               0.000754457              -0.001777834               0.002815012               0.001037177               0.000000000               0.000000000               0.000000000               0.000000000              -0.001928408               0.006241374               0.000639826              -0.001503321               0.002581544               0.001078223               0.000000000               0.000000000               0.000000000               0.000000000              -0.001382504               0.005854892               0.000537779              -0.001250297               0.002368377               0.001118080               0.000000000               0.000000000               0.000000000               0.000000000              -0.000890367               0.005523479               0.000442559              -0.001024320               0.002182581               0.001158261               0.000000000               0.000000000               0.000000000               0.000000000              -0.000466075               0.005245284               0.000355016              -0.000830437               0.002025223               0.001194786               0.000000000               0.000000000               0.000000000               0.000000000              -0.000119101               0.005023456               0.000283688              -0.000672593               0.001898666               0.001226073               0.000000000               0.000000000               0.000000000               0.000000000               0.000147315               0.004869541               0.000221476              -0.000553448               0.001807647               0.001254199               0.000000000               0.000000000               0.000000000               0.000000000               0.000328278               0.004788643               0.000156150              -0.000475475               0.001754690               0.001279215               0.000000000               0.000000000               0.000000000               0.000000000               0.000421896               0.004784305               0.000088191              -0.000439826               0.001741361               0.001301535               0.000000000               0.000000000               0.000000000               0.000000000               0.000440238               0.004861242               0.000031850              -0.000442565               0.001767919               0.001325354               0.000000000               0.000000000               0.000000000               0.000000000               0.000414998               0.004913005               0.000003933              -0.000458500               0.001790486               0.001331985               0.000000000               0.000000000               0.000000000               0.000000000              -0.004575850               0.002065606              -0.000083740              -0.001974141               0.001346573              -0.000627568               0.000000000               0.000000000               0.000000000               0.000000000              -0.004640732               0.004093650               0.000969061              -0.002251976               0.002115194              -0.000136782               0.000000000               0.000000000               0.000000000               0.000000000              -0.004972745               0.006022683               0.001778822              -0.002617609               0.002880077               0.000262468               0.000000000               0.000000000               0.000000000               0.000000000              -0.004558674               0.006690847               0.001780838              -0.002545853               0.003078877               0.000533024               0.000000000               0.000000000               0.000000000               0.000000000              -0.003953329               0.006821981               0.001603420              -0.002335240               0.003052384               0.000717144               0.000000000               0.000000000               0.000000000               0.000000000              -0.003312330               0.006703140               0.001402182              -0.002080012               0.002927695               0.000847683               0.000000000               0.000000000               0.000000000               0.000000000              -0.002687947               0.006467696               0.001224109              -0.001816438               0.002761356               0.000944918               0.000000000               0.000000000               0.000000000               0.000000000              -0.002085830               0.006186861               0.001070502              -0.001555540               0.002580780               0.001025239               0.000000000               0.000000000               0.000000000               0.000000000              -0.001510835               0.005902425               0.000933291              -0.001304363               0.002402243               0.001097880               0.000000000               0.000000000               0.000000000               0.000000000              -0.000979165               0.005646166               0.000801835              -0.001072955               0.002239688               0.001166733               0.000000000               0.000000000               0.000000000               0.000000000              -0.000505861               0.005425543               0.000670018              -0.000867889               0.002097793               0.001229904               0.000000000               0.000000000               0.000000000               0.000000000              -0.000100002               0.005240591               0.000548470              -0.000692573               0.001977704               0.001285131               0.000000000               0.000000000               0.000000000               0.000000000               0.000232536               0.005092173               0.000433949              -0.000549319               0.001880481               0.001331161               0.000000000               0.000000000               0.000000000               0.000000000               0.000487698               0.004986686               0.000315377              -0.000440448               0.001809028               0.001368580               0.000000000               0.000000000               0.000000000               0.000000000               0.000656080               0.004929223               0.000193699              -0.000370122               0.001766432               0.001396310               0.000000000               0.000000000               0.000000000               0.000000000               0.000741303               0.004937579               0.000086904              -0.000339208               0.001758913               0.001419705               0.000000000               0.000000000               0.000000000               0.000000000               0.000750140               0.004956108               0.000035747              -0.000338210               0.001764756               0.001426546               0.000000000               0.000000000               0.000000000               0.000000000              -0.006665242               0.000683736              -0.000822093              -0.002584930               0.001089548              -0.001495382               0.000000000               0.000000000               0.000000000               0.000000000              -0.005701762               0.002692505               0.000701081              -0.002474720               0.001722396              -0.000752323               0.000000000               0.000000000               0.000000000               0.000000000              -0.005292460               0.004546759               0.001970104              -0.002553012               0.002366574              -0.000186438               0.000000000               0.000000000               0.000000000               0.000000000              -0.004660878               0.005449604               0.002158388              -0.002429024               0.002626190               0.000197166               0.000000000               0.000000000               0.000000000               0.000000000              -0.003994548               0.005854942               0.002035003              -0.002229818               0.002694900               0.000465082               0.000000000               0.000000000               0.000000000               0.000000000              -0.003335597               0.005986602               0.001834399              -0.001999170               0.002661903               0.000662734               0.000000000               0.000000000               0.000000000               0.000000000              -0.002704785               0.005962562               0.001636281              -0.001759611               0.002574037               0.000814427               0.000000000               0.000000000               0.000000000               0.000000000              -0.002102747               0.005850946               0.001463010              -0.001519895               0.002456927               0.000937032               0.000000000               0.000000000               0.000000000               0.000000000              -0.001516006               0.005706064               0.001305701              -0.001281757               0.002329254               0.001047497               0.000000000               0.000000000               0.000000000               0.000000000              -0.000958698               0.005557008               0.001150027              -0.001054136               0.002203696               0.001149560               0.000000000               0.000000000               0.000000000               0.000000000              -0.000446290               0.005411807               0.000992860              -0.000843833               0.002085195               0.001241362               0.000000000               0.000000000               0.000000000               0.000000000               0.000010561               0.005285399               0.000840618              -0.000656713               0.001980686               0.001323973               0.000000000               0.000000000               0.000000000               0.000000000               0.000404468               0.005177183               0.000688527              -0.000495471               0.001890867               0.001395396               0.000000000               0.000000000               0.000000000               0.000000000               0.000731348               0.005091988               0.000524050              -0.000362242               0.001818060               0.001455818               0.000000000               0.000000000               0.000000000               0.000000000               0.000977811               0.005026299               0.000347634              -0.000261608               0.001762619               0.001501011               0.000000000               0.000000000               0.000000000               0.000000000               0.001131302               0.004998562               0.000172932              -0.000200581               0.001733031               0.001532450               0.000000000               0.000000000               0.000000000               0.000000000               0.001178128               0.004997572               0.000086653              -0.000182898               0.001726807               0.001543909               0.000000000               0.000000000               0.000000000               0.000000000              -0.008860489              -0.000296021              -0.001322187              -0.003285678               0.000996545              -0.002289133               0.000000000               0.000000000               0.000000000               0.000000000              -0.006844955               0.001455510               0.000419112              -0.002748794               0.001401425              -0.001347369               0.000000000               0.000000000               0.000000000               0.000000000              -0.005577355               0.003015629               0.001939369              -0.002468457               0.001828016              -0.000640442               0.000000000               0.000000000               0.000000000               0.000000000              -0.004648507               0.004017007               0.002286470              -0.002245311               0.002087424              -0.000157887               0.000000000               0.000000000               0.000000000               0.000000000              -0.003878434               0.004630554               0.002246457              -0.002033228               0.002221244               0.000188017               0.000000000               0.000000000               0.000000000               0.000000000              -0.003192329               0.004984538               0.002080565              -0.001820187               0.002268224               0.000448037               0.000000000               0.000000000               0.000000000               0.000000000              -0.002557258               0.005171749               0.001890278              -0.001605437               0.002259044               0.000653607               0.000000000               0.000000000               0.000000000               0.000000000              -0.001965012               0.005249013               0.001715282              -0.001393003               0.002213987               0.000820984               0.000000000               0.000000000               0.000000000               0.000000000              -0.001390768               0.005261377               0.001555453              -0.001179208               0.002146844               0.000967636               0.000000000               0.000000000               0.000000000               0.000000000              -0.000827736               0.005237303               0.001395577              -0.000965062               0.002067437               0.001102375               0.000000000               0.000000000               0.000000000               0.000000000              -0.000284037               0.005198937               0.001231581              -0.000756380               0.001985088               0.001228708               0.000000000               0.000000000               0.000000000               0.000000000               0.000221518               0.005159575               0.001068485              -0.000561877               0.001907133               0.001345256               0.000000000               0.000000000               0.000000000               0.000000000               0.000679922               0.005121035               0.000903810              -0.000385158               0.001835380               0.001450222               0.000000000               0.000000000               0.000000000               0.000000000               0.001087851               0.005082534               0.000721945              -0.000227373               0.001769952               0.001542579               0.000000000               0.000000000               0.000000000               0.000000000               0.001434651               0.005043087               0.000511347              -0.000092392               0.001711809               0.001619418               0.000000000               0.000000000               0.000000000               0.000000000               0.001693244               0.005016864               0.000269463               0.000007858               0.001669652               0.001677510               0.000000000               0.000000000               0.000000000               0.000000000               0.001808675               0.005014981               0.000145709               0.000051380               0.001654517               0.001705897               0.000000000               0.000000000               0.000000000               0.000000000              -0.010952681              -0.000884278              -0.001486513              -0.003996718               0.001037472              -0.002959246               0.000000000               0.000000000               0.000000000               0.000000000              -0.007969794               0.000457957               0.000177284              -0.003045915               0.001167949              -0.001877966               0.000000000               0.000000000               0.000000000               0.000000000              -0.005838405               0.001580665               0.001683715              -0.002386982               0.001322539              -0.001064443               0.000000000               0.000000000               0.000000000               0.000000000              -0.004559393               0.002564332               0.002112344              -0.002030311               0.001531536              -0.000498774               0.000000000               0.000000000               0.000000000               0.000000000              -0.003651389               0.003307531               0.002148634              -0.001782709               0.001696734              -0.000085975               0.000000000               0.000000000               0.000000000               0.000000000              -0.002924004               0.003836210               0.002039228              -0.001576025               0.001804065               0.000228040               0.000000000               0.000000000               0.000000000               0.000000000              -0.002285826               0.004208525               0.001882905              -0.001383248               0.001863909               0.000480662               0.000000000               0.000000000               0.000000000               0.000000000              -0.001706892               0.004461673               0.001727673              -0.001197791               0.001886473               0.000688681               0.000000000               0.000000000               0.000000000               0.000000000              -0.001152516               0.004631424               0.001584769              -0.001011120               0.001880832               0.000869712               0.000000000               0.000000000               0.000000000               0.000000000              -0.000601891               0.004743528               0.001440385              -0.000818649               0.001854043               0.001035394               0.000000000               0.000000000               0.000000000               0.000000000              -0.000050406               0.004827908               0.001288863              -0.000622390               0.001816750               0.001194360               0.000000000               0.000000000               0.000000000               0.000000000               0.000496441               0.004897704               0.001136167              -0.000426047               0.001774567               0.001348520               0.000000000               0.000000000               0.000000000               0.000000000               0.001026828               0.004949352               0.000985342              -0.000233609               0.001727637               0.001494028               0.000000000               0.000000000               0.000000000               0.000000000               0.001534825               0.004983613               0.000819061              -0.000047393               0.001676985               0.001629593               0.000000000               0.000000000               0.000000000               0.000000000               0.002008176               0.004996277               0.000611542               0.000128530               0.001622566               0.001751096               0.000000000               0.000000000               0.000000000               0.000000000               0.002426719               0.004998247               0.000337565               0.000285236               0.001570987               0.001856223               0.000000000               0.000000000               0.000000000               0.000000000               0.002670047               0.005019942               0.000192890               0.000373771               0.001548707               0.001922478               0.000000000               0.000000000               0.000000000               0.000000000              -0.012706595              -0.001179621              -0.001269634              -0.004617518               0.001145957              -0.003471560               0.000000000               0.000000000               0.000000000               0.000000000              -0.008938818              -0.000263098               0.000026903              -0.003319167               0.001018683              -0.002300484               0.000000000               0.000000000               0.000000000               0.000000000              -0.006061005               0.000408988               0.001233226              -0.002323998               0.000910989              -0.001413010               0.000000000               0.000000000               0.000000000               0.000000000              -0.004445337               0.001300937               0.001627226              -0.001829616               0.001043510              -0.000786106               0.000000000               0.000000000               0.000000000               0.000000000              -0.003395107               0.002101721               0.001699663              -0.001535878               0.001212524              -0.000323354               0.000000000               0.000000000               0.000000000               0.000000000              -0.002619528               0.002751259               0.001644485              -0.001326228               0.001359152               0.000032924               0.000000000               0.000000000               0.000000000               0.000000000              -0.001976403               0.003261482               0.001538792              -0.001148834               0.001470094               0.000321260               0.000000000               0.000000000               0.000000000               0.000000000              -0.001402826               0.003651360               0.001427061              -0.000982478               0.001544600               0.000562122               0.000000000               0.000000000               0.000000000               0.000000000              -0.000862483               0.003950111               0.001323583              -0.000817194               0.001589088               0.000771894               0.000000000               0.000000000               0.000000000               0.000000000              -0.000327202               0.004193949               0.001213369              -0.000646943               0.001613617               0.000966673               0.000000000               0.000000000               0.000000000               0.000000000               0.000219406               0.004400165               0.001096185              -0.000467743               0.001622621               0.001154878               0.000000000               0.000000000               0.000000000               0.000000000               0.000789011               0.004574330               0.000978938              -0.000275912               0.001616732               0.001340820               0.000000000               0.000000000               0.000000000               0.000000000               0.001379324               0.004724932               0.000862530              -0.000073370               0.001599418               0.001526048               0.000000000               0.000000000               0.000000000               0.000000000               0.001983529               0.004846390               0.000732762               0.000138023               0.001569440               0.001707462               0.000000000               0.000000000               0.000000000               0.000000000               0.002597709               0.004927734               0.000562867               0.000358171               0.001523171               0.001881342               0.000000000               0.000000000               0.000000000               0.000000000               0.003222110               0.004974008               0.000320388               0.000586534               0.001462475               0.002049009               0.000000000               0.000000000               0.000000000               0.000000000               0.003653500               0.005033177               0.000193100               0.000740908               0.001430740               0.002171648               0.000000000               0.000000000               0.000000000               0.000000000              -0.013874792              -0.001296656              -0.000731067              -0.005040962               0.001248094              -0.003792868               0.000000000               0.000000000               0.000000000               0.000000000              -0.009601959              -0.000696090              -0.000021934              -0.003513721               0.000939204              -0.002574517               0.000000000               0.000000000               0.000000000               0.000000000              -0.006214451              -0.000355837               0.000649034              -0.002285938               0.000643362              -0.001642576               0.000000000               0.000000000               0.000000000               0.000000000              -0.004356115               0.000439173               0.000884759              -0.001688438               0.000709198              -0.000979240               0.000000000               0.000000000               0.000000000               0.000000000              -0.003196291               0.001255398               0.000939312              -0.001355532               0.000870304              -0.000485228               0.000000000               0.000000000               0.000000000               0.000000000              -0.002376555               0.001971138               0.000920643              -0.001137598               0.001036238              -0.000101360               0.000000000               0.000000000               0.000000000               0.000000000              -0.001726663               0.002556883               0.000869482              -0.000967107               0.001174655               0.000207548               0.000000000               0.000000000               0.000000000               0.000000000              -0.001155978               0.003032526               0.000812528              -0.000812556               0.001281683               0.000469128               0.000000000               0.000000000               0.000000000               0.000000000              -0.000625451               0.003425805               0.000759798              -0.000662768               0.001362846               0.000700078               0.000000000               0.000000000               0.000000000               0.000000000              -0.000100751               0.003761726               0.000699631              -0.000507997               0.001423228               0.000915232               0.000000000               0.000000000               0.000000000               0.000000000               0.000447603               0.004051976               0.000635507              -0.000338645               0.001463527               0.001124882               0.000000000               0.000000000               0.000000000               0.000000000               0.001032749               0.004300221               0.000572528              -0.000150247               0.001483475               0.001333228               0.000000000               0.000000000               0.000000000               0.000000000               0.001661419               0.004517523               0.000507910               0.000058341               0.001486379               0.001544720               0.000000000               0.000000000               0.000000000               0.000000000               0.002334900               0.004700641               0.000435017               0.000288004               0.001470863               0.001758868               0.000000000               0.000000000               0.000000000               0.000000000               0.003063014               0.004841520               0.000337449               0.000543435               0.001432679               0.001976114               0.000000000               0.000000000               0.000000000               0.000000000               0.003867180               0.004936797               0.000193617               0.000833085               0.001367888               0.002200972               0.000000000               0.000000000               0.000000000               0.000000000               0.004467439               0.005034543               0.000120037               0.001045961               0.001329510               0.002375472               0.000000000               0.000000000               0.000000000               0.000000000               0.000000000               0.000000000               0.000000000               0.000000000               0.000000000               0.000000000               0.000000000               0.000000000               0.000000000               0.000000000               0.000000000               0.000000000               0.000000000               0.000000000               0.000000000               0.000000000               0.000000000               0.000000000               0.000000000               0.000000000               0.000000000               0.000000000               0.000000000               0.000000000               0.000000000               0.000000000               0.000000000               0.000000000               0.000000000               0.000000000               0.000000000               0.000000000               0.000000000               0.000000000               0.000000000               0.000000000               0.000000000               0.000000000               0.000000000               0.000000000               0.000000000               0.000000000               0.000000000               0.000000000               0.000000000               0.000000000               0.000000000               0.000000000               0.000000000               0.000000000               0.000000000               0.000000000               0.000000000               0.000000000               0.000000000               0.000000000               0.000000000               0.000000000               0.000000000               0.000000000               0.000000000               0.000000000               0.000000000               0.000000000               0.000000000               0.000000000               0.000000000               0.000000000               0.000000000               0.000000000               0.000000000               0.000000000               0.000000000               0.000000000               0.000000000               0.000000000               0.000000000               0.000000000               0.000000000               0.000000000               0.000000000               0.000000000               0.000000000               0.000000000               0.000000000               0.000000000               0.000000000               0.000000000               0.000000000               0.000000000               0.000000000               0.000000000               0.000000000               0.000000000               0.000000000               0.000000000               0.000000000               0.000000000               0.000000000               0.000000000               0.000000000               0.000000000               0.000000000               0.000000000               0.000000000               0.000000000               0.000000000               0.000000000               0.000000000               0.000000000               0.000000000               0.000000000               0.000000000               0.000000000               0.000000000               0.000000000               0.000000000               0.000000000               0.000000000               0.000000000               0.000000000               0.000000000               0.000000000               0.000000000               0.000000000               0.000000000               0.000000000               0.000000000               0.000000000               0.000000000               0.000000000               0.000000000               0.000000000               0.000000000               0.000000000               0.000000000               0.000000000               0.000000000               0.000000000               0.000000000               0.000000000               0.000000000               0.000000000               0.000000000               0.000000000               0.000000000               0.000000000               0.000000000               0.000000000               0.000000000               0.000000000               0.000000000               0.000000000               0.000000000               0.000000000               0.000000000               0.000000000               0.000000000               0.000000000               0.000000000               0.000000000               0.000000000               0.000000000               0.000000000               0.000000000               0.000000000               0.000000000               0.000000000               0.000000000               0.000000000 </DataArray>
</PointData>
</Piece>
</UnstructuredGrid> </VTKFile>
