<?xml version="1.0"?>
<VTKFile type="UnstructuredGrid" version="0.1">
<UnstructuredGrid>
<Piece NumberOfPoints="      1156" NumberOfCells="      1024">
<Points>
<DataArray type="Float64"                                    Name="coordinates"                                                      NumberOfComponents=" 3" format="ascii">
              0.133000000               0.000000000               0.000000000               0.155937500               0.000000000               0.000000000               0.178875000               0.000000000               0.000000000               0.201812500               0.000000000               0.000000000               0.224750000               0.000000000               0.000000000               0.247687500               0.000000000               0.000000000               0.270625000               0.000000000               0.000000000               0.293562500               0.000000000               0.000000000               0.316500000               0.000000000               0.000000000               0.339437500               0.000000000               0.000000000               0.362375000               0.000000000               0.000000000               0.385312500               0.000000000               0.000000000               0.408250000               0.000000000               0.000000000               0.431187500               0.000000000               0.000000000               0.454125000               0.000000000               0.000000000               0.477062500               0.000000000               0.000000000               0.500000000               0.000000000               0.000000000               0.132359569               0.013036280               0.000000000               0.155337096               0.016127762               0.000000000               0.178314623               0.019219245               0.000000000               0.201292150               0.022310727               0.000000000               0.224269676               0.025402210               0.000000000               0.247247203               0.028493692               0.000000000               0.270224730               0.031585175               0.000000000               0.293202257               0.034676657               0.000000000               0.316179784               0.037768140               0.000000000               0.339157311               0.040859622               0.000000000               0.362134838               0.043951105               0.000000000               0.385112365               0.047042587               0.000000000               0.408089892               0.050134070               0.000000000               0.431067419               0.053225552               0.000000000               0.454044946               0.056317035               0.000000000               0.477022473               0.059408517               0.000000000               0.500000000               0.062500000               0.000000000               0.130444442               0.025947013               0.000000000               0.153541665               0.032137825               0.000000000               0.176638887               0.038328636               0.000000000               0.199736109               0.044519448               0.000000000               0.222833332               0.050710260               0.000000000               0.245930554               0.056901071               0.000000000               0.269027776               0.063091883               0.000000000               0.292124999               0.069282695               0.000000000               0.315222221               0.075473506               0.000000000               0.338319444               0.081664318               0.000000000               0.361416666               0.087855130               0.000000000               0.384513888               0.094045942               0.000000000               0.407611111               0.100236753               0.000000000               0.430708333               0.106427565               0.000000000               0.453805555               0.112618377               0.000000000               0.476902778               0.118809188               0.000000000               0.500000000               0.125000000               0.000000000               0.127273065               0.038607862               0.000000000               0.150568498               0.047913621               0.000000000               0.173863932               0.057219379               0.000000000               0.197159365               0.066525138               0.000000000               0.220454798               0.075830897               0.000000000               0.243750232               0.085136655               0.000000000               0.267045665               0.094442414               0.000000000               0.290341099               0.103748172               0.000000000               0.313636532               0.113053931               0.000000000               0.336931966               0.122359690               0.000000000               0.360227399               0.131665448               0.000000000               0.383522833               0.140971207               0.000000000               0.406818266               0.150276966               0.000000000               0.430113700               0.159582724               0.000000000               0.453409133               0.168888483               0.000000000               0.476704567               0.178194241               0.000000000               0.500000000               0.187500000               0.000000000               0.122875978               0.050896897               0.000000000               0.146446229               0.063340840               0.000000000               0.170016481               0.075784784               0.000000000               0.193586732               0.088228728               0.000000000               0.217156983               0.100672672               0.000000000               0.240727235               0.113116616               0.000000000               0.264297486               0.125560560               0.000000000               0.287867738               0.138004504               0.000000000               0.311437989               0.150448448               0.000000000               0.335008240               0.162892392               0.000000000               0.358578492               0.175336336               0.000000000               0.382148743               0.187780280               0.000000000               0.405718994               0.200224224               0.000000000               0.429289246               0.212668168               0.000000000               0.452859497               0.225112112               0.000000000               0.476429749               0.237556056               0.000000000               0.500000000               0.250000000               0.000000000               0.117295528               0.062695766               0.000000000               0.141214558               0.078308531               0.000000000               0.165133587               0.093921295               0.000000000               0.189052617               0.109534060               0.000000000               0.212971646               0.125146824               0.000000000               0.236890676               0.140759589               0.000000000               0.260809705               0.156372354               0.000000000               0.284728735               0.171985118               0.000000000               0.308647764               0.187597883               0.000000000               0.332566794               0.203210648               0.000000000               0.356485823               0.218823412               0.000000000               0.380404853               0.234436177               0.000000000               0.404323882               0.250048941               0.000000000               0.428242912               0.265661706               0.000000000               0.452161941               0.281274471               0.000000000               0.476080971               0.296887235               0.000000000               0.500000000               0.312500000               0.000000000               0.110585458               0.073890841               0.000000000               0.134923867               0.092710163               0.000000000               0.159262276               0.111529486               0.000000000               0.183600685               0.130348808               0.000000000               0.207939094               0.149168131               0.000000000               0.232277503               0.167987453               0.000000000               0.256615912               0.186806776               0.000000000               0.280954320               0.205626098               0.000000000               0.305292729               0.224445420               0.000000000               0.329631138               0.243264743               0.000000000               0.353969547               0.262084065               0.000000000               0.378307956               0.280903388               0.000000000               0.402646365               0.299722710               0.000000000               0.426984773               0.318542033               0.000000000               0.451323182               0.337361355               0.000000000               0.475661591               0.356180678               0.000000000               0.500000000               0.375000000               0.000000000               0.102810390               0.084374307               0.000000000               0.127634741               0.106444663               0.000000000               0.152459092               0.128515018               0.000000000               0.177283442               0.150585374               0.000000000               0.202107793               0.172655730               0.000000000               0.226932143               0.194726086               0.000000000               0.251756494               0.216796442               0.000000000               0.276580845               0.238866798               0.000000000               0.301405195               0.260937153               0.000000000               0.326229546               0.283007509               0.000000000               0.351053896               0.305077865               0.000000000               0.375878247               0.327148221               0.000000000               0.400702598               0.349218577               0.000000000               0.425526948               0.371288933               0.000000000               0.450351299               0.393359288               0.000000000               0.475175649               0.415429644               0.000000000               0.500000000               0.437500000               0.000000000               0.094045202               0.094045202               0.000000000               0.119417377               0.119417377               0.000000000               0.144789552               0.144789552               0.000000000               0.170161727               0.170161727               0.000000000               0.195533901               0.195533901               0.000000000               0.220906076               0.220906076               0.000000000               0.246278251               0.246278251               0.000000000               0.271650426               0.271650426               0.000000000               0.297022601               0.297022601               0.000000000               0.322394776               0.322394776               0.000000000               0.347766951               0.347766951               0.000000000               0.373139126               0.373139126               0.000000000               0.398511300               0.398511300               0.000000000               0.423883475               0.423883475               0.000000000               0.449255650               0.449255650               0.000000000               0.474627825               0.474627825               0.000000000               0.500000000               0.500000000               0.000000000               0.084374307               0.102810390               0.000000000               0.106444663               0.127634741               0.000000000               0.128515018               0.152459092               0.000000000               0.150585374               0.177283442               0.000000000               0.172655730               0.202107793               0.000000000               0.194726086               0.226932143               0.000000000               0.216796442               0.251756494               0.000000000               0.238866798               0.276580845               0.000000000               0.260937153               0.301405195               0.000000000               0.283007509               0.326229546               0.000000000               0.305077865               0.351053896               0.000000000               0.327148221               0.375878247               0.000000000               0.349218577               0.400702598               0.000000000               0.371288933               0.425526948               0.000000000               0.393359288               0.450351299               0.000000000               0.415429644               0.475175649               0.000000000               0.437500000               0.500000000               0.000000000               0.073890841               0.110585458               0.000000000               0.092710163               0.134923867               0.000000000               0.111529486               0.159262276               0.000000000               0.130348808               0.183600685               0.000000000               0.149168131               0.207939094               0.000000000               0.167987453               0.232277503               0.000000000               0.186806776               0.256615912               0.000000000               0.205626098               0.280954320               0.000000000               0.224445420               0.305292729               0.000000000               0.243264743               0.329631138               0.000000000               0.262084065               0.353969547               0.000000000               0.280903388               0.378307956               0.000000000               0.299722710               0.402646365               0.000000000               0.318542033               0.426984773               0.000000000               0.337361355               0.451323182               0.000000000               0.356180678               0.475661591               0.000000000               0.375000000               0.500000000               0.000000000               0.062695766               0.117295528               0.000000000               0.078308531               0.141214558               0.000000000               0.093921295               0.165133587               0.000000000               0.109534060               0.189052617               0.000000000               0.125146824               0.212971646               0.000000000               0.140759589               0.236890676               0.000000000               0.156372354               0.260809705               0.000000000               0.171985118               0.284728735               0.000000000               0.187597883               0.308647764               0.000000000               0.203210648               0.332566794               0.000000000               0.218823412               0.356485823               0.000000000               0.234436177               0.380404853               0.000000000               0.250048941               0.404323882               0.000000000               0.265661706               0.428242912               0.000000000               0.281274471               0.452161941               0.000000000               0.296887235               0.476080971               0.000000000               0.312500000               0.500000000               0.000000000               0.050896897               0.122875978               0.000000000               0.063340840               0.146446229               0.000000000               0.075784784               0.170016481               0.000000000               0.088228728               0.193586732               0.000000000               0.100672672               0.217156983               0.000000000               0.113116616               0.240727235               0.000000000               0.125560560               0.264297486               0.000000000               0.138004504               0.287867738               0.000000000               0.150448448               0.311437989               0.000000000               0.162892392               0.335008240               0.000000000               0.175336336               0.358578492               0.000000000               0.187780280               0.382148743               0.000000000               0.200224224               0.405718994               0.000000000               0.212668168               0.429289246               0.000000000               0.225112112               0.452859497               0.000000000               0.237556056               0.476429749               0.000000000               0.250000000               0.500000000               0.000000000               0.038607862               0.127273065               0.000000000               0.047913621               0.150568498               0.000000000               0.057219379               0.173863932               0.000000000               0.066525138               0.197159365               0.000000000               0.075830897               0.220454798               0.000000000               0.085136655               0.243750232               0.000000000               0.094442414               0.267045665               0.000000000               0.103748172               0.290341099               0.000000000               0.113053931               0.313636532               0.000000000               0.122359690               0.336931966               0.000000000               0.131665448               0.360227399               0.000000000               0.140971207               0.383522833               0.000000000               0.150276966               0.406818266               0.000000000               0.159582724               0.430113700               0.000000000               0.168888483               0.453409133               0.000000000               0.178194241               0.476704567               0.000000000               0.187500000               0.500000000               0.000000000               0.025947013               0.130444442               0.000000000               0.032137825               0.153541665               0.000000000               0.038328636               0.176638887               0.000000000               0.044519448               0.199736109               0.000000000               0.050710260               0.222833332               0.000000000               0.056901071               0.245930554               0.000000000               0.063091883               0.269027776               0.000000000               0.069282695               0.292124999               0.000000000               0.075473506               0.315222221               0.000000000               0.081664318               0.338319444               0.000000000               0.087855130               0.361416666               0.000000000               0.094045942               0.384513888               0.000000000               0.100236753               0.407611111               0.000000000               0.106427565               0.430708333               0.000000000               0.112618377               0.453805555               0.000000000               0.118809188               0.476902778               0.000000000               0.125000000               0.500000000               0.000000000               0.013036280               0.132359569               0.000000000               0.016127762               0.155337096               0.000000000               0.019219245               0.178314623               0.000000000               0.022310727               0.201292150               0.000000000               0.025402210               0.224269676               0.000000000               0.028493692               0.247247203               0.000000000               0.031585175               0.270224730               0.000000000               0.034676657               0.293202257               0.000000000               0.037768140               0.316179784               0.000000000               0.040859622               0.339157311               0.000000000               0.043951105               0.362134838               0.000000000               0.047042587               0.385112365               0.000000000               0.050134070               0.408089892               0.000000000               0.053225552               0.431067419               0.000000000               0.056317035               0.454044946               0.000000000               0.059408517               0.477022473               0.000000000               0.062500000               0.500000000               0.000000000               0.000000000               0.133000000               0.000000000               0.000000000               0.155937500               0.000000000               0.000000000               0.178875000               0.000000000               0.000000000               0.201812500               0.000000000               0.000000000               0.224750000               0.000000000               0.000000000               0.247687500               0.000000000               0.000000000               0.270625000               0.000000000               0.000000000               0.293562500               0.000000000               0.000000000               0.316500000               0.000000000               0.000000000               0.339437500               0.000000000               0.000000000               0.362375000               0.000000000               0.000000000               0.385312500               0.000000000               0.000000000               0.408250000               0.000000000               0.000000000               0.431187500               0.000000000               0.000000000               0.454125000               0.000000000               0.000000000               0.477062500               0.000000000               0.000000000               0.500000000               0.000000000               0.133000000               0.000000000               0.000000000               0.155937500               0.000000000               0.000000000               0.178875000               0.000000000               0.000000000               0.201812500               0.000000000               0.000000000               0.224750000               0.000000000               0.000000000               0.247687500               0.000000000               0.000000000               0.270625000               0.000000000               0.000000000               0.293562500               0.000000000               0.000000000               0.316500000               0.000000000               0.000000000               0.339437500               0.000000000               0.000000000               0.362375000               0.000000000               0.000000000               0.385312500               0.000000000               0.000000000               0.408250000               0.000000000               0.000000000               0.431187500               0.000000000               0.000000000               0.454125000               0.000000000               0.000000000               0.477062500               0.000000000               0.000000000               0.500000000               0.000000000               0.000000000               0.132359569              -0.013036280               0.000000000               0.155337096              -0.016127762               0.000000000               0.178314623              -0.019219245               0.000000000               0.201292150              -0.022310727               0.000000000               0.224269676              -0.025402210               0.000000000               0.247247203              -0.028493692               0.000000000               0.270224730              -0.031585175               0.000000000               0.293202257              -0.034676657               0.000000000               0.316179784              -0.037768140               0.000000000               0.339157311              -0.040859622               0.000000000               0.362134838              -0.043951105               0.000000000               0.385112365              -0.047042587               0.000000000               0.408089892              -0.050134070               0.000000000               0.431067419              -0.053225552               0.000000000               0.454044946              -0.056317035               0.000000000               0.477022473              -0.059408517               0.000000000               0.500000000              -0.062500000               0.000000000               0.130444442              -0.025947013               0.000000000               0.153541665              -0.032137825               0.000000000               0.176638887              -0.038328636               0.000000000               0.199736109              -0.044519448               0.000000000               0.222833332              -0.050710260               0.000000000               0.245930554              -0.056901071               0.000000000               0.269027776              -0.063091883               0.000000000               0.292124999              -0.069282695               0.000000000               0.315222221              -0.075473506               0.000000000               0.338319444              -0.081664318               0.000000000               0.361416666              -0.087855130               0.000000000               0.384513888              -0.094045942               0.000000000               0.407611111              -0.100236753               0.000000000               0.430708333              -0.106427565               0.000000000               0.453805555              -0.112618377               0.000000000               0.476902778              -0.118809188               0.000000000               0.500000000              -0.125000000               0.000000000               0.127273065              -0.038607862               0.000000000               0.150568498              -0.047913621               0.000000000               0.173863932              -0.057219379               0.000000000               0.197159365              -0.066525138               0.000000000               0.220454798              -0.075830897               0.000000000               0.243750232              -0.085136655               0.000000000               0.267045665              -0.094442414               0.000000000               0.290341099              -0.103748172               0.000000000               0.313636532              -0.113053931               0.000000000               0.336931966              -0.122359690               0.000000000               0.360227399              -0.131665448               0.000000000               0.383522833              -0.140971207               0.000000000               0.406818266              -0.150276966               0.000000000               0.430113700              -0.159582724               0.000000000               0.453409133              -0.168888483               0.000000000               0.476704567              -0.178194241               0.000000000               0.500000000              -0.187500000               0.000000000               0.122875978              -0.050896897               0.000000000               0.146446229              -0.063340840               0.000000000               0.170016481              -0.075784784               0.000000000               0.193586732              -0.088228728               0.000000000               0.217156983              -0.100672672               0.000000000               0.240727235              -0.113116616               0.000000000               0.264297486              -0.125560560               0.000000000               0.287867738              -0.138004504               0.000000000               0.311437989              -0.150448448               0.000000000               0.335008240              -0.162892392               0.000000000               0.358578492              -0.175336336               0.000000000               0.382148743              -0.187780280               0.000000000               0.405718994              -0.200224224               0.000000000               0.429289246              -0.212668168               0.000000000               0.452859497              -0.225112112               0.000000000               0.476429749              -0.237556056               0.000000000               0.500000000              -0.250000000               0.000000000               0.117295528              -0.062695766               0.000000000               0.141214558              -0.078308531               0.000000000               0.165133587              -0.093921295               0.000000000               0.189052617              -0.109534060               0.000000000               0.212971646              -0.125146824               0.000000000               0.236890676              -0.140759589               0.000000000               0.260809705              -0.156372354               0.000000000               0.284728735              -0.171985118               0.000000000               0.308647764              -0.187597883               0.000000000               0.332566794              -0.203210648               0.000000000               0.356485823              -0.218823412               0.000000000               0.380404853              -0.234436177               0.000000000               0.404323882              -0.250048941               0.000000000               0.428242912              -0.265661706               0.000000000               0.452161941              -0.281274471               0.000000000               0.476080971              -0.296887235               0.000000000               0.500000000              -0.312500000               0.000000000               0.110585458              -0.073890841               0.000000000               0.134923867              -0.092710163               0.000000000               0.159262276              -0.111529486               0.000000000               0.183600685              -0.130348808               0.000000000               0.207939094              -0.149168131               0.000000000               0.232277503              -0.167987453               0.000000000               0.256615912              -0.186806776               0.000000000               0.280954320              -0.205626098               0.000000000               0.305292729              -0.224445420               0.000000000               0.329631138              -0.243264743               0.000000000               0.353969547              -0.262084065               0.000000000               0.378307956              -0.280903388               0.000000000               0.402646365              -0.299722710               0.000000000               0.426984773              -0.318542033               0.000000000               0.451323182              -0.337361355               0.000000000               0.475661591              -0.356180678               0.000000000               0.500000000              -0.375000000               0.000000000               0.102810390              -0.084374307               0.000000000               0.127634741              -0.106444663               0.000000000               0.152459092              -0.128515018               0.000000000               0.177283442              -0.150585374               0.000000000               0.202107793              -0.172655730               0.000000000               0.226932143              -0.194726086               0.000000000               0.251756494              -0.216796442               0.000000000               0.276580845              -0.238866798               0.000000000               0.301405195              -0.260937153               0.000000000               0.326229546              -0.283007509               0.000000000               0.351053896              -0.305077865               0.000000000               0.375878247              -0.327148221               0.000000000               0.400702598              -0.349218577               0.000000000               0.425526948              -0.371288933               0.000000000               0.450351299              -0.393359288               0.000000000               0.475175649              -0.415429644               0.000000000               0.500000000              -0.437500000               0.000000000               0.094045202              -0.094045202               0.000000000               0.119417377              -0.119417377               0.000000000               0.144789552              -0.144789552               0.000000000               0.170161727              -0.170161727               0.000000000               0.195533901              -0.195533901               0.000000000               0.220906076              -0.220906076               0.000000000               0.246278251              -0.246278251               0.000000000               0.271650426              -0.271650426               0.000000000               0.297022601              -0.297022601               0.000000000               0.322394776              -0.322394776               0.000000000               0.347766951              -0.347766951               0.000000000               0.373139126              -0.373139126               0.000000000               0.398511300              -0.398511300               0.000000000               0.423883475              -0.423883475               0.000000000               0.449255650              -0.449255650               0.000000000               0.474627825              -0.474627825               0.000000000               0.500000000              -0.500000000               0.000000000               0.084374307              -0.102810390               0.000000000               0.106444663              -0.127634741               0.000000000               0.128515018              -0.152459092               0.000000000               0.150585374              -0.177283442               0.000000000               0.172655730              -0.202107793               0.000000000               0.194726086              -0.226932143               0.000000000               0.216796442              -0.251756494               0.000000000               0.238866798              -0.276580845               0.000000000               0.260937153              -0.301405195               0.000000000               0.283007509              -0.326229546               0.000000000               0.305077865              -0.351053896               0.000000000               0.327148221              -0.375878247               0.000000000               0.349218577              -0.400702598               0.000000000               0.371288933              -0.425526948               0.000000000               0.393359288              -0.450351299               0.000000000               0.415429644              -0.475175649               0.000000000               0.437500000              -0.500000000               0.000000000               0.073890841              -0.110585458               0.000000000               0.092710163              -0.134923867               0.000000000               0.111529486              -0.159262276               0.000000000               0.130348808              -0.183600685               0.000000000               0.149168131              -0.207939094               0.000000000               0.167987453              -0.232277503               0.000000000               0.186806776              -0.256615912               0.000000000               0.205626098              -0.280954320               0.000000000               0.224445420              -0.305292729               0.000000000               0.243264743              -0.329631138               0.000000000               0.262084065              -0.353969547               0.000000000               0.280903388              -0.378307956               0.000000000               0.299722710              -0.402646365               0.000000000               0.318542033              -0.426984773               0.000000000               0.337361355              -0.451323182               0.000000000               0.356180678              -0.475661591               0.000000000               0.375000000              -0.500000000               0.000000000               0.062695766              -0.117295528               0.000000000               0.078308531              -0.141214558               0.000000000               0.093921295              -0.165133587               0.000000000               0.109534060              -0.189052617               0.000000000               0.125146824              -0.212971646               0.000000000               0.140759589              -0.236890676               0.000000000               0.156372354              -0.260809705               0.000000000               0.171985118              -0.284728735               0.000000000               0.187597883              -0.308647764               0.000000000               0.203210648              -0.332566794               0.000000000               0.218823412              -0.356485823               0.000000000               0.234436177              -0.380404853               0.000000000               0.250048941              -0.404323882               0.000000000               0.265661706              -0.428242912               0.000000000               0.281274471              -0.452161941               0.000000000               0.296887235              -0.476080971               0.000000000               0.312500000              -0.500000000               0.000000000               0.050896897              -0.122875978               0.000000000               0.063340840              -0.146446229               0.000000000               0.075784784              -0.170016481               0.000000000               0.088228728              -0.193586732               0.000000000               0.100672672              -0.217156983               0.000000000               0.113116616              -0.240727235               0.000000000               0.125560560              -0.264297486               0.000000000               0.138004504              -0.287867738               0.000000000               0.150448448              -0.311437989               0.000000000               0.162892392              -0.335008240               0.000000000               0.175336336              -0.358578492               0.000000000               0.187780280              -0.382148743               0.000000000               0.200224224              -0.405718994               0.000000000               0.212668168              -0.429289246               0.000000000               0.225112112              -0.452859497               0.000000000               0.237556056              -0.476429749               0.000000000               0.250000000              -0.500000000               0.000000000               0.038607862              -0.127273065               0.000000000               0.047913621              -0.150568498               0.000000000               0.057219379              -0.173863932               0.000000000               0.066525138              -0.197159365               0.000000000               0.075830897              -0.220454798               0.000000000               0.085136655              -0.243750232               0.000000000               0.094442414              -0.267045665               0.000000000               0.103748172              -0.290341099               0.000000000               0.113053931              -0.313636532               0.000000000               0.122359690              -0.336931966               0.000000000               0.131665448              -0.360227399               0.000000000               0.140971207              -0.383522833               0.000000000               0.150276966              -0.406818266               0.000000000               0.159582724              -0.430113700               0.000000000               0.168888483              -0.453409133               0.000000000               0.178194241              -0.476704567               0.000000000               0.187500000              -0.500000000               0.000000000               0.025947013              -0.130444442               0.000000000               0.032137825              -0.153541665               0.000000000               0.038328636              -0.176638887               0.000000000               0.044519448              -0.199736109               0.000000000               0.050710260              -0.222833332               0.000000000               0.056901071              -0.245930554               0.000000000               0.063091883              -0.269027776               0.000000000               0.069282695              -0.292124999               0.000000000               0.075473506              -0.315222221               0.000000000               0.081664318              -0.338319444               0.000000000               0.087855130              -0.361416666               0.000000000               0.094045942              -0.384513888               0.000000000               0.100236753              -0.407611111               0.000000000               0.106427565              -0.430708333               0.000000000               0.112618377              -0.453805555               0.000000000               0.118809188              -0.476902778               0.000000000               0.125000000              -0.500000000               0.000000000               0.013036280              -0.132359569               0.000000000               0.016127762              -0.155337096               0.000000000               0.019219245              -0.178314623               0.000000000               0.022310727              -0.201292150               0.000000000               0.025402210              -0.224269676               0.000000000               0.028493692              -0.247247203               0.000000000               0.031585175              -0.270224730               0.000000000               0.034676657              -0.293202257               0.000000000               0.037768140              -0.316179784               0.000000000               0.040859622              -0.339157311               0.000000000               0.043951105              -0.362134838               0.000000000               0.047042587              -0.385112365               0.000000000               0.050134070              -0.408089892               0.000000000               0.053225552              -0.431067419               0.000000000               0.056317035              -0.454044946               0.000000000               0.059408517              -0.477022473               0.000000000               0.062500000              -0.500000000               0.000000000               0.000000000              -0.133000000               0.000000000               0.000000000              -0.155937500               0.000000000               0.000000000              -0.178875000               0.000000000               0.000000000              -0.201812500               0.000000000               0.000000000              -0.224750000               0.000000000               0.000000000              -0.247687500               0.000000000               0.000000000              -0.270625000               0.000000000               0.000000000              -0.293562500               0.000000000               0.000000000              -0.316500000               0.000000000               0.000000000              -0.339437500               0.000000000               0.000000000              -0.362375000               0.000000000               0.000000000              -0.385312500               0.000000000               0.000000000              -0.408250000               0.000000000               0.000000000              -0.431187500               0.000000000               0.000000000              -0.454125000               0.000000000               0.000000000              -0.477062500               0.000000000               0.000000000              -0.500000000               0.000000000              -0.133000000               0.000000000               0.000000000              -0.155937500               0.000000000               0.000000000              -0.178875000               0.000000000               0.000000000              -0.201812500               0.000000000               0.000000000              -0.224750000               0.000000000               0.000000000              -0.247687500               0.000000000               0.000000000              -0.270625000               0.000000000               0.000000000              -0.293562500               0.000000000               0.000000000              -0.316500000               0.000000000               0.000000000              -0.339437500               0.000000000               0.000000000              -0.362375000               0.000000000               0.000000000              -0.385312500               0.000000000               0.000000000              -0.408250000               0.000000000               0.000000000              -0.431187500               0.000000000               0.000000000              -0.454125000               0.000000000               0.000000000              -0.477062500               0.000000000               0.000000000              -0.500000000               0.000000000               0.000000000              -0.132359569              -0.013036280               0.000000000              -0.155337096              -0.016127762               0.000000000              -0.178314623              -0.019219245               0.000000000              -0.201292150              -0.022310727               0.000000000              -0.224269676              -0.025402210               0.000000000              -0.247247203              -0.028493692               0.000000000              -0.270224730              -0.031585175               0.000000000              -0.293202257              -0.034676657               0.000000000              -0.316179784              -0.037768140               0.000000000              -0.339157311              -0.040859622               0.000000000              -0.362134838              -0.043951105               0.000000000              -0.385112365              -0.047042587               0.000000000              -0.408089892              -0.050134070               0.000000000              -0.431067419              -0.053225552               0.000000000              -0.454044946              -0.056317035               0.000000000              -0.477022473              -0.059408517               0.000000000              -0.500000000              -0.062500000               0.000000000              -0.130444442              -0.025947013               0.000000000              -0.153541665              -0.032137825               0.000000000              -0.176638887              -0.038328636               0.000000000              -0.199736109              -0.044519448               0.000000000              -0.222833332              -0.050710260               0.000000000              -0.245930554              -0.056901071               0.000000000              -0.269027776              -0.063091883               0.000000000              -0.292124999              -0.069282695               0.000000000              -0.315222221              -0.075473506               0.000000000              -0.338319444              -0.081664318               0.000000000              -0.361416666              -0.087855130               0.000000000              -0.384513888              -0.094045942               0.000000000              -0.407611111              -0.100236753               0.000000000              -0.430708333              -0.106427565               0.000000000              -0.453805555              -0.112618377               0.000000000              -0.476902778              -0.118809188               0.000000000              -0.500000000              -0.125000000               0.000000000              -0.127273065              -0.038607862               0.000000000              -0.150568498              -0.047913621               0.000000000              -0.173863932              -0.057219379               0.000000000              -0.197159365              -0.066525138               0.000000000              -0.220454798              -0.075830897               0.000000000              -0.243750232              -0.085136655               0.000000000              -0.267045665              -0.094442414               0.000000000              -0.290341099              -0.103748172               0.000000000              -0.313636532              -0.113053931               0.000000000              -0.336931966              -0.122359690               0.000000000              -0.360227399              -0.131665448               0.000000000              -0.383522833              -0.140971207               0.000000000              -0.406818266              -0.150276966               0.000000000              -0.430113700              -0.159582724               0.000000000              -0.453409133              -0.168888483               0.000000000              -0.476704567              -0.178194241               0.000000000              -0.500000000              -0.187500000               0.000000000              -0.122875978              -0.050896897               0.000000000              -0.146446229              -0.063340840               0.000000000              -0.170016481              -0.075784784               0.000000000              -0.193586732              -0.088228728               0.000000000              -0.217156983              -0.100672672               0.000000000              -0.240727235              -0.113116616               0.000000000              -0.264297486              -0.125560560               0.000000000              -0.287867738              -0.138004504               0.000000000              -0.311437989              -0.150448448               0.000000000              -0.335008240              -0.162892392               0.000000000              -0.358578492              -0.175336336               0.000000000              -0.382148743              -0.187780280               0.000000000              -0.405718994              -0.200224224               0.000000000              -0.429289246              -0.212668168               0.000000000              -0.452859497              -0.225112112               0.000000000              -0.476429749              -0.237556056               0.000000000              -0.500000000              -0.250000000               0.000000000              -0.117295528              -0.062695766               0.000000000              -0.141214558              -0.078308531               0.000000000              -0.165133587              -0.093921295               0.000000000              -0.189052617              -0.109534060               0.000000000              -0.212971646              -0.125146824               0.000000000              -0.236890676              -0.140759589               0.000000000              -0.260809705              -0.156372354               0.000000000              -0.284728735              -0.171985118               0.000000000              -0.308647764              -0.187597883               0.000000000              -0.332566794              -0.203210648               0.000000000              -0.356485823              -0.218823412               0.000000000              -0.380404853              -0.234436177               0.000000000              -0.404323882              -0.250048941               0.000000000              -0.428242912              -0.265661706               0.000000000              -0.452161941              -0.281274471               0.000000000              -0.476080971              -0.296887235               0.000000000              -0.500000000              -0.312500000               0.000000000              -0.110585458              -0.073890841               0.000000000              -0.134923867              -0.092710163               0.000000000              -0.159262276              -0.111529486               0.000000000              -0.183600685              -0.130348808               0.000000000              -0.207939094              -0.149168131               0.000000000              -0.232277503              -0.167987453               0.000000000              -0.256615912              -0.186806776               0.000000000              -0.280954320              -0.205626098               0.000000000              -0.305292729              -0.224445420               0.000000000              -0.329631138              -0.243264743               0.000000000              -0.353969547              -0.262084065               0.000000000              -0.378307956              -0.280903388               0.000000000              -0.402646365              -0.299722710               0.000000000              -0.426984773              -0.318542033               0.000000000              -0.451323182              -0.337361355               0.000000000              -0.475661591              -0.356180678               0.000000000              -0.500000000              -0.375000000               0.000000000              -0.102810390              -0.084374307               0.000000000              -0.127634741              -0.106444663               0.000000000              -0.152459092              -0.128515018               0.000000000              -0.177283442              -0.150585374               0.000000000              -0.202107793              -0.172655730               0.000000000              -0.226932143              -0.194726086               0.000000000              -0.251756494              -0.216796442               0.000000000              -0.276580845              -0.238866798               0.000000000              -0.301405195              -0.260937153               0.000000000              -0.326229546              -0.283007509               0.000000000              -0.351053896              -0.305077865               0.000000000              -0.375878247              -0.327148221               0.000000000              -0.400702598              -0.349218577               0.000000000              -0.425526948              -0.371288933               0.000000000              -0.450351299              -0.393359288               0.000000000              -0.475175649              -0.415429644               0.000000000              -0.500000000              -0.437500000               0.000000000              -0.094045202              -0.094045202               0.000000000              -0.119417377              -0.119417377               0.000000000              -0.144789552              -0.144789552               0.000000000              -0.170161727              -0.170161727               0.000000000              -0.195533901              -0.195533901               0.000000000              -0.220906076              -0.220906076               0.000000000              -0.246278251              -0.246278251               0.000000000              -0.271650426              -0.271650426               0.000000000              -0.297022601              -0.297022601               0.000000000              -0.322394776              -0.322394776               0.000000000              -0.347766951              -0.347766951               0.000000000              -0.373139126              -0.373139126               0.000000000              -0.398511300              -0.398511300               0.000000000              -0.423883475              -0.423883475               0.000000000              -0.449255650              -0.449255650               0.000000000              -0.474627825              -0.474627825               0.000000000              -0.500000000              -0.500000000               0.000000000              -0.084374307              -0.102810390               0.000000000              -0.106444663              -0.127634741               0.000000000              -0.128515018              -0.152459092               0.000000000              -0.150585374              -0.177283442               0.000000000              -0.172655730              -0.202107793               0.000000000              -0.194726086              -0.226932143               0.000000000              -0.216796442              -0.251756494               0.000000000              -0.238866798              -0.276580845               0.000000000              -0.260937153              -0.301405195               0.000000000              -0.283007509              -0.326229546               0.000000000              -0.305077865              -0.351053896               0.000000000              -0.327148221              -0.375878247               0.000000000              -0.349218577              -0.400702598               0.000000000              -0.371288933              -0.425526948               0.000000000              -0.393359288              -0.450351299               0.000000000              -0.415429644              -0.475175649               0.000000000              -0.437500000              -0.500000000               0.000000000              -0.073890841              -0.110585458               0.000000000              -0.092710163              -0.134923867               0.000000000              -0.111529486              -0.159262276               0.000000000              -0.130348808              -0.183600685               0.000000000              -0.149168131              -0.207939094               0.000000000              -0.167987453              -0.232277503               0.000000000              -0.186806776              -0.256615912               0.000000000              -0.205626098              -0.280954320               0.000000000              -0.224445420              -0.305292729               0.000000000              -0.243264743              -0.329631138               0.000000000              -0.262084065              -0.353969547               0.000000000              -0.280903388              -0.378307956               0.000000000              -0.299722710              -0.402646365               0.000000000              -0.318542033              -0.426984773               0.000000000              -0.337361355              -0.451323182               0.000000000              -0.356180678              -0.475661591               0.000000000              -0.375000000              -0.500000000               0.000000000              -0.062695766              -0.117295528               0.000000000              -0.078308531              -0.141214558               0.000000000              -0.093921295              -0.165133587               0.000000000              -0.109534060              -0.189052617               0.000000000              -0.125146824              -0.212971646               0.000000000              -0.140759589              -0.236890676               0.000000000              -0.156372354              -0.260809705               0.000000000              -0.171985118              -0.284728735               0.000000000              -0.187597883              -0.308647764               0.000000000              -0.203210648              -0.332566794               0.000000000              -0.218823412              -0.356485823               0.000000000              -0.234436177              -0.380404853               0.000000000              -0.250048941              -0.404323882               0.000000000              -0.265661706              -0.428242912               0.000000000              -0.281274471              -0.452161941               0.000000000              -0.296887235              -0.476080971               0.000000000              -0.312500000              -0.500000000               0.000000000              -0.050896897              -0.122875978               0.000000000              -0.063340840              -0.146446229               0.000000000              -0.075784784              -0.170016481               0.000000000              -0.088228728              -0.193586732               0.000000000              -0.100672672              -0.217156983               0.000000000              -0.113116616              -0.240727235               0.000000000              -0.125560560              -0.264297486               0.000000000              -0.138004504              -0.287867738               0.000000000              -0.150448448              -0.311437989               0.000000000              -0.162892392              -0.335008240               0.000000000              -0.175336336              -0.358578492               0.000000000              -0.187780280              -0.382148743               0.000000000              -0.200224224              -0.405718994               0.000000000              -0.212668168              -0.429289246               0.000000000              -0.225112112              -0.452859497               0.000000000              -0.237556056              -0.476429749               0.000000000              -0.250000000              -0.500000000               0.000000000              -0.038607862              -0.127273065               0.000000000              -0.047913621              -0.150568498               0.000000000              -0.057219379              -0.173863932               0.000000000              -0.066525138              -0.197159365               0.000000000              -0.075830897              -0.220454798               0.000000000              -0.085136655              -0.243750232               0.000000000              -0.094442414              -0.267045665               0.000000000              -0.103748172              -0.290341099               0.000000000              -0.113053931              -0.313636532               0.000000000              -0.122359690              -0.336931966               0.000000000              -0.131665448              -0.360227399               0.000000000              -0.140971207              -0.383522833               0.000000000              -0.150276966              -0.406818266               0.000000000              -0.159582724              -0.430113700               0.000000000              -0.168888483              -0.453409133               0.000000000              -0.178194241              -0.476704567               0.000000000              -0.187500000              -0.500000000               0.000000000              -0.025947013              -0.130444442               0.000000000              -0.032137825              -0.153541665               0.000000000              -0.038328636              -0.176638887               0.000000000              -0.044519448              -0.199736109               0.000000000              -0.050710260              -0.222833332               0.000000000              -0.056901071              -0.245930554               0.000000000              -0.063091883              -0.269027776               0.000000000              -0.069282695              -0.292124999               0.000000000              -0.075473506              -0.315222221               0.000000000              -0.081664318              -0.338319444               0.000000000              -0.087855130              -0.361416666               0.000000000              -0.094045942              -0.384513888               0.000000000              -0.100236753              -0.407611111               0.000000000              -0.106427565              -0.430708333               0.000000000              -0.112618377              -0.453805555               0.000000000              -0.118809188              -0.476902778               0.000000000              -0.125000000              -0.500000000               0.000000000              -0.013036280              -0.132359569               0.000000000              -0.016127762              -0.155337096               0.000000000              -0.019219245              -0.178314623               0.000000000              -0.022310727              -0.201292150               0.000000000              -0.025402210              -0.224269676               0.000000000              -0.028493692              -0.247247203               0.000000000              -0.031585175              -0.270224730               0.000000000              -0.034676657              -0.293202257               0.000000000              -0.037768140              -0.316179784               0.000000000              -0.040859622              -0.339157311               0.000000000              -0.043951105              -0.362134838               0.000000000              -0.047042587              -0.385112365               0.000000000              -0.050134070              -0.408089892               0.000000000              -0.053225552              -0.431067419               0.000000000              -0.056317035              -0.454044946               0.000000000              -0.059408517              -0.477022473               0.000000000              -0.062500000              -0.500000000               0.000000000               0.000000000              -0.133000000               0.000000000               0.000000000              -0.155937500               0.000000000               0.000000000              -0.178875000               0.000000000               0.000000000              -0.201812500               0.000000000               0.000000000              -0.224750000               0.000000000               0.000000000              -0.247687500               0.000000000               0.000000000              -0.270625000               0.000000000               0.000000000              -0.293562500               0.000000000               0.000000000              -0.316500000               0.000000000               0.000000000              -0.339437500               0.000000000               0.000000000              -0.362375000               0.000000000               0.000000000              -0.385312500               0.000000000               0.000000000              -0.408250000               0.000000000               0.000000000              -0.431187500               0.000000000               0.000000000              -0.454125000               0.000000000               0.000000000              -0.477062500               0.000000000               0.000000000              -0.500000000               0.000000000              -0.133000000               0.000000000               0.000000000              -0.155937500               0.000000000               0.000000000              -0.178875000               0.000000000               0.000000000              -0.201812500               0.000000000               0.000000000              -0.224750000               0.000000000               0.000000000              -0.247687500               0.000000000               0.000000000              -0.270625000               0.000000000               0.000000000              -0.293562500               0.000000000               0.000000000              -0.316500000               0.000000000               0.000000000              -0.339437500               0.000000000               0.000000000              -0.362375000               0.000000000               0.000000000              -0.385312500               0.000000000               0.000000000              -0.408250000               0.000000000               0.000000000              -0.431187500               0.000000000               0.000000000              -0.454125000               0.000000000               0.000000000              -0.477062500               0.000000000               0.000000000              -0.500000000               0.000000000               0.000000000              -0.132359569               0.013036280               0.000000000              -0.155337096               0.016127762               0.000000000              -0.178314623               0.019219245               0.000000000              -0.201292150               0.022310727               0.000000000              -0.224269676               0.025402210               0.000000000              -0.247247203               0.028493692               0.000000000              -0.270224730               0.031585175               0.000000000              -0.293202257               0.034676657               0.000000000              -0.316179784               0.037768140               0.000000000              -0.339157311               0.040859622               0.000000000              -0.362134838               0.043951105               0.000000000              -0.385112365               0.047042587               0.000000000              -0.408089892               0.050134070               0.000000000              -0.431067419               0.053225552               0.000000000              -0.454044946               0.056317035               0.000000000              -0.477022473               0.059408517               0.000000000              -0.500000000               0.062500000               0.000000000              -0.130444442               0.025947013               0.000000000              -0.153541665               0.032137825               0.000000000              -0.176638887               0.038328636               0.000000000              -0.199736109               0.044519448               0.000000000              -0.222833332               0.050710260               0.000000000              -0.245930554               0.056901071               0.000000000              -0.269027776               0.063091883               0.000000000              -0.292124999               0.069282695               0.000000000              -0.315222221               0.075473506               0.000000000              -0.338319444               0.081664318               0.000000000              -0.361416666               0.087855130               0.000000000              -0.384513888               0.094045942               0.000000000              -0.407611111               0.100236753               0.000000000              -0.430708333               0.106427565               0.000000000              -0.453805555               0.112618377               0.000000000              -0.476902778               0.118809188               0.000000000              -0.500000000               0.125000000               0.000000000              -0.127273065               0.038607862               0.000000000              -0.150568498               0.047913621               0.000000000              -0.173863932               0.057219379               0.000000000              -0.197159365               0.066525138               0.000000000              -0.220454798               0.075830897               0.000000000              -0.243750232               0.085136655               0.000000000              -0.267045665               0.094442414               0.000000000              -0.290341099               0.103748172               0.000000000              -0.313636532               0.113053931               0.000000000              -0.336931966               0.122359690               0.000000000              -0.360227399               0.131665448               0.000000000              -0.383522833               0.140971207               0.000000000              -0.406818266               0.150276966               0.000000000              -0.430113700               0.159582724               0.000000000              -0.453409133               0.168888483               0.000000000              -0.476704567               0.178194241               0.000000000              -0.500000000               0.187500000               0.000000000              -0.122875978               0.050896897               0.000000000              -0.146446229               0.063340840               0.000000000              -0.170016481               0.075784784               0.000000000              -0.193586732               0.088228728               0.000000000              -0.217156983               0.100672672               0.000000000              -0.240727235               0.113116616               0.000000000              -0.264297486               0.125560560               0.000000000              -0.287867738               0.138004504               0.000000000              -0.311437989               0.150448448               0.000000000              -0.335008240               0.162892392               0.000000000              -0.358578492               0.175336336               0.000000000              -0.382148743               0.187780280               0.000000000              -0.405718994               0.200224224               0.000000000              -0.429289246               0.212668168               0.000000000              -0.452859497               0.225112112               0.000000000              -0.476429749               0.237556056               0.000000000              -0.500000000               0.250000000               0.000000000              -0.117295528               0.062695766               0.000000000              -0.141214558               0.078308531               0.000000000              -0.165133587               0.093921295               0.000000000              -0.189052617               0.109534060               0.000000000              -0.212971646               0.125146824               0.000000000              -0.236890676               0.140759589               0.000000000              -0.260809705               0.156372354               0.000000000              -0.284728735               0.171985118               0.000000000              -0.308647764               0.187597883               0.000000000              -0.332566794               0.203210648               0.000000000              -0.356485823               0.218823412               0.000000000              -0.380404853               0.234436177               0.000000000              -0.404323882               0.250048941               0.000000000              -0.428242912               0.265661706               0.000000000              -0.452161941               0.281274471               0.000000000              -0.476080971               0.296887235               0.000000000              -0.500000000               0.312500000               0.000000000              -0.110585458               0.073890841               0.000000000              -0.134923867               0.092710163               0.000000000              -0.159262276               0.111529486               0.000000000              -0.183600685               0.130348808               0.000000000              -0.207939094               0.149168131               0.000000000              -0.232277503               0.167987453               0.000000000              -0.256615912               0.186806776               0.000000000              -0.280954320               0.205626098               0.000000000              -0.305292729               0.224445420               0.000000000              -0.329631138               0.243264743               0.000000000              -0.353969547               0.262084065               0.000000000              -0.378307956               0.280903388               0.000000000              -0.402646365               0.299722710               0.000000000              -0.426984773               0.318542033               0.000000000              -0.451323182               0.337361355               0.000000000              -0.475661591               0.356180678               0.000000000              -0.500000000               0.375000000               0.000000000              -0.102810390               0.084374307               0.000000000              -0.127634741               0.106444663               0.000000000              -0.152459092               0.128515018               0.000000000              -0.177283442               0.150585374               0.000000000              -0.202107793               0.172655730               0.000000000              -0.226932143               0.194726086               0.000000000              -0.251756494               0.216796442               0.000000000              -0.276580845               0.238866798               0.000000000              -0.301405195               0.260937153               0.000000000              -0.326229546               0.283007509               0.000000000              -0.351053896               0.305077865               0.000000000              -0.375878247               0.327148221               0.000000000              -0.400702598               0.349218577               0.000000000              -0.425526948               0.371288933               0.000000000              -0.450351299               0.393359288               0.000000000              -0.475175649               0.415429644               0.000000000              -0.500000000               0.437500000               0.000000000              -0.094045202               0.094045202               0.000000000              -0.119417377               0.119417377               0.000000000              -0.144789552               0.144789552               0.000000000              -0.170161727               0.170161727               0.000000000              -0.195533901               0.195533901               0.000000000              -0.220906076               0.220906076               0.000000000              -0.246278251               0.246278251               0.000000000              -0.271650426               0.271650426               0.000000000              -0.297022601               0.297022601               0.000000000              -0.322394776               0.322394776               0.000000000              -0.347766951               0.347766951               0.000000000              -0.373139126               0.373139126               0.000000000              -0.398511300               0.398511300               0.000000000              -0.423883475               0.423883475               0.000000000              -0.449255650               0.449255650               0.000000000              -0.474627825               0.474627825               0.000000000              -0.500000000               0.500000000               0.000000000              -0.084374307               0.102810390               0.000000000              -0.106444663               0.127634741               0.000000000              -0.128515018               0.152459092               0.000000000              -0.150585374               0.177283442               0.000000000              -0.172655730               0.202107793               0.000000000              -0.194726086               0.226932143               0.000000000              -0.216796442               0.251756494               0.000000000              -0.238866798               0.276580845               0.000000000              -0.260937153               0.301405195               0.000000000              -0.283007509               0.326229546               0.000000000              -0.305077865               0.351053896               0.000000000              -0.327148221               0.375878247               0.000000000              -0.349218577               0.400702598               0.000000000              -0.371288933               0.425526948               0.000000000              -0.393359288               0.450351299               0.000000000              -0.415429644               0.475175649               0.000000000              -0.437500000               0.500000000               0.000000000              -0.073890841               0.110585458               0.000000000              -0.092710163               0.134923867               0.000000000              -0.111529486               0.159262276               0.000000000              -0.130348808               0.183600685               0.000000000              -0.149168131               0.207939094               0.000000000              -0.167987453               0.232277503               0.000000000              -0.186806776               0.256615912               0.000000000              -0.205626098               0.280954320               0.000000000              -0.224445420               0.305292729               0.000000000              -0.243264743               0.329631138               0.000000000              -0.262084065               0.353969547               0.000000000              -0.280903388               0.378307956               0.000000000              -0.299722710               0.402646365               0.000000000              -0.318542033               0.426984773               0.000000000              -0.337361355               0.451323182               0.000000000              -0.356180678               0.475661591               0.000000000              -0.375000000               0.500000000               0.000000000              -0.062695766               0.117295528               0.000000000              -0.078308531               0.141214558               0.000000000              -0.093921295               0.165133587               0.000000000              -0.109534060               0.189052617               0.000000000              -0.125146824               0.212971646               0.000000000              -0.140759589               0.236890676               0.000000000              -0.156372354               0.260809705               0.000000000              -0.171985118               0.284728735               0.000000000              -0.187597883               0.308647764               0.000000000              -0.203210648               0.332566794               0.000000000              -0.218823412               0.356485823               0.000000000              -0.234436177               0.380404853               0.000000000              -0.250048941               0.404323882               0.000000000              -0.265661706               0.428242912               0.000000000              -0.281274471               0.452161941               0.000000000              -0.296887235               0.476080971               0.000000000              -0.312500000               0.500000000               0.000000000              -0.050896897               0.122875978               0.000000000              -0.063340840               0.146446229               0.000000000              -0.075784784               0.170016481               0.000000000              -0.088228728               0.193586732               0.000000000              -0.100672672               0.217156983               0.000000000              -0.113116616               0.240727235               0.000000000              -0.125560560               0.264297486               0.000000000              -0.138004504               0.287867738               0.000000000              -0.150448448               0.311437989               0.000000000              -0.162892392               0.335008240               0.000000000              -0.175336336               0.358578492               0.000000000              -0.187780280               0.382148743               0.000000000              -0.200224224               0.405718994               0.000000000              -0.212668168               0.429289246               0.000000000              -0.225112112               0.452859497               0.000000000              -0.237556056               0.476429749               0.000000000              -0.250000000               0.500000000               0.000000000              -0.038607862               0.127273065               0.000000000              -0.047913621               0.150568498               0.000000000              -0.057219379               0.173863932               0.000000000              -0.066525138               0.197159365               0.000000000              -0.075830897               0.220454798               0.000000000              -0.085136655               0.243750232               0.000000000              -0.094442414               0.267045665               0.000000000              -0.103748172               0.290341099               0.000000000              -0.113053931               0.313636532               0.000000000              -0.122359690               0.336931966               0.000000000              -0.131665448               0.360227399               0.000000000              -0.140971207               0.383522833               0.000000000              -0.150276966               0.406818266               0.000000000              -0.159582724               0.430113700               0.000000000              -0.168888483               0.453409133               0.000000000              -0.178194241               0.476704567               0.000000000              -0.187500000               0.500000000               0.000000000              -0.025947013               0.130444442               0.000000000              -0.032137825               0.153541665               0.000000000              -0.038328636               0.176638887               0.000000000              -0.044519448               0.199736109               0.000000000              -0.050710260               0.222833332               0.000000000              -0.056901071               0.245930554               0.000000000              -0.063091883               0.269027776               0.000000000              -0.069282695               0.292124999               0.000000000              -0.075473506               0.315222221               0.000000000              -0.081664318               0.338319444               0.000000000              -0.087855130               0.361416666               0.000000000              -0.094045942               0.384513888               0.000000000              -0.100236753               0.407611111               0.000000000              -0.106427565               0.430708333               0.000000000              -0.112618377               0.453805555               0.000000000              -0.118809188               0.476902778               0.000000000              -0.125000000               0.500000000               0.000000000              -0.013036280               0.132359569               0.000000000              -0.016127762               0.155337096               0.000000000              -0.019219245               0.178314623               0.000000000              -0.022310727               0.201292150               0.000000000              -0.025402210               0.224269676               0.000000000              -0.028493692               0.247247203               0.000000000              -0.031585175               0.270224730               0.000000000              -0.034676657               0.293202257               0.000000000              -0.037768140               0.316179784               0.000000000              -0.040859622               0.339157311               0.000000000              -0.043951105               0.362134838               0.000000000              -0.047042587               0.385112365               0.000000000              -0.050134070               0.408089892               0.000000000              -0.053225552               0.431067419               0.000000000              -0.056317035               0.454044946               0.000000000              -0.059408517               0.477022473               0.000000000              -0.062500000               0.500000000               0.000000000               0.000000000               0.133000000               0.000000000               0.000000000               0.155937500               0.000000000               0.000000000               0.178875000               0.000000000               0.000000000               0.201812500               0.000000000               0.000000000               0.224750000               0.000000000               0.000000000               0.247687500               0.000000000               0.000000000               0.270625000               0.000000000               0.000000000               0.293562500               0.000000000               0.000000000               0.316500000               0.000000000               0.000000000               0.339437500               0.000000000               0.000000000               0.362375000               0.000000000               0.000000000               0.385312500               0.000000000               0.000000000               0.408250000               0.000000000               0.000000000               0.431187500               0.000000000               0.000000000               0.454125000               0.000000000               0.000000000               0.477062500               0.000000000               0.000000000               0.500000000               0.000000000 </DataArray>
</Points>
<Cells>
<DataArray type="Int32"                                    Name="connectivity"                                                      NumberOfComponents=" 1" format="ascii">
         0          1         18         17          1          2         19         18          2          3         20         19          3          4         21         20          4          5         22         21          5          6         23         22          6          7         24         23          7          8         25         24          8          9         26         25          9         10         27         26         10         11         28         27         11         12         29         28         12         13         30         29         13         14         31         30         14         15         32         31         15         16         33         32         17         18         35         34         18         19         36         35         19         20         37         36         20         21         38         37         21         22         39         38         22         23         40         39         23         24         41         40         24         25         42         41         25         26         43         42         26         27         44         43         27         28         45         44         28         29         46         45         29         30         47         46         30         31         48         47         31         32         49         48         32         33         50         49         34         35         52         51         35         36         53         52         36         37         54         53         37         38         55         54         38         39         56         55         39         40         57         56         40         41         58         57         41         42         59         58         42         43         60         59         43         44         61         60         44         45         62         61         45         46         63         62         46         47         64         63         47         48         65         64         48         49         66         65         49         50         67         66         51         52         69         68         52         53         70         69         53         54         71         70         54         55         72         71         55         56         73         72         56         57         74         73         57         58         75         74         58         59         76         75         59         60         77         76         60         61         78         77         61         62         79         78         62         63         80         79         63         64         81         80         64         65         82         81         65         66         83         82         66         67         84         83         68         69         86         85         69         70         87         86         70         71         88         87         71         72         89         88         72         73         90         89         73         74         91         90         74         75         92         91         75         76         93         92         76         77         94         93         77         78         95         94         78         79         96         95         79         80         97         96         80         81         98         97         81         82         99         98         82         83        100         99         83         84        101        100         85         86        103        102         86         87        104        103         87         88        105        104         88         89        106        105         89         90        107        106         90         91        108        107         91         92        109        108         92         93        110        109         93         94        111        110         94         95        112        111         95         96        113        112         96         97        114        113         97         98        115        114         98         99        116        115         99        100        117        116        100        101        118        117        102        103        120        119        103        104        121        120        104        105        122        121        105        106        123        122        106        107        124        123        107        108        125        124        108        109        126        125        109        110        127        126        110        111        128        127        111        112        129        128        112        113        130        129        113        114        131        130        114        115        132        131        115        116        133        132        116        117        134        133        117        118        135        134        119        120        137        136        120        121        138        137        121        122        139        138        122        123        140        139        123        124        141        140        124        125        142        141        125        126        143        142        126        127        144        143        127        128        145        144        128        129        146        145        129        130        147        146        130        131        148        147        131        132        149        148        132        133        150        149        133        134        151        150        134        135        152        151        136        137        154        153        137        138        155        154        138        139        156        155        139        140        157        156        140        141        158        157        141        142        159        158        142        143        160        159        143        144        161        160        144        145        162        161        145        146        163        162        146        147        164        163        147        148        165        164        148        149        166        165        149        150        167        166        150        151        168        167        151        152        169        168        153        154        171        170        154        155        172        171        155        156        173        172        156        157        174        173        157        158        175        174        158        159        176        175        159        160        177        176        160        161        178        177        161        162        179        178        162        163        180        179        163        164        181        180        164        165        182        181        165        166        183        182        166        167        184        183        167        168        185        184        168        169        186        185        170        171        188        187        171        172        189        188        172        173        190        189        173        174        191        190        174        175        192        191        175        176        193        192        176        177        194        193        177        178        195        194        178        179        196        195        179        180        197        196        180        181        198        197        181        182        199        198        182        183        200        199        183        184        201        200        184        185        202        201        185        186        203        202        187        188        205        204        188        189        206        205        189        190        207        206        190        191        208        207        191        192        209        208        192        193        210        209        193        194        211        210        194        195        212        211        195        196        213        212        196        197        214        213        197        198        215        214        198        199        216        215        199        200        217        216        200        201        218        217        201        202        219        218        202        203        220        219        204        205        222        221        205        206        223        222        206        207        224        223        207        208        225        224        208        209        226        225        209        210        227        226        210        211        228        227        211        212        229        228        212        213        230        229        213        214        231        230        214        215        232        231        215        216        233        232        216        217        234        233        217        218        235        234        218        219        236        235        219        220        237        236        221        222        239        238        222        223        240        239        223        224        241        240        224        225        242        241        225        226        243        242        226        227        244        243        227        228        245        244        228        229        246        245        229        230        247        246        230        231        248        247        231        232        249        248        232        233        250        249        233        234        251        250        234        235        252        251        235        236        253        252        236        237        254        253        238        239        256        255        239        240        257        256        240        241        258        257        241        242        259        258        242        243        260        259        243        244        261        260        244        245        262        261        245        246        263        262        246        247        264        263        247        248        265        264        248        249        266        265        249        250        267        266        250        251        268        267        251        252        269        268        252        253        270        269        253        254        271        270        255        256        273        272        256        257        274        273        257        258        275        274        258        259        276        275        259        260        277        276        260        261        278        277        261        262        279        278        262        263        280        279        263        264        281        280        264        265        282        281        265        266        283        282        266        267        284        283        267        268        285        284        268        269        286        285        269        270        287        286        270        271        288        287        306        307          1          0        307        308          2          1        308        309          3          2        309        310          4          3        310        311          5          4        311        312          6          5        312        313          7          6        313        314          8          7        314        315          9          8        315        316         10          9        316        317         11         10        317        318         12         11        318        319         13         12        319        320         14         13        320        321         15         14        321        322         16         15        323        324        307        306        324        325        308        307        325        326        309        308        326        327        310        309        327        328        311        310        328        329        312        311        329        330        313        312        330        331        314        313        331        332        315        314        332        333        316        315        333        334        317        316        334        335        318        317        335        336        319        318        336        337        320        319        337        338        321        320        338        339        322        321        340        341        324        323        341        342        325        324        342        343        326        325        343        344        327        326        344        345        328        327        345        346        329        328        346        347        330        329        347        348        331        330        348        349        332        331        349        350        333        332        350        351        334        333        351        352        335        334        352        353        336        335        353        354        337        336        354        355        338        337        355        356        339        338        357        358        341        340        358        359        342        341        359        360        343        342        360        361        344        343        361        362        345        344        362        363        346        345        363        364        347        346        364        365        348        347        365        366        349        348        366        367        350        349        367        368        351        350        368        369        352        351        369        370        353        352        370        371        354        353        371        372        355        354        372        373        356        355        374        375        358        357        375        376        359        358        376        377        360        359        377        378        361        360        378        379        362        361        379        380        363        362        380        381        364        363        381        382        365        364        382        383        366        365        383        384        367        366        384        385        368        367        385        386        369        368        386        387        370        369        387        388        371        370        388        389        372        371        389        390        373        372        391        392        375        374        392        393        376        375        393        394        377        376        394        395        378        377        395        396        379        378        396        397        380        379        397        398        381        380        398        399        382        381        399        400        383        382        400        401        384        383        401        402        385        384        402        403        386        385        403        404        387        386        404        405        388        387        405        406        389        388        406        407        390        389        408        409        392        391        409        410        393        392        410        411        394        393        411        412        395        394        412        413        396        395        413        414        397        396        414        415        398        397        415        416        399        398        416        417        400        399        417        418        401        400        418        419        402        401        419        420        403        402        420        421        404        403        421        422        405        404        422        423        406        405        423        424        407        406        425        426        409        408        426        427        410        409        427        428        411        410        428        429        412        411        429        430        413        412        430        431        414        413        431        432        415        414        432        433        416        415        433        434        417        416        434        435        418        417        435        436        419        418        436        437        420        419        437        438        421        420        438        439        422        421        439        440        423        422        440        441        424        423        442        443        426        425        443        444        427        426        444        445        428        427        445        446        429        428        446        447        430        429        447        448        431        430        448        449        432        431        449        450        433        432        450        451        434        433        451        452        435        434        452        453        436        435        453        454        437        436        454        455        438        437        455        456        439        438        456        457        440        439        457        458        441        440        459        460        443        442        460        461        444        443        461        462        445        444        462        463        446        445        463        464        447        446        464        465        448        447        465        466        449        448        466        467        450        449        467        468        451        450        468        469        452        451        469        470        453        452        470        471        454        453        471        472        455        454        472        473        456        455        473        474        457        456        474        475        458        457        476        477        460        459        477        478        461        460        478        479        462        461        479        480        463        462        480        481        464        463        481        482        465        464        482        483        466        465        483        484        467        466        484        485        468        467        485        486        469        468        486        487        470        469        487        488        471        470        488        489        472        471        489        490        473        472        490        491        474        473        491        492        475        474        493        494        477        476        494        495        478        477        495        496        479        478        496        497        480        479        497        498        481        480        498        499        482        481        499        500        483        482        500        501        484        483        501        502        485        484        502        503        486        485        503        504        487        486        504        505        488        487        505        506        489        488        506        507        490        489        507        508        491        490        508        509        492        491        510        511        494        493        511        512        495        494        512        513        496        495        513        514        497        496        514        515        498        497        515        516        499        498        516        517        500        499        517        518        501        500        518        519        502        501        519        520        503        502        520        521        504        503        521        522        505        504        522        523        506        505        523        524        507        506        524        525        508        507        525        526        509        508        527        528        511        510        528        529        512        511        529        530        513        512        530        531        514        513        531        532        515        514        532        533        516        515        533        534        517        516        534        535        518        517        535        536        519        518        536        537        520        519        537        538        521        520        538        539        522        521        539        540        523        522        540        541        524        523        541        542        525        524        542        543        526        525        544        545        528        527        545        546        529        528        546        547        530        529        547        548        531        530        548        549        532        531        549        550        533        532        550        551        534        533        551        552        535        534        552        553        536        535        553        554        537        536        554        555        538        537        555        556        539        538        556        557        540        539        557        558        541        540        558        559        542        541        559        560        543        542        561        562        545        544        562        563        546        545        563        564        547        546        564        565        548        547        565        566        549        548        566        567        550        549        567        568        551        550        568        569        552        551        569        570        553        552        570        571        554        553        571        572        555        554        572        573        556        555        573        574        557        556        574        575        558        557        575        576        559        558        576        577        560        559        578        579        596        595        579        580        597        596        580        581        598        597        581        582        599        598        582        583        600        599        583        584        601        600        584        585        602        601        585        586        603        602        586        587        604        603        587        588        605        604        588        589        606        605        589        590        607        606        590        591        608        607        591        592        609        608        592        593        610        609        593        594        611        610        595        596        613        612        596        597        614        613        597        598        615        614        598        599        616        615        599        600        617        616        600        601        618        617        601        602        619        618        602        603        620        619        603        604        621        620        604        605        622        621        605        606        623        622        606        607        624        623        607        608        625        624        608        609        626        625        609        610        627        626        610        611        628        627        612        613        630        629        613        614        631        630        614        615        632        631        615        616        633        632        616        617        634        633        617        618        635        634        618        619        636        635        619        620        637        636        620        621        638        637        621        622        639        638        622        623        640        639        623        624        641        640        624        625        642        641        625        626        643        642        626        627        644        643        627        628        645        644        629        630        647        646        630        631        648        647        631        632        649        648        632        633        650        649        633        634        651        650        634        635        652        651        635        636        653        652        636        637        654        653        637        638        655        654        638        639        656        655        639        640        657        656        640        641        658        657        641        642        659        658        642        643        660        659        643        644        661        660        644        645        662        661        646        647        664        663        647        648        665        664        648        649        666        665        649        650        667        666        650        651        668        667        651        652        669        668        652        653        670        669        653        654        671        670        654        655        672        671        655        656        673        672        656        657        674        673        657        658        675        674        658        659        676        675        659        660        677        676        660        661        678        677        661        662        679        678        663        664        681        680        664        665        682        681        665        666        683        682        666        667        684        683        667        668        685        684        668        669        686        685        669        670        687        686        670        671        688        687        671        672        689        688        672        673        690        689        673        674        691        690        674        675        692        691        675        676        693        692        676        677        694        693        677        678        695        694        678        679        696        695        680        681        698        697        681        682        699        698        682        683        700        699        683        684        701        700        684        685        702        701        685        686        703        702        686        687        704        703        687        688        705        704        688        689        706        705        689        690        707        706        690        691        708        707        691        692        709        708        692        693        710        709        693        694        711        710        694        695        712        711        695        696        713        712        697        698        715        714        698        699        716        715        699        700        717        716        700        701        718        717        701        702        719        718        702        703        720        719        703        704        721        720        704        705        722        721        705        706        723        722        706        707        724        723        707        708        725        724        708        709        726        725        709        710        727        726        710        711        728        727        711        712        729        728        712        713        730        729        714        715        732        731        715        716        733        732        716        717        734        733        717        718        735        734        718        719        736        735        719        720        737        736        720        721        738        737        721        722        739        738        722        723        740        739        723        724        741        740        724        725        742        741        725        726        743        742        726        727        744        743        727        728        745        744        728        729        746        745        729        730        747        746        731        732        749        748        732        733        750        749        733        734        751        750        734        735        752        751        735        736        753        752        736        737        754        753        737        738        755        754        738        739        756        755        739        740        757        756        740        741        758        757        741        742        759        758        742        743        760        759        743        744        761        760        744        745        762        761        745        746        763        762        746        747        764        763        748        749        766        765        749        750        767        766        750        751        768        767        751        752        769        768        752        753        770        769        753        754        771        770        754        755        772        771        755        756        773        772        756        757        774        773        757        758        775        774        758        759        776        775        759        760        777        776        760        761        778        777        761        762        779        778        762        763        780        779        763        764        781        780        765        766        783        782        766        767        784        783        767        768        785        784        768        769        786        785        769        770        787        786        770        771        788        787        771        772        789        788        772        773        790        789        773        774        791        790        774        775        792        791        775        776        793        792        776        777        794        793        777        778        795        794        778        779        796        795        779        780        797        796        780        781        798        797        782        783        800        799        783        784        801        800        784        785        802        801        785        786        803        802        786        787        804        803        787        788        805        804        788        789        806        805        789        790        807        806        790        791        808        807        791        792        809        808        792        793        810        809        793        794        811        810        794        795        812        811        795        796        813        812        796        797        814        813        797        798        815        814        799        800        817        816        800        801        818        817        801        802        819        818        802        803        820        819        803        804        821        820        804        805        822        821        805        806        823        822        806        807        824        823        807        808        825        824        808        809        826        825        809        810        827        826        810        811        828        827        811        812        829        828        812        813        830        829        813        814        831        830        814        815        832        831        816        817        834        833        817        818        835        834        818        819        836        835        819        820        837        836        820        821        838        837        821        822        839        838        822        823        840        839        823        824        841        840        824        825        842        841        825        826        843        842        826        827        844        843        827        828        845        844        828        829        846        845        829        830        847        846        830        831        848        847        831        832        849        848        833        834        562        561        834        835        563        562        835        836        564        563        836        837        565        564        837        838        566        565        838        839        567        566        839        840        568        567        840        841        569        568        841        842        570        569        842        843        571        570        843        844        572        571        844        845        573        572        845        846        574        573        846        847        575        574        847        848        576        575        848        849        577        576        884        885        579        578        885        886        580        579        886        887        581        580        887        888        582        581        888        889        583        582        889        890        584        583        890        891        585        584        891        892        586        585        892        893        587        586        893        894        588        587        894        895        589        588        895        896        590        589        896        897        591        590        897        898        592        591        898        899        593        592        899        900        594        593        901        902        885        884        902        903        886        885        903        904        887        886        904        905        888        887        905        906        889        888        906        907        890        889        907        908        891        890        908        909        892        891        909        910        893        892        910        911        894        893        911        912        895        894        912        913        896        895        913        914        897        896        914        915        898        897        915        916        899        898        916        917        900        899        918        919        902        901        919        920        903        902        920        921        904        903        921        922        905        904        922        923        906        905        923        924        907        906        924        925        908        907        925        926        909        908        926        927        910        909        927        928        911        910        928        929        912        911        929        930        913        912        930        931        914        913        931        932        915        914        932        933        916        915        933        934        917        916        935        936        919        918        936        937        920        919        937        938        921        920        938        939        922        921        939        940        923        922        940        941        924        923        941        942        925        924        942        943        926        925        943        944        927        926        944        945        928        927        945        946        929        928        946        947        930        929        947        948        931        930        948        949        932        931        949        950        933        932        950        951        934        933        952        953        936        935        953        954        937        936        954        955        938        937        955        956        939        938        956        957        940        939        957        958        941        940        958        959        942        941        959        960        943        942        960        961        944        943        961        962        945        944        962        963        946        945        963        964        947        946        964        965        948        947        965        966        949        948        966        967        950        949        967        968        951        950        969        970        953        952        970        971        954        953        971        972        955        954        972        973        956        955        973        974        957        956        974        975        958        957        975        976        959        958        976        977        960        959        977        978        961        960        978        979        962        961        979        980        963        962        980        981        964        963        981        982        965        964        982        983        966        965        983        984        967        966        984        985        968        967        986        987        970        969        987        988        971        970        988        989        972        971        989        990        973        972        990        991        974        973        991        992        975        974        992        993        976        975        993        994        977        976        994        995        978        977        995        996        979        978        996        997        980        979        997        998        981        980        998        999        982        981        999       1000        983        982       1000       1001        984        983       1001       1002        985        984       1003       1004        987        986       1004       1005        988        987       1005       1006        989        988       1006       1007        990        989       1007       1008        991        990       1008       1009        992        991       1009       1010        993        992       1010       1011        994        993       1011       1012        995        994       1012       1013        996        995       1013       1014        997        996       1014       1015        998        997       1015       1016        999        998       1016       1017       1000        999       1017       1018       1001       1000       1018       1019       1002       1001       1020       1021       1004       1003       1021       1022       1005       1004       1022       1023       1006       1005       1023       1024       1007       1006       1024       1025       1008       1007       1025       1026       1009       1008       1026       1027       1010       1009       1027       1028       1011       1010       1028       1029       1012       1011       1029       1030       1013       1012       1030       1031       1014       1013       1031       1032       1015       1014       1032       1033       1016       1015       1033       1034       1017       1016       1034       1035       1018       1017       1035       1036       1019       1018       1037       1038       1021       1020       1038       1039       1022       1021       1039       1040       1023       1022       1040       1041       1024       1023       1041       1042       1025       1024       1042       1043       1026       1025       1043       1044       1027       1026       1044       1045       1028       1027       1045       1046       1029       1028       1046       1047       1030       1029       1047       1048       1031       1030       1048       1049       1032       1031       1049       1050       1033       1032       1050       1051       1034       1033       1051       1052       1035       1034       1052       1053       1036       1035       1054       1055       1038       1037       1055       1056       1039       1038       1056       1057       1040       1039       1057       1058       1041       1040       1058       1059       1042       1041       1059       1060       1043       1042       1060       1061       1044       1043       1061       1062       1045       1044       1062       1063       1046       1045       1063       1064       1047       1046       1064       1065       1048       1047       1065       1066       1049       1048       1066       1067       1050       1049       1067       1068       1051       1050       1068       1069       1052       1051       1069       1070       1053       1052       1071       1072       1055       1054       1072       1073       1056       1055       1073       1074       1057       1056       1074       1075       1058       1057       1075       1076       1059       1058       1076       1077       1060       1059       1077       1078       1061       1060       1078       1079       1062       1061       1079       1080       1063       1062       1080       1081       1064       1063       1081       1082       1065       1064       1082       1083       1066       1065       1083       1084       1067       1066       1084       1085       1068       1067       1085       1086       1069       1068       1086       1087       1070       1069       1088       1089       1072       1071       1089       1090       1073       1072       1090       1091       1074       1073       1091       1092       1075       1074       1092       1093       1076       1075       1093       1094       1077       1076       1094       1095       1078       1077       1095       1096       1079       1078       1096       1097       1080       1079       1097       1098       1081       1080       1098       1099       1082       1081       1099       1100       1083       1082       1100       1101       1084       1083       1101       1102       1085       1084       1102       1103       1086       1085       1103       1104       1087       1086       1105       1106       1089       1088       1106       1107       1090       1089       1107       1108       1091       1090       1108       1109       1092       1091       1109       1110       1093       1092       1110       1111       1094       1093       1111       1112       1095       1094       1112       1113       1096       1095       1113       1114       1097       1096       1114       1115       1098       1097       1115       1116       1099       1098       1116       1117       1100       1099       1117       1118       1101       1100       1118       1119       1102       1101       1119       1120       1103       1102       1120       1121       1104       1103       1122       1123       1106       1105       1123       1124       1107       1106       1124       1125       1108       1107       1125       1126       1109       1108       1126       1127       1110       1109       1127       1128       1111       1110       1128       1129       1112       1111       1129       1130       1113       1112       1130       1131       1114       1113       1131       1132       1115       1114       1132       1133       1116       1115       1133       1134       1117       1116       1134       1135       1118       1117       1135       1136       1119       1118       1136       1137       1120       1119       1137       1138       1121       1120        272        273       1123       1122        273        274       1124       1123        274        275       1125       1124        275        276       1126       1125        276        277       1127       1126        277        278       1128       1127        278        279       1129       1128        279        280       1130       1129        280        281       1131       1130        281        282       1132       1131        282        283       1133       1132        283        284       1134       1133        284        285       1135       1134        285        286       1136       1135        286        287       1137       1136        287        288       1138       1137 </DataArray>
<DataArray type="Int32"                                    Name="offsets"                                                      NumberOfComponents=" 1" format="ascii">
         4          8         12         16         20         24         28         32         36         40         44         48         52         56         60         64         68         72         76         80         84         88         92         96        100        104        108        112        116        120        124        128        132        136        140        144        148        152        156        160        164        168        172        176        180        184        188        192        196        200        204        208        212        216        220        224        228        232        236        240        244        248        252        256        260        264        268        272        276        280        284        288        292        296        300        304        308        312        316        320        324        328        332        336        340        344        348        352        356        360        364        368        372        376        380        384        388        392        396        400        404        408        412        416        420        424        428        432        436        440        444        448        452        456        460        464        468        472        476        480        484        488        492        496        500        504        508        512        516        520        524        528        532        536        540        544        548        552        556        560        564        568        572        576        580        584        588        592        596        600        604        608        612        616        620        624        628        632        636        640        644        648        652        656        660        664        668        672        676        680        684        688        692        696        700        704        708        712        716        720        724        728        732        736        740        744        748        752        756        760        764        768        772        776        780        784        788        792        796        800        804        808        812        816        820        824        828        832        836        840        844        848        852        856        860        864        868        872        876        880        884        888        892        896        900        904        908        912        916        920        924        928        932        936        940        944        948        952        956        960        964        968        972        976        980        984        988        992        996       1000       1004       1008       1012       1016       1020       1024       1028       1032       1036       1040       1044       1048       1052       1056       1060       1064       1068       1072       1076       1080       1084       1088       1092       1096       1100       1104       1108       1112       1116       1120       1124       1128       1132       1136       1140       1144       1148       1152       1156       1160       1164       1168       1172       1176       1180       1184       1188       1192       1196       1200       1204       1208       1212       1216       1220       1224       1228       1232       1236       1240       1244       1248       1252       1256       1260       1264       1268       1272       1276       1280       1284       1288       1292       1296       1300       1304       1308       1312       1316       1320       1324       1328       1332       1336       1340       1344       1348       1352       1356       1360       1364       1368       1372       1376       1380       1384       1388       1392       1396       1400       1404       1408       1412       1416       1420       1424       1428       1432       1436       1440       1444       1448       1452       1456       1460       1464       1468       1472       1476       1480       1484       1488       1492       1496       1500       1504       1508       1512       1516       1520       1524       1528       1532       1536       1540       1544       1548       1552       1556       1560       1564       1568       1572       1576       1580       1584       1588       1592       1596       1600       1604       1608       1612       1616       1620       1624       1628       1632       1636       1640       1644       1648       1652       1656       1660       1664       1668       1672       1676       1680       1684       1688       1692       1696       1700       1704       1708       1712       1716       1720       1724       1728       1732       1736       1740       1744       1748       1752       1756       1760       1764       1768       1772       1776       1780       1784       1788       1792       1796       1800       1804       1808       1812       1816       1820       1824       1828       1832       1836       1840       1844       1848       1852       1856       1860       1864       1868       1872       1876       1880       1884       1888       1892       1896       1900       1904       1908       1912       1916       1920       1924       1928       1932       1936       1940       1944       1948       1952       1956       1960       1964       1968       1972       1976       1980       1984       1988       1992       1996       2000       2004       2008       2012       2016       2020       2024       2028       2032       2036       2040       2044       2048       2052       2056       2060       2064       2068       2072       2076       2080       2084       2088       2092       2096       2100       2104       2108       2112       2116       2120       2124       2128       2132       2136       2140       2144       2148       2152       2156       2160       2164       2168       2172       2176       2180       2184       2188       2192       2196       2200       2204       2208       2212       2216       2220       2224       2228       2232       2236       2240       2244       2248       2252       2256       2260       2264       2268       2272       2276       2280       2284       2288       2292       2296       2300       2304       2308       2312       2316       2320       2324       2328       2332       2336       2340       2344       2348       2352       2356       2360       2364       2368       2372       2376       2380       2384       2388       2392       2396       2400       2404       2408       2412       2416       2420       2424       2428       2432       2436       2440       2444       2448       2452       2456       2460       2464       2468       2472       2476       2480       2484       2488       2492       2496       2500       2504       2508       2512       2516       2520       2524       2528       2532       2536       2540       2544       2548       2552       2556       2560       2564       2568       2572       2576       2580       2584       2588       2592       2596       2600       2604       2608       2612       2616       2620       2624       2628       2632       2636       2640       2644       2648       2652       2656       2660       2664       2668       2672       2676       2680       2684       2688       2692       2696       2700       2704       2708       2712       2716       2720       2724       2728       2732       2736       2740       2744       2748       2752       2756       2760       2764       2768       2772       2776       2780       2784       2788       2792       2796       2800       2804       2808       2812       2816       2820       2824       2828       2832       2836       2840       2844       2848       2852       2856       2860       2864       2868       2872       2876       2880       2884       2888       2892       2896       2900       2904       2908       2912       2916       2920       2924       2928       2932       2936       2940       2944       2948       2952       2956       2960       2964       2968       2972       2976       2980       2984       2988       2992       2996       3000       3004       3008       3012       3016       3020       3024       3028       3032       3036       3040       3044       3048       3052       3056       3060       3064       3068       3072       3076       3080       3084       3088       3092       3096       3100       3104       3108       3112       3116       3120       3124       3128       3132       3136       3140       3144       3148       3152       3156       3160       3164       3168       3172       3176       3180       3184       3188       3192       3196       3200       3204       3208       3212       3216       3220       3224       3228       3232       3236       3240       3244       3248       3252       3256       3260       3264       3268       3272       3276       3280       3284       3288       3292       3296       3300       3304       3308       3312       3316       3320       3324       3328       3332       3336       3340       3344       3348       3352       3356       3360       3364       3368       3372       3376       3380       3384       3388       3392       3396       3400       3404       3408       3412       3416       3420       3424       3428       3432       3436       3440       3444       3448       3452       3456       3460       3464       3468       3472       3476       3480       3484       3488       3492       3496       3500       3504       3508       3512       3516       3520       3524       3528       3532       3536       3540       3544       3548       3552       3556       3560       3564       3568       3572       3576       3580       3584       3588       3592       3596       3600       3604       3608       3612       3616       3620       3624       3628       3632       3636       3640       3644       3648       3652       3656       3660       3664       3668       3672       3676       3680       3684       3688       3692       3696       3700       3704       3708       3712       3716       3720       3724       3728       3732       3736       3740       3744       3748       3752       3756       3760       3764       3768       3772       3776       3780       3784       3788       3792       3796       3800       3804       3808       3812       3816       3820       3824       3828       3832       3836       3840       3844       3848       3852       3856       3860       3864       3868       3872       3876       3880       3884       3888       3892       3896       3900       3904       3908       3912       3916       3920       3924       3928       3932       3936       3940       3944       3948       3952       3956       3960       3964       3968       3972       3976       3980       3984       3988       3992       3996       4000       4004       4008       4012       4016       4020       4024       4028       4032       4036       4040       4044       4048       4052       4056       4060       4064       4068       4072       4076       4080       4084       4088       4092       4096 </DataArray>
<DataArray type="UInt8"                                    Name="types"                                                      NumberOfComponents=" 1" format="ascii">
         9          9          9          9          9          9          9          9          9          9          9          9          9          9          9          9          9          9          9          9          9          9          9          9          9          9          9          9          9          9          9          9          9          9          9          9          9          9          9          9          9          9          9          9          9          9          9          9          9          9          9          9          9          9          9          9          9          9          9          9          9          9          9          9          9          9          9          9          9          9          9          9          9          9          9          9          9          9          9          9          9          9          9          9          9          9          9          9          9          9          9          9          9          9          9          9          9          9          9          9          9          9          9          9          9          9          9          9          9          9          9          9          9          9          9          9          9          9          9          9          9          9          9          9          9          9          9          9          9          9          9          9          9          9          9          9          9          9          9          9          9          9          9          9          9          9          9          9          9          9          9          9          9          9          9          9          9          9          9          9          9          9          9          9          9          9          9          9          9          9          9          9          9          9          9          9          9          9          9          9          9          9          9          9          9          9          9          9          9          9          9          9          9          9          9          9          9          9          9          9          9          9          9          9          9          9          9          9          9          9          9          9          9          9          9          9          9          9          9          9          9          9          9          9          9          9          9          9          9          9          9          9          9          9          9          9          9          9          9          9          9          9          9          9          9          9          9          9          9          9          9          9          9          9          9          9          9          9          9          9          9          9          9          9          9          9          9          9          9          9          9          9          9          9          9          9          9          9          9          9          9          9          9          9          9          9          9          9          9          9          9          9          9          9          9          9          9          9          9          9          9          9          9          9          9          9          9          9          9          9          9          9          9          9          9          9          9          9          9          9          9          9          9          9          9          9          9          9          9          9          9          9          9          9          9          9          9          9          9          9          9          9          9          9          9          9          9          9          9          9          9          9          9          9          9          9          9          9          9          9          9          9          9          9          9          9          9          9          9          9          9          9          9          9          9          9          9          9          9          9          9          9          9          9          9          9          9          9          9          9          9          9          9          9          9          9          9          9          9          9          9          9          9          9          9          9          9          9          9          9          9          9          9          9          9          9          9          9          9          9          9          9          9          9          9          9          9          9          9          9          9          9          9          9          9          9          9          9          9          9          9          9          9          9          9          9          9          9          9          9          9          9          9          9          9          9          9          9          9          9          9          9          9          9          9          9          9          9          9          9          9          9          9          9          9          9          9          9          9          9          9          9          9          9          9          9          9          9          9          9          9          9          9          9          9          9          9          9          9          9          9          9          9          9          9          9          9          9          9          9          9          9          9          9          9          9          9          9          9          9          9          9          9          9          9          9          9          9          9          9          9          9          9          9          9          9          9          9          9          9          9          9          9          9          9          9          9          9          9          9          9          9          9          9          9          9          9          9          9          9          9          9          9          9          9          9          9          9          9          9          9          9          9          9          9          9          9          9          9          9          9          9          9          9          9          9          9          9          9          9          9          9          9          9          9          9          9          9          9          9          9          9          9          9          9          9          9          9          9          9          9          9          9          9          9          9          9          9          9          9          9          9          9          9          9          9          9          9          9          9          9          9          9          9          9          9          9          9          9          9          9          9          9          9          9          9          9          9          9          9          9          9          9          9          9          9          9          9          9          9          9          9          9          9          9          9          9          9          9          9          9          9          9          9          9          9          9          9          9          9          9          9          9          9          9          9          9          9          9          9          9          9          9          9          9          9          9          9          9          9          9          9          9          9          9          9          9          9          9          9          9          9          9          9          9          9          9          9          9          9          9          9          9          9          9          9          9          9          9          9          9          9          9          9          9          9          9          9          9          9          9          9          9          9          9          9          9          9          9          9          9          9          9          9          9          9          9          9          9          9          9          9          9          9          9          9          9          9          9          9          9          9          9          9          9          9          9          9          9          9          9          9          9          9          9          9          9          9          9          9          9          9          9          9          9          9          9          9          9          9          9          9          9          9          9          9          9          9          9          9          9          9          9          9          9          9          9          9          9          9          9          9          9          9          9          9          9          9          9          9          9          9          9          9          9          9          9          9          9          9          9          9          9          9          9          9          9          9          9          9          9          9          9          9          9          9          9          9          9          9          9          9          9          9          9          9          9          9          9          9          9          9          9          9          9          9          9          9          9          9          9          9          9          9          9          9          9          9          9          9          9          9          9          9          9          9          9          9          9          9          9          9          9          9          9          9          9          9          9          9          9          9          9          9          9          9          9          9          9          9          9          9          9          9          9          9          9          9          9          9          9          9          9          9          9          9          9          9          9          9          9          9          9          9          9          9          9          9          9          9          9          9          9          9          9          9          9          9          9          9          9          9          9          9          9          9          9          9          9          9          9          9          9          9          9          9          9          9          9          9          9          9          9          9          9          9          9          9          9          9          9          9          9          9          9          9          9          9          9          9          9          9          9          9          9          9          9          9          9          9          9          9          9          9          9          9          9          9          9          9          9          9          9          9 </DataArray>
</Cells>
<CellData>
<DataArray type="Int32"                                    Name="material"                                                      NumberOfComponents=" 1" format="ascii">
         1          1          1          1          1          1          1          1          1          1          1          1          1          1          1          1          1          1          1          1          1          1          1          1          1          1          1          1          1          1          1          1          1          1          1          1          1          1          1          1          1          1          1          1          1          1          1          1          1          1          1          1          1          1          1          1          1          1          1          1          1          1          1          1          1          1          1          1          1          1          1          1          1          1          1          1          1          1          1          1          1          1          1          1          1          1          1          1          1          1          1          1          1          1          1          1          1          1          1          1          1          1          1          1          1          1          1          1          1          1          1          1          1          1          1          1          1          1          1          1          1          1          1          1          1          1          1          1          1          1          1          1          1          1          1          1          1          1          1          1          1          1          1          1          1          1          1          1          1          1          1          1          1          1          1          1          1          1          1          1          1          1          1          1          1          1          1          1          1          1          1          1          1          1          1          1          1          1          1          1          1          1          1          1          1          1          1          1          1          1          1          1          1          1          1          1          1          1          1          1          1          1          1          1          1          1          1          1          1          1          1          1          1          1          1          1          1          1          1          1          1          1          1          1          1          1          1          1          1          1          1          1          1          1          1          1          1          1          1          1          1          1          1          1          1          1          1          1          1          1          1          1          1          1          1          1          1          1          1          1          1          1          1          1          1          1          1          1          1          1          1          1          1          1          1          1          1          1          1          1          1          1          1          1          1          1          1          1          1          1          1          1          1          1          1          1          1          1          1          1          1          1          1          1          1          1          1          1          1          1          1          1          1          1          1          1          1          1          1          1          1          1          1          1          1          1          1          1          1          1          1          1          1          1          1          1          1          1          1          1          1          1          1          1          1          1          1          1          1          1          1          1          1          1          1          1          1          1          1          1          1          1          1          1          1          1          1          1          1          1          1          1          1          1          1          1          1          1          1          1          1          1          1          1          1          1          1          1          1          1          1          1          1          1          1          1          1          1          1          1          1          1          1          1          1          1          1          1          1          1          1          1          1          1          1          1          1          1          1          1          1          1          1          1          1          1          1          1          1          1          1          1          1          1          1          1          1          1          1          1          1          1          1          1          1          1          1          1          1          1          1          1          1          1          1          1          1          1          1          1          1          1          1          1          1          1          1          1          1          1          1          1          1          1          1          1          1          1          1          1          1          1          1          1          1          1          1          1          1          1          1          1          1          1          1          1          1          1          1          1          1          1          1          1          1          1          1          1          1          1          1          1          1          1          1          1          1          1          1          1          1          1          1          1          1          1          1          1          1          1          1          1          1          1          1          1          1          1          1          1          1          1          1          1          1          1          1          1          1          1          1          1          1          1          1          1          1          1          1          1          1          1          1          1          1          1          1          1          1          1          1          1          1          1          1          1          1          1          1          1          1          1          1          1          1          1          1          1          1          1          1          1          1          1          1          1          1          1          1          1          1          1          1          1          1          1          1          1          1          1          1          1          1          1          1          1          1          1          1          1          1          1          1          1          1          1          1          1          1          1          1          1          1          1          1          1          1          1          1          1          1          1          1          1          1          1          1          1          1          1          1          1          1          1          1          1          1          1          1          1          1          1          1          1          1          1          1          1          1          1          1          1          1          1          1          1          1          1          1          1          1          1          1          1          1          1          1          1          1          1          1          1          1          1          1          1          1          1          1          1          1          1          1          1          1          1          1          1          1          1          1          1          1          1          1          1          1          1          1          1          1          1          1          1          1          1          1          1          1          1          1          1          1          1          1          1          1          1          1          1          1          1          1          1          1          1          1          1          1          1          1          1          1          1          1          1          1          1          1          1          1          1          1          1          1          1          1          1          1          1          1          1          1          1          1          1          1          1          1          1          1          1          1          1          1          1          1          1          1          1          1          1          1          1          1          1          1          1          1          1          1          1          1          1          1          1          1          1          1          1          1          1          1          1          1          1          1          1          1          1          1          1          1          1          1          1          1          1          1          1          1          1          1          1          1          1          1          1          1          1          1          1          1          1          1          1          1          1          1          1          1          1          1          1          1          1          1          1          1          1          1          1          1          1          1          1          1          1          1          1          1          1          1          1          1          1          1          1          1          1          1          1          1          1          1          1          1          1          1          1          1          1          1          1          1          1          1          1          1          1          1          1          1          1          1          1          1          1          1          1          1          1          1          1          1          1          1          1          1          1          1          1          1          1          1          1          1          1          1          1          1          1          1          1          1          1          1          1          1          1          1          1          1          1          1          1          1          1          1          1          1          1          1          1          1          1          1          1          1          1          1          1          1          1          1          1          1          1          1          1          1          1          1          1          1          1          1          1          1          1          1          1          1          1          1          1          1          1          1          1          1          1          1          1          1          1          1          1          1          1          1          1          1          1          1          1          1          1          1          1          1          1          1          1          1          1          1          1          1          1          1          1          1          1 </DataArray>
</CellData>
<PointData>
<DataArray type="Float64"                                    Name="u"                                                      NumberOfComponents=" 3" format="ascii">
             -0.000494997               0.000000000               0.999999984              -0.000538668               0.000000000               0.999999984              -0.000558600               0.000000000               0.999999984              -0.000570236               0.000000000               0.999999984              -0.000579480               0.000000000               0.999999984              -0.000588659               0.000000000               0.999999984              -0.000598695               0.000000000               0.999999984              -0.000609813               0.000000000               0.999999984              -0.000621985               0.000000000               0.999999984              -0.000635090               0.000000000               0.999999984              -0.000648979               0.000000000               0.999999984              -0.000663485              -0.000000000               0.999999984              -0.000678344               0.000000000               0.999999984              -0.000693383               0.000000000               0.999999984              -0.000708202              -0.000000000               0.999999984              -0.000722391               0.000000000               0.999999984              -0.000735556               0.000000000               0.999999984              -0.000492216               0.000111400               0.999999984              -0.000532952               0.000092508               0.999999984              -0.000551015               0.000084968               0.999999984              -0.000561505               0.000083104               0.999999984              -0.000570062               0.000084415               0.999999984              -0.000578799               0.000087353               0.999999984              -0.000588462               0.000091147               0.999999984              -0.000599192               0.000095380               0.999999984              -0.000610939               0.000099636               0.999999984              -0.000623549               0.000103692               0.999999984              -0.000636781               0.000107180               0.999999984              -0.000650373               0.000110003               0.999999984              -0.000664186               0.000111952               0.999999984              -0.000678050               0.000112641               0.999999984              -0.000691584               0.000111595               0.999999984              -0.000704479               0.000108324               0.999999984              -0.000716416               0.000101932               0.999999984              -0.000483817               0.000221658               0.999999984              -0.000515956               0.000184378               0.999999984              -0.000528908               0.000170206               0.999999984              -0.000536428               0.000167320               0.999999984              -0.000543228               0.000170428               0.999999984              -0.000550812               0.000176731               0.999999984              -0.000559512               0.000184567               0.999999984              -0.000569359               0.000193109               0.999999984              -0.000580054               0.000201649               0.999999984              -0.000591209               0.000209610               0.999999984              -0.000602642               0.000216462               0.999999984              -0.000614110               0.000222067               0.999999984              -0.000625468               0.000226237               0.999999984              -0.000636480               0.000228236               0.999999984              -0.000646919               0.000227221               0.999999984              -0.000656605               0.000222529               0.999999984              -0.000665399               0.000213270               0.999999984              -0.000470060               0.000329620               0.999999984              -0.000488663               0.000275046               0.999999984              -0.000494203               0.000255933               0.999999984              -0.000497808               0.000253366               0.999999984              -0.000502469               0.000259184               0.999999984              -0.000508724               0.000269284               0.999999984              -0.000516398               0.000281442               0.999999984              -0.000525058               0.000294379               0.999999984              -0.000534145               0.000307098               0.999999984              -0.000543388               0.000318891               0.999999984              -0.000552546               0.000329262               0.999999984              -0.000561344               0.000337913               0.999999984              -0.000569417               0.000344392               0.999999984              -0.000576614               0.000348158               0.999999984              -0.000582866               0.000348683               0.999999984              -0.000588312               0.000345456               0.999999984              -0.000593300               0.000338121               0.999999984              -0.000451217               0.000434191               0.999999984              -0.000452504               0.000364144               0.999999984              -0.000449856               0.000342112               0.999999984              -0.000449743               0.000341327               0.999999984              -0.000452748               0.000350716               0.999999984              -0.000458164               0.000365077               0.999999984              -0.000464993               0.000381646               0.999999984              -0.000472456               0.000398893               0.999999984              -0.000480032               0.000415633               0.999999984              -0.000487280               0.000431129               0.999999984              -0.000493799               0.000444838               0.999999984              -0.000499260               0.000456488               0.999999984              -0.000503632               0.000465765               0.999999984              -0.000506887               0.000472318               0.999999984              -0.000509177               0.000476170               0.999999984              -0.000510930               0.000477368               0.999999984              -0.000512510               0.000475951               0.999999984              -0.000427694               0.000534244               0.999999984              -0.000409470               0.000451480               0.999999984              -0.000399461               0.000428501               0.999999984              -0.000396811               0.000430641               0.999999984              -0.000399100               0.000444198               0.999999984              -0.000404244               0.000463029               0.999999984              -0.000410635               0.000483925               0.999999984              -0.000417250               0.000505200               0.999999984              -0.000423347               0.000525772               0.999999984              -0.000428421               0.000544787               0.999999984              -0.000432305               0.000561723               0.999999984              -0.000434765               0.000576483               0.999999984              -0.000435849               0.000588957               0.999999984              -0.000435740               0.000599068               0.999999984              -0.000434706               0.000607293               0.999999984              -0.000433028               0.000613844               0.999999984              -0.000430872               0.000618698               0.999999984              -0.000400044               0.000628756               0.999999984              -0.000362045               0.000536827               0.999999984              -0.000346534               0.000514622               0.999999984              -0.000343106               0.000520280               0.999999984              -0.000345849               0.000538074               0.999999984              -0.000351304               0.000561238               0.999999984              -0.000357550               0.000586414               0.999999984              -0.000363328               0.000611715               0.999999984              -0.000367988               0.000635911               0.999999984              -0.000371136               0.000658212               0.999999984              -0.000372380               0.000678331               0.999999984              -0.000371673               0.000696201               0.999999984              -0.000369335               0.000711821               0.999999984              -0.000365564               0.000725620               0.999999984              -0.000360633               0.000738084               0.999999984              -0.000354590               0.000749094               0.999999984              -0.000347261               0.000758058               0.999999984              -0.000368883               0.000716808               0.999999984              -0.000312593               0.000619967               0.999999984              -0.000294175               0.000599674               0.999999984              -0.000291911               0.000608808               0.999999984              -0.000295992               0.000630594               0.999999984              -0.000302258               0.000657956               0.999999984              -0.000308511               0.000687238               0.999999984              -0.000313510               0.000716321               0.999999984              -0.000316568               0.000744154               0.999999984              -0.000317081               0.000769810               0.999999984              -0.000314989               0.000792726               0.999999984              -0.000310523               0.000813149               0.999999984              -0.000303920               0.000831593               0.999999984              -0.000295545               0.000848506               0.999999984              -0.000285487               0.000864215               0.999999984              -0.000273716               0.000878354               0.999999984              -0.000260356               0.000890183               0.999999984              -0.000335417               0.000796846               0.999999984              -0.000262781               0.000700857               0.999999984              -0.000245136               0.000682571               0.999999984              -0.000245267               0.000694782               0.999999984              -0.000251288               0.000720280               0.999999984              -0.000258581               0.000751599               0.999999984              -0.000264811               0.000784788               0.999999984              -0.000268608               0.000817745               0.999999984              -0.000269237               0.000848917               0.999999984              -0.000266326               0.000876992               0.999999984              -0.000259880               0.000902139               0.999999984              -0.000250325               0.000924811               0.999999984              -0.000238240               0.000945729               0.999999984              -0.000224130               0.000965299               0.999999984              -0.000208283               0.000983335               0.999999984              -0.000191081               0.000999665               0.999999984              -0.000173007               0.001014269               0.999999984              -0.000301287               0.000871961               0.999999984              -0.000221900               0.000788808               0.999999984              -0.000201194               0.000765721               0.999999984              -0.000199968               0.000772007               0.999999984              -0.000205263               0.000792708               0.999999984              -0.000212319               0.000820669               0.999999984              -0.000218738               0.000852069               0.999999984              -0.000223126               0.000884649               0.999999984              -0.000224848               0.000916451               0.999999984              -0.000223100               0.000946420               0.999999984              -0.000217689               0.000973693               0.999999984              -0.000208637               0.000998357               0.999999984              -0.000196424               0.001021049               0.999999984              -0.000181846               0.001042266               0.999999984              -0.000165450               0.001062476               0.999999984              -0.000148050               0.001081413               0.999999984              -0.000130254               0.001099094               0.999999984              -0.000263812               0.000939915               0.999999984              -0.000183773               0.000873258               0.999999984              -0.000160105               0.000850395               0.999999984              -0.000156819               0.000852658               0.999999984              -0.000160833               0.000869375               0.999999984              -0.000167146               0.000894285               0.999999984              -0.000173276               0.000923786               0.999999984              -0.000177851               0.000955731               0.999999984              -0.000180198               0.000987974               0.999999984              -0.000179576               0.001019236               0.999999984              -0.000175347               0.001048700               0.999999984              -0.000167200               0.001075793               0.999999984              -0.000155164               0.001100611               0.999999984              -0.000140080               0.001123529               0.999999984              -0.000122554               0.001145244               0.999999984              -0.000103299               0.001166052               0.999999984              -0.000083181               0.001186290               0.999999984              -0.000223876               0.000999187               0.999999984              -0.000148315               0.000951769               0.999999984              -0.000123071               0.000932854               0.999999984              -0.000117557               0.000933868               0.999999984              -0.000119816               0.000947997               0.999999984              -0.000124783               0.000970610               0.999999984              -0.000130114               0.000998592               0.999999984              -0.000134477               0.001029800               0.999999984              -0.000137052               0.001062370               0.999999984              -0.000137130               0.001094947               0.999999984              -0.000133898               0.001126365               0.999999984              -0.000126891               0.001156241               0.999999984              -0.000115807               0.001183963               0.999999984              -0.000100786               0.001209461               0.999999984              -0.000082214               0.001233178               0.999999984              -0.000060538               0.001255829               0.999999984              -0.000036404               0.001277930               0.999999984              -0.000181775               0.001048962               0.999999984              -0.000115416               0.001021311               0.999999984              -0.000090678               0.001009014               0.999999984              -0.000083560               0.001011292               0.999999984              -0.000083933               0.001024663               0.999999984              -0.000087244               0.001046052               0.999999984              -0.000091322               0.001073187               0.999999984              -0.000094921               0.001104155               0.999999984              -0.000097403               0.001137067               0.999999984              -0.000097889               0.001170890               0.999999984              -0.000095345               0.001204505               0.999999984              -0.000089419               0.001237178               0.999999984              -0.000079846               0.001268309               0.999999984              -0.000066072               0.001297488               0.999999984              -0.000047604               0.001324614               0.999999984              -0.000024384               0.001350140               0.999999984               0.000003454               0.001374588               0.999999984              -0.000137925               0.001088392               0.999999984              -0.000084707               0.001078911               0.999999984              -0.000062963               0.001074489               0.999999984              -0.000055442               0.001079750               0.999999984              -0.000054394               0.001093947               0.999999984              -0.000056105               0.001115295               0.999999984              -0.000058774               0.001142343               0.999999984              -0.000061462               0.001173406               0.999999984              -0.000063443               0.001206986               0.999999984              -0.000063908               0.001242111               0.999999984              -0.000061982               0.001277773               0.999999984              -0.000057359               0.001313222               0.999999984              -0.000049703               0.001347759               0.999999984              -0.000038164               0.001381001               0.999999984              -0.000021855               0.001412538               0.999999984               0.000000196               0.001442237               0.999999984               0.000028580               0.001470262               0.999999984              -0.000092716               0.001116934               0.999999984              -0.000055616               0.001121993               0.999999984              -0.000039410               0.001125017               0.999999984              -0.000033065               0.001133814               0.999999984              -0.000031477               0.001149609               0.999999984              -0.000032010               0.001171675               0.999999984              -0.000033547               0.001199072               0.999999984              -0.000035295               0.001230559               0.999999984              -0.000036558               0.001264899               0.999999984              -0.000036812               0.001301224               0.999999984              -0.000035529               0.001338663               0.999999984              -0.000032428               0.001376541               0.999999984              -0.000026981               0.001414208               0.999999984              -0.000018607               0.001451202               0.999999984              -0.000006345               0.001486976               0.999999984               0.000011066               0.001521132               0.999999984               0.000034796               0.001553279               0.999999984              -0.000046566               0.001134237               0.999999984              -0.000027567               0.001148633               0.999999984              -0.000018936               0.001156951               0.999999984              -0.000015286               0.001168648               0.999999984              -0.000014144               0.001185910               0.999999984              -0.000014171               0.001208707               0.999999984              -0.000014849               0.001236586               0.999999984              -0.000015676               0.001268513               0.999999984              -0.000016265               0.001303465               0.999999984              -0.000016323               0.001340640               0.999999984              -0.000015726               0.001379274               0.999999984              -0.000014098               0.001418884               0.999999984              -0.000011300               0.001458814               0.999999984              -0.000006922               0.001498570               0.999999984              -0.000000179               0.001537525               0.999999984               0.000009440               0.001575096               0.999999984               0.000022916               0.001610528               0.999999984               0.000000000               0.001139947               0.999999984               0.000000000               0.001157597               0.999999984               0.000000000               0.001167948               0.999999984               0.000000000               0.001180736               0.999999984              -0.000000000               0.001198530               0.999999984              -0.000000000               0.001221599               0.999999984              -0.000000000               0.001249686               0.999999984               0.000000000               0.001281911               0.999999984              -0.000000000               0.001317097               0.999999984              -0.000000000               0.001354542               0.999999984               0.000000000               0.001393586               0.999999984               0.000000000               0.001433784               0.999999984               0.000000000               0.001474535               0.999999984               0.000000000               0.001515305               0.999999984              -0.000000000               0.001555414               0.999999984              -0.000000000               0.001594219               0.999999984               0.000000000               0.001630933               0.999999984              -0.000494997               0.000000000               0.999999984              -0.000538668               0.000000000               0.999999984              -0.000558600               0.000000000               0.999999984              -0.000570236               0.000000000               0.999999984              -0.000579480               0.000000000               0.999999984              -0.000588659               0.000000000               0.999999984              -0.000598695               0.000000000               0.999999984              -0.000609813               0.000000000               0.999999984              -0.000621985               0.000000000               0.999999984              -0.000635090               0.000000000               0.999999984              -0.000648979               0.000000000               0.999999984              -0.000663485              -0.000000000               0.999999984              -0.000678344               0.000000000               0.999999984              -0.000693383               0.000000000               0.999999984              -0.000708202              -0.000000000               0.999999984              -0.000722391               0.000000000               0.999999984              -0.000735556               0.000000000               0.999999984              -0.000492216              -0.000111400               0.999999984              -0.000532952              -0.000092508               0.999999984              -0.000551015              -0.000084968               0.999999984              -0.000561505              -0.000083104               0.999999984              -0.000570062              -0.000084415               0.999999984              -0.000578799              -0.000087353               0.999999984              -0.000588462              -0.000091147               0.999999984              -0.000599192              -0.000095380               0.999999984              -0.000610939              -0.000099636               0.999999984              -0.000623549              -0.000103692               0.999999984              -0.000636781              -0.000107180               0.999999984              -0.000650373              -0.000110003               0.999999984              -0.000664186              -0.000111952               0.999999984              -0.000678050              -0.000112641               0.999999984              -0.000691584              -0.000111595               0.999999984              -0.000704479              -0.000108324               0.999999984              -0.000716416              -0.000101932               0.999999984              -0.000483817              -0.000221658               0.999999984              -0.000515956              -0.000184378               0.999999984              -0.000528908              -0.000170206               0.999999984              -0.000536428              -0.000167320               0.999999984              -0.000543228              -0.000170428               0.999999984              -0.000550812              -0.000176731               0.999999984              -0.000559512              -0.000184567               0.999999984              -0.000569359              -0.000193109               0.999999984              -0.000580054              -0.000201649               0.999999984              -0.000591209              -0.000209610               0.999999984              -0.000602642              -0.000216462               0.999999984              -0.000614110              -0.000222067               0.999999984              -0.000625468              -0.000226237               0.999999984              -0.000636480              -0.000228236               0.999999984              -0.000646919              -0.000227221               0.999999984              -0.000656605              -0.000222529               0.999999984              -0.000665399              -0.000213270               0.999999984              -0.000470060              -0.000329620               0.999999984              -0.000488663              -0.000275046               0.999999984              -0.000494203              -0.000255933               0.999999984              -0.000497808              -0.000253366               0.999999984              -0.000502469              -0.000259184               0.999999984              -0.000508724              -0.000269284               0.999999984              -0.000516398              -0.000281442               0.999999984              -0.000525058              -0.000294379               0.999999984              -0.000534145              -0.000307098               0.999999984              -0.000543388              -0.000318891               0.999999984              -0.000552546              -0.000329262               0.999999984              -0.000561344              -0.000337913               0.999999984              -0.000569417              -0.000344392               0.999999984              -0.000576614              -0.000348158               0.999999984              -0.000582866              -0.000348683               0.999999984              -0.000588312              -0.000345456               0.999999984              -0.000593300              -0.000338121               0.999999984              -0.000451217              -0.000434191               0.999999984              -0.000452504              -0.000364144               0.999999984              -0.000449856              -0.000342112               0.999999984              -0.000449743              -0.000341327               0.999999984              -0.000452748              -0.000350716               0.999999984              -0.000458164              -0.000365077               0.999999984              -0.000464993              -0.000381646               0.999999984              -0.000472456              -0.000398893               0.999999984              -0.000480032              -0.000415633               0.999999984              -0.000487280              -0.000431129               0.999999984              -0.000493799              -0.000444838               0.999999984              -0.000499260              -0.000456488               0.999999984              -0.000503632              -0.000465765               0.999999984              -0.000506887              -0.000472318               0.999999984              -0.000509177              -0.000476170               0.999999984              -0.000510930              -0.000477368               0.999999984              -0.000512510              -0.000475951               0.999999984              -0.000427694              -0.000534244               0.999999984              -0.000409470              -0.000451480               0.999999984              -0.000399461              -0.000428501               0.999999984              -0.000396811              -0.000430641               0.999999984              -0.000399100              -0.000444198               0.999999984              -0.000404244              -0.000463029               0.999999984              -0.000410635              -0.000483925               0.999999984              -0.000417250              -0.000505200               0.999999984              -0.000423347              -0.000525772               0.999999984              -0.000428421              -0.000544787               0.999999984              -0.000432305              -0.000561723               0.999999984              -0.000434765              -0.000576483               0.999999984              -0.000435849              -0.000588957               0.999999984              -0.000435740              -0.000599068               0.999999984              -0.000434706              -0.000607293               0.999999984              -0.000433028              -0.000613844               0.999999984              -0.000430872              -0.000618698               0.999999984              -0.000400044              -0.000628756               0.999999984              -0.000362045              -0.000536827               0.999999984              -0.000346534              -0.000514622               0.999999984              -0.000343106              -0.000520280               0.999999984              -0.000345849              -0.000538074               0.999999984              -0.000351304              -0.000561238               0.999999984              -0.000357550              -0.000586414               0.999999984              -0.000363328              -0.000611715               0.999999984              -0.000367988              -0.000635911               0.999999984              -0.000371136              -0.000658212               0.999999984              -0.000372380              -0.000678331               0.999999984              -0.000371673              -0.000696201               0.999999984              -0.000369335              -0.000711821               0.999999984              -0.000365564              -0.000725620               0.999999984              -0.000360633              -0.000738084               0.999999984              -0.000354590              -0.000749094               0.999999984              -0.000347261              -0.000758058               0.999999984              -0.000368883              -0.000716808               0.999999984              -0.000312593              -0.000619967               0.999999984              -0.000294175              -0.000599674               0.999999984              -0.000291911              -0.000608808               0.999999984              -0.000295992              -0.000630594               0.999999984              -0.000302258              -0.000657956               0.999999984              -0.000308511              -0.000687238               0.999999984              -0.000313510              -0.000716321               0.999999984              -0.000316568              -0.000744154               0.999999984              -0.000317081              -0.000769810               0.999999984              -0.000314989              -0.000792726               0.999999984              -0.000310523              -0.000813149               0.999999984              -0.000303920              -0.000831593               0.999999984              -0.000295545              -0.000848506               0.999999984              -0.000285487              -0.000864215               0.999999984              -0.000273716              -0.000878354               0.999999984              -0.000260356              -0.000890183               0.999999984              -0.000335417              -0.000796846               0.999999984              -0.000262781              -0.000700857               0.999999984              -0.000245136              -0.000682571               0.999999984              -0.000245267              -0.000694782               0.999999984              -0.000251288              -0.000720280               0.999999984              -0.000258581              -0.000751599               0.999999984              -0.000264811              -0.000784788               0.999999984              -0.000268608              -0.000817745               0.999999984              -0.000269237              -0.000848917               0.999999984              -0.000266326              -0.000876992               0.999999984              -0.000259880              -0.000902139               0.999999984              -0.000250325              -0.000924811               0.999999984              -0.000238240              -0.000945729               0.999999984              -0.000224130              -0.000965299               0.999999984              -0.000208283              -0.000983335               0.999999984              -0.000191081              -0.000999665               0.999999984              -0.000173007              -0.001014269               0.999999984              -0.000301287              -0.000871961               0.999999984              -0.000221900              -0.000788808               0.999999984              -0.000201194              -0.000765721               0.999999984              -0.000199968              -0.000772007               0.999999984              -0.000205263              -0.000792708               0.999999984              -0.000212319              -0.000820669               0.999999984              -0.000218738              -0.000852069               0.999999984              -0.000223126              -0.000884649               0.999999984              -0.000224848              -0.000916451               0.999999984              -0.000223100              -0.000946420               0.999999984              -0.000217689              -0.000973693               0.999999984              -0.000208637              -0.000998357               0.999999984              -0.000196424              -0.001021049               0.999999984              -0.000181846              -0.001042266               0.999999984              -0.000165450              -0.001062476               0.999999984              -0.000148050              -0.001081413               0.999999984              -0.000130254              -0.001099094               0.999999984              -0.000263812              -0.000939915               0.999999984              -0.000183773              -0.000873258               0.999999984              -0.000160105              -0.000850395               0.999999984              -0.000156819              -0.000852658               0.999999984              -0.000160833              -0.000869375               0.999999984              -0.000167146              -0.000894285               0.999999984              -0.000173276              -0.000923786               0.999999984              -0.000177851              -0.000955731               0.999999984              -0.000180198              -0.000987974               0.999999984              -0.000179576              -0.001019236               0.999999984              -0.000175347              -0.001048700               0.999999984              -0.000167200              -0.001075793               0.999999984              -0.000155164              -0.001100611               0.999999984              -0.000140080              -0.001123529               0.999999984              -0.000122554              -0.001145244               0.999999984              -0.000103299              -0.001166052               0.999999984              -0.000083181              -0.001186290               0.999999984              -0.000223876              -0.000999187               0.999999984              -0.000148315              -0.000951769               0.999999984              -0.000123071              -0.000932854               0.999999984              -0.000117557              -0.000933868               0.999999984              -0.000119816              -0.000947997               0.999999984              -0.000124783              -0.000970610               0.999999984              -0.000130114              -0.000998592               0.999999984              -0.000134477              -0.001029800               0.999999984              -0.000137052              -0.001062370               0.999999984              -0.000137130              -0.001094947               0.999999984              -0.000133898              -0.001126365               0.999999984              -0.000126891              -0.001156241               0.999999984              -0.000115807              -0.001183963               0.999999984              -0.000100786              -0.001209461               0.999999984              -0.000082214              -0.001233178               0.999999984              -0.000060538              -0.001255829               0.999999984              -0.000036404              -0.001277930               0.999999984              -0.000181775              -0.001048962               0.999999984              -0.000115416              -0.001021311               0.999999984              -0.000090678              -0.001009014               0.999999984              -0.000083560              -0.001011292               0.999999984              -0.000083933              -0.001024663               0.999999984              -0.000087244              -0.001046052               0.999999984              -0.000091322              -0.001073187               0.999999984              -0.000094921              -0.001104155               0.999999984              -0.000097403              -0.001137067               0.999999984              -0.000097889              -0.001170890               0.999999984              -0.000095345              -0.001204505               0.999999984              -0.000089419              -0.001237178               0.999999984              -0.000079846              -0.001268309               0.999999984              -0.000066072              -0.001297488               0.999999984              -0.000047604              -0.001324614               0.999999984              -0.000024384              -0.001350140               0.999999984               0.000003454              -0.001374588               0.999999984              -0.000137925              -0.001088392               0.999999984              -0.000084707              -0.001078911               0.999999984              -0.000062963              -0.001074489               0.999999984              -0.000055442              -0.001079750               0.999999984              -0.000054394              -0.001093947               0.999999984              -0.000056105              -0.001115295               0.999999984              -0.000058774              -0.001142343               0.999999984              -0.000061462              -0.001173406               0.999999984              -0.000063443              -0.001206986               0.999999984              -0.000063908              -0.001242111               0.999999984              -0.000061982              -0.001277773               0.999999984              -0.000057359              -0.001313222               0.999999984              -0.000049703              -0.001347759               0.999999984              -0.000038164              -0.001381001               0.999999984              -0.000021855              -0.001412538               0.999999984               0.000000196              -0.001442237               0.999999984               0.000028580              -0.001470262               0.999999984              -0.000092716              -0.001116934               0.999999984              -0.000055616              -0.001121993               0.999999984              -0.000039410              -0.001125017               0.999999984              -0.000033065              -0.001133814               0.999999984              -0.000031477              -0.001149609               0.999999984              -0.000032010              -0.001171675               0.999999984              -0.000033547              -0.001199072               0.999999984              -0.000035295              -0.001230559               0.999999984              -0.000036558              -0.001264899               0.999999984              -0.000036812              -0.001301224               0.999999984              -0.000035529              -0.001338663               0.999999984              -0.000032428              -0.001376541               0.999999984              -0.000026981              -0.001414208               0.999999984              -0.000018607              -0.001451202               0.999999984              -0.000006345              -0.001486976               0.999999984               0.000011066              -0.001521132               0.999999984               0.000034796              -0.001553279               0.999999984              -0.000046566              -0.001134237               0.999999984              -0.000027567              -0.001148633               0.999999984              -0.000018936              -0.001156951               0.999999984              -0.000015286              -0.001168648               0.999999984              -0.000014144              -0.001185910               0.999999984              -0.000014171              -0.001208707               0.999999984              -0.000014849              -0.001236586               0.999999984              -0.000015676              -0.001268513               0.999999984              -0.000016265              -0.001303465               0.999999984              -0.000016323              -0.001340640               0.999999984              -0.000015726              -0.001379274               0.999999984              -0.000014098              -0.001418884               0.999999984              -0.000011300              -0.001458814               0.999999984              -0.000006922              -0.001498570               0.999999984              -0.000000179              -0.001537525               0.999999984               0.000009440              -0.001575096               0.999999984               0.000022916              -0.001610528               0.999999984              -0.000000000              -0.001139947               0.999999984              -0.000000000              -0.001157597               0.999999984              -0.000000000              -0.001167948               0.999999984               0.000000000              -0.001180736               0.999999984               0.000000000              -0.001198530               0.999999984              -0.000000000              -0.001221599               0.999999984               0.000000000              -0.001249686               0.999999984              -0.000000000              -0.001281911               0.999999984              -0.000000000              -0.001317097               0.999999984               0.000000000              -0.001354542               0.999999984               0.000000000              -0.001393586               0.999999984               0.000000000              -0.001433784               0.999999984               0.000000000              -0.001474535               0.999999984              -0.000000000              -0.001515305               0.999999984              -0.000000000              -0.001555414               0.999999984               0.000000000              -0.001594219               0.999999984              -0.000000000              -0.001630933               0.999999984               0.000494997               0.000000000               0.999999984               0.000538668               0.000000000               0.999999984               0.000558600               0.000000000               0.999999984               0.000570236               0.000000000               0.999999984               0.000579480               0.000000000               0.999999984               0.000588659               0.000000000               0.999999984               0.000598695               0.000000000               0.999999984               0.000609813               0.000000000               0.999999984               0.000621985               0.000000000               0.999999984               0.000635090               0.000000000               0.999999984               0.000648979               0.000000000               0.999999984               0.000663485               0.000000000               0.999999984               0.000678344               0.000000000               0.999999984               0.000693383               0.000000000               0.999999984               0.000708202               0.000000000               0.999999984               0.000722391              -0.000000000               0.999999984               0.000735556              -0.000000000               0.999999984               0.000492216              -0.000111400               0.999999984               0.000532952              -0.000092508               0.999999984               0.000551015              -0.000084968               0.999999984               0.000561505              -0.000083104               0.999999984               0.000570062              -0.000084415               0.999999984               0.000578799              -0.000087353               0.999999984               0.000588462              -0.000091147               0.999999984               0.000599192              -0.000095380               0.999999984               0.000610939              -0.000099636               0.999999984               0.000623549              -0.000103692               0.999999984               0.000636781              -0.000107180               0.999999984               0.000650373              -0.000110003               0.999999984               0.000664186              -0.000111952               0.999999984               0.000678050              -0.000112641               0.999999984               0.000691584              -0.000111595               0.999999984               0.000704479              -0.000108324               0.999999984               0.000716416              -0.000101932               0.999999984               0.000483817              -0.000221658               0.999999984               0.000515956              -0.000184378               0.999999984               0.000528908              -0.000170206               0.999999984               0.000536428              -0.000167320               0.999999984               0.000543228              -0.000170428               0.999999984               0.000550812              -0.000176731               0.999999984               0.000559512              -0.000184567               0.999999984               0.000569359              -0.000193109               0.999999984               0.000580054              -0.000201649               0.999999984               0.000591209              -0.000209610               0.999999984               0.000602642              -0.000216462               0.999999984               0.000614110              -0.000222067               0.999999984               0.000625468              -0.000226237               0.999999984               0.000636480              -0.000228236               0.999999984               0.000646919              -0.000227221               0.999999984               0.000656605              -0.000222529               0.999999984               0.000665399              -0.000213270               0.999999984               0.000470060              -0.000329620               0.999999984               0.000488663              -0.000275046               0.999999984               0.000494203              -0.000255933               0.999999984               0.000497808              -0.000253366               0.999999984               0.000502469              -0.000259184               0.999999984               0.000508724              -0.000269284               0.999999984               0.000516398              -0.000281442               0.999999984               0.000525058              -0.000294379               0.999999984               0.000534145              -0.000307098               0.999999984               0.000543388              -0.000318891               0.999999984               0.000552546              -0.000329262               0.999999984               0.000561344              -0.000337913               0.999999984               0.000569417              -0.000344392               0.999999984               0.000576614              -0.000348158               0.999999984               0.000582866              -0.000348683               0.999999984               0.000588312              -0.000345456               0.999999984               0.000593300              -0.000338121               0.999999984               0.000451217              -0.000434191               0.999999984               0.000452504              -0.000364144               0.999999984               0.000449856              -0.000342112               0.999999984               0.000449743              -0.000341327               0.999999984               0.000452748              -0.000350716               0.999999984               0.000458164              -0.000365077               0.999999984               0.000464993              -0.000381646               0.999999984               0.000472456              -0.000398893               0.999999984               0.000480032              -0.000415633               0.999999984               0.000487280              -0.000431129               0.999999984               0.000493799              -0.000444838               0.999999984               0.000499260              -0.000456488               0.999999984               0.000503632              -0.000465765               0.999999984               0.000506887              -0.000472318               0.999999984               0.000509177              -0.000476170               0.999999984               0.000510930              -0.000477368               0.999999984               0.000512510              -0.000475951               0.999999984               0.000427694              -0.000534244               0.999999984               0.000409470              -0.000451480               0.999999984               0.000399461              -0.000428501               0.999999984               0.000396811              -0.000430641               0.999999984               0.000399100              -0.000444198               0.999999984               0.000404244              -0.000463029               0.999999984               0.000410635              -0.000483925               0.999999984               0.000417250              -0.000505200               0.999999984               0.000423347              -0.000525772               0.999999984               0.000428421              -0.000544787               0.999999984               0.000432305              -0.000561723               0.999999984               0.000434765              -0.000576483               0.999999984               0.000435849              -0.000588957               0.999999984               0.000435740              -0.000599068               0.999999984               0.000434706              -0.000607293               0.999999984               0.000433028              -0.000613844               0.999999984               0.000430872              -0.000618698               0.999999984               0.000400044              -0.000628756               0.999999984               0.000362045              -0.000536827               0.999999984               0.000346534              -0.000514622               0.999999984               0.000343106              -0.000520280               0.999999984               0.000345849              -0.000538074               0.999999984               0.000351304              -0.000561238               0.999999984               0.000357550              -0.000586414               0.999999984               0.000363328              -0.000611715               0.999999984               0.000367988              -0.000635911               0.999999984               0.000371136              -0.000658212               0.999999984               0.000372380              -0.000678331               0.999999984               0.000371673              -0.000696201               0.999999984               0.000369335              -0.000711821               0.999999984               0.000365564              -0.000725620               0.999999984               0.000360633              -0.000738084               0.999999984               0.000354590              -0.000749094               0.999999984               0.000347261              -0.000758058               0.999999984               0.000368883              -0.000716808               0.999999984               0.000312593              -0.000619967               0.999999984               0.000294175              -0.000599674               0.999999984               0.000291911              -0.000608808               0.999999984               0.000295992              -0.000630594               0.999999984               0.000302258              -0.000657956               0.999999984               0.000308511              -0.000687238               0.999999984               0.000313510              -0.000716321               0.999999984               0.000316568              -0.000744154               0.999999984               0.000317081              -0.000769810               0.999999984               0.000314989              -0.000792726               0.999999984               0.000310523              -0.000813149               0.999999984               0.000303920              -0.000831593               0.999999984               0.000295545              -0.000848506               0.999999984               0.000285487              -0.000864215               0.999999984               0.000273716              -0.000878354               0.999999984               0.000260356              -0.000890183               0.999999984               0.000335417              -0.000796846               0.999999984               0.000262781              -0.000700857               0.999999984               0.000245136              -0.000682571               0.999999984               0.000245267              -0.000694782               0.999999984               0.000251288              -0.000720280               0.999999984               0.000258581              -0.000751599               0.999999984               0.000264811              -0.000784788               0.999999984               0.000268608              -0.000817745               0.999999984               0.000269237              -0.000848917               0.999999984               0.000266326              -0.000876992               0.999999984               0.000259880              -0.000902139               0.999999984               0.000250325              -0.000924811               0.999999984               0.000238240              -0.000945729               0.999999984               0.000224130              -0.000965299               0.999999984               0.000208283              -0.000983335               0.999999984               0.000191081              -0.000999665               0.999999984               0.000173007              -0.001014269               0.999999984               0.000301287              -0.000871961               0.999999984               0.000221900              -0.000788808               0.999999984               0.000201194              -0.000765721               0.999999984               0.000199968              -0.000772007               0.999999984               0.000205263              -0.000792708               0.999999984               0.000212319              -0.000820669               0.999999984               0.000218738              -0.000852069               0.999999984               0.000223126              -0.000884649               0.999999984               0.000224848              -0.000916451               0.999999984               0.000223100              -0.000946420               0.999999984               0.000217689              -0.000973693               0.999999984               0.000208637              -0.000998357               0.999999984               0.000196424              -0.001021049               0.999999984               0.000181846              -0.001042266               0.999999984               0.000165450              -0.001062476               0.999999984               0.000148050              -0.001081413               0.999999984               0.000130254              -0.001099094               0.999999984               0.000263812              -0.000939915               0.999999984               0.000183773              -0.000873258               0.999999984               0.000160105              -0.000850395               0.999999984               0.000156819              -0.000852658               0.999999984               0.000160833              -0.000869375               0.999999984               0.000167146              -0.000894285               0.999999984               0.000173276              -0.000923786               0.999999984               0.000177851              -0.000955731               0.999999984               0.000180198              -0.000987974               0.999999984               0.000179576              -0.001019236               0.999999984               0.000175347              -0.001048700               0.999999984               0.000167200              -0.001075793               0.999999984               0.000155164              -0.001100611               0.999999984               0.000140080              -0.001123529               0.999999984               0.000122554              -0.001145244               0.999999984               0.000103299              -0.001166052               0.999999984               0.000083181              -0.001186290               0.999999984               0.000223876              -0.000999187               0.999999984               0.000148315              -0.000951769               0.999999984               0.000123071              -0.000932854               0.999999984               0.000117557              -0.000933868               0.999999984               0.000119816              -0.000947997               0.999999984               0.000124783              -0.000970610               0.999999984               0.000130114              -0.000998592               0.999999984               0.000134477              -0.001029800               0.999999984               0.000137052              -0.001062370               0.999999984               0.000137130              -0.001094947               0.999999984               0.000133898              -0.001126365               0.999999984               0.000126891              -0.001156241               0.999999984               0.000115807              -0.001183963               0.999999984               0.000100786              -0.001209461               0.999999984               0.000082214              -0.001233178               0.999999984               0.000060538              -0.001255829               0.999999984               0.000036404              -0.001277930               0.999999984               0.000181775              -0.001048962               0.999999984               0.000115416              -0.001021311               0.999999984               0.000090678              -0.001009014               0.999999984               0.000083560              -0.001011292               0.999999984               0.000083933              -0.001024663               0.999999984               0.000087244              -0.001046052               0.999999984               0.000091322              -0.001073187               0.999999984               0.000094921              -0.001104155               0.999999984               0.000097403              -0.001137067               0.999999984               0.000097889              -0.001170890               0.999999984               0.000095345              -0.001204505               0.999999984               0.000089419              -0.001237178               0.999999984               0.000079846              -0.001268309               0.999999984               0.000066072              -0.001297488               0.999999984               0.000047604              -0.001324614               0.999999984               0.000024384              -0.001350140               0.999999984              -0.000003454              -0.001374588               0.999999984               0.000137925              -0.001088392               0.999999984               0.000084707              -0.001078911               0.999999984               0.000062963              -0.001074489               0.999999984               0.000055442              -0.001079750               0.999999984               0.000054394              -0.001093947               0.999999984               0.000056105              -0.001115295               0.999999984               0.000058774              -0.001142343               0.999999984               0.000061462              -0.001173406               0.999999984               0.000063443              -0.001206986               0.999999984               0.000063908              -0.001242111               0.999999984               0.000061982              -0.001277773               0.999999984               0.000057359              -0.001313222               0.999999984               0.000049703              -0.001347759               0.999999984               0.000038164              -0.001381001               0.999999984               0.000021855              -0.001412538               0.999999984              -0.000000196              -0.001442237               0.999999984              -0.000028580              -0.001470262               0.999999984               0.000092716              -0.001116934               0.999999984               0.000055616              -0.001121993               0.999999984               0.000039410              -0.001125017               0.999999984               0.000033065              -0.001133814               0.999999984               0.000031477              -0.001149609               0.999999984               0.000032010              -0.001171675               0.999999984               0.000033547              -0.001199072               0.999999984               0.000035295              -0.001230559               0.999999984               0.000036558              -0.001264899               0.999999984               0.000036812              -0.001301224               0.999999984               0.000035529              -0.001338663               0.999999984               0.000032428              -0.001376541               0.999999984               0.000026981              -0.001414208               0.999999984               0.000018607              -0.001451202               0.999999984               0.000006345              -0.001486976               0.999999984              -0.000011066              -0.001521132               0.999999984              -0.000034796              -0.001553279               0.999999984               0.000046566              -0.001134237               0.999999984               0.000027567              -0.001148633               0.999999984               0.000018936              -0.001156951               0.999999984               0.000015286              -0.001168648               0.999999984               0.000014144              -0.001185910               0.999999984               0.000014171              -0.001208707               0.999999984               0.000014849              -0.001236586               0.999999984               0.000015676              -0.001268513               0.999999984               0.000016265              -0.001303465               0.999999984               0.000016323              -0.001340640               0.999999984               0.000015726              -0.001379274               0.999999984               0.000014098              -0.001418884               0.999999984               0.000011300              -0.001458814               0.999999984               0.000006922              -0.001498570               0.999999984               0.000000179              -0.001537525               0.999999984              -0.000009440              -0.001575096               0.999999984              -0.000022916              -0.001610528               0.999999984              -0.000000000              -0.001139947               0.999999984              -0.000000000              -0.001157597               0.999999984              -0.000000000              -0.001167948               0.999999984               0.000000000              -0.001180736               0.999999984               0.000000000              -0.001198530               0.999999984              -0.000000000              -0.001221599               0.999999984               0.000000000              -0.001249686               0.999999984              -0.000000000              -0.001281911               0.999999984              -0.000000000              -0.001317097               0.999999984               0.000000000              -0.001354542               0.999999984               0.000000000              -0.001393586               0.999999984               0.000000000              -0.001433784               0.999999984               0.000000000              -0.001474535               0.999999984              -0.000000000              -0.001515305               0.999999984              -0.000000000              -0.001555414               0.999999984               0.000000000              -0.001594219               0.999999984              -0.000000000              -0.001630933               0.999999984               0.000494997               0.000000000               0.999999984               0.000538668               0.000000000               0.999999984               0.000558600               0.000000000               0.999999984               0.000570236               0.000000000               0.999999984               0.000579480               0.000000000               0.999999984               0.000588659               0.000000000               0.999999984               0.000598695               0.000000000               0.999999984               0.000609813               0.000000000               0.999999984               0.000621985               0.000000000               0.999999984               0.000635090               0.000000000               0.999999984               0.000648979               0.000000000               0.999999984               0.000663485               0.000000000               0.999999984               0.000678344               0.000000000               0.999999984               0.000693383               0.000000000               0.999999984               0.000708202               0.000000000               0.999999984               0.000722391              -0.000000000               0.999999984               0.000735556              -0.000000000               0.999999984               0.000492216               0.000111400               0.999999984               0.000532952               0.000092508               0.999999984               0.000551015               0.000084968               0.999999984               0.000561505               0.000083104               0.999999984               0.000570062               0.000084415               0.999999984               0.000578799               0.000087353               0.999999984               0.000588462               0.000091147               0.999999984               0.000599192               0.000095380               0.999999984               0.000610939               0.000099636               0.999999984               0.000623549               0.000103692               0.999999984               0.000636781               0.000107180               0.999999984               0.000650373               0.000110003               0.999999984               0.000664186               0.000111952               0.999999984               0.000678050               0.000112641               0.999999984               0.000691584               0.000111595               0.999999984               0.000704479               0.000108324               0.999999984               0.000716416               0.000101932               0.999999984               0.000483817               0.000221658               0.999999984               0.000515956               0.000184378               0.999999984               0.000528908               0.000170206               0.999999984               0.000536428               0.000167320               0.999999984               0.000543228               0.000170428               0.999999984               0.000550812               0.000176731               0.999999984               0.000559512               0.000184567               0.999999984               0.000569359               0.000193109               0.999999984               0.000580054               0.000201649               0.999999984               0.000591209               0.000209610               0.999999984               0.000602642               0.000216462               0.999999984               0.000614110               0.000222067               0.999999984               0.000625468               0.000226237               0.999999984               0.000636480               0.000228236               0.999999984               0.000646919               0.000227221               0.999999984               0.000656605               0.000222529               0.999999984               0.000665399               0.000213270               0.999999984               0.000470060               0.000329620               0.999999984               0.000488663               0.000275046               0.999999984               0.000494203               0.000255933               0.999999984               0.000497808               0.000253366               0.999999984               0.000502469               0.000259184               0.999999984               0.000508724               0.000269284               0.999999984               0.000516398               0.000281442               0.999999984               0.000525058               0.000294379               0.999999984               0.000534145               0.000307098               0.999999984               0.000543388               0.000318891               0.999999984               0.000552546               0.000329262               0.999999984               0.000561344               0.000337913               0.999999984               0.000569417               0.000344392               0.999999984               0.000576614               0.000348158               0.999999984               0.000582866               0.000348683               0.999999984               0.000588312               0.000345456               0.999999984               0.000593300               0.000338121               0.999999984               0.000451217               0.000434191               0.999999984               0.000452504               0.000364144               0.999999984               0.000449856               0.000342112               0.999999984               0.000449743               0.000341327               0.999999984               0.000452748               0.000350716               0.999999984               0.000458164               0.000365077               0.999999984               0.000464993               0.000381646               0.999999984               0.000472456               0.000398893               0.999999984               0.000480032               0.000415633               0.999999984               0.000487280               0.000431129               0.999999984               0.000493799               0.000444838               0.999999984               0.000499260               0.000456488               0.999999984               0.000503632               0.000465765               0.999999984               0.000506887               0.000472318               0.999999984               0.000509177               0.000476170               0.999999984               0.000510930               0.000477368               0.999999984               0.000512510               0.000475951               0.999999984               0.000427694               0.000534244               0.999999984               0.000409470               0.000451480               0.999999984               0.000399461               0.000428501               0.999999984               0.000396811               0.000430641               0.999999984               0.000399100               0.000444198               0.999999984               0.000404244               0.000463029               0.999999984               0.000410635               0.000483925               0.999999984               0.000417250               0.000505200               0.999999984               0.000423347               0.000525772               0.999999984               0.000428421               0.000544787               0.999999984               0.000432305               0.000561723               0.999999984               0.000434765               0.000576483               0.999999984               0.000435849               0.000588957               0.999999984               0.000435740               0.000599068               0.999999984               0.000434706               0.000607293               0.999999984               0.000433028               0.000613844               0.999999984               0.000430872               0.000618698               0.999999984               0.000400044               0.000628756               0.999999984               0.000362045               0.000536827               0.999999984               0.000346534               0.000514622               0.999999984               0.000343106               0.000520280               0.999999984               0.000345849               0.000538074               0.999999984               0.000351304               0.000561238               0.999999984               0.000357550               0.000586414               0.999999984               0.000363328               0.000611715               0.999999984               0.000367988               0.000635911               0.999999984               0.000371136               0.000658212               0.999999984               0.000372380               0.000678331               0.999999984               0.000371673               0.000696201               0.999999984               0.000369335               0.000711821               0.999999984               0.000365564               0.000725620               0.999999984               0.000360633               0.000738084               0.999999984               0.000354590               0.000749094               0.999999984               0.000347261               0.000758058               0.999999984               0.000368883               0.000716808               0.999999984               0.000312593               0.000619967               0.999999984               0.000294175               0.000599674               0.999999984               0.000291911               0.000608808               0.999999984               0.000295992               0.000630594               0.999999984               0.000302258               0.000657956               0.999999984               0.000308511               0.000687238               0.999999984               0.000313510               0.000716321               0.999999984               0.000316568               0.000744154               0.999999984               0.000317081               0.000769810               0.999999984               0.000314989               0.000792726               0.999999984               0.000310523               0.000813149               0.999999984               0.000303920               0.000831593               0.999999984               0.000295545               0.000848506               0.999999984               0.000285487               0.000864215               0.999999984               0.000273716               0.000878354               0.999999984               0.000260356               0.000890183               0.999999984               0.000335417               0.000796846               0.999999984               0.000262781               0.000700857               0.999999984               0.000245136               0.000682571               0.999999984               0.000245267               0.000694782               0.999999984               0.000251288               0.000720280               0.999999984               0.000258581               0.000751599               0.999999984               0.000264811               0.000784788               0.999999984               0.000268608               0.000817745               0.999999984               0.000269237               0.000848917               0.999999984               0.000266326               0.000876992               0.999999984               0.000259880               0.000902139               0.999999984               0.000250325               0.000924811               0.999999984               0.000238240               0.000945729               0.999999984               0.000224130               0.000965299               0.999999984               0.000208283               0.000983335               0.999999984               0.000191081               0.000999665               0.999999984               0.000173007               0.001014269               0.999999984               0.000301287               0.000871961               0.999999984               0.000221900               0.000788808               0.999999984               0.000201194               0.000765721               0.999999984               0.000199968               0.000772007               0.999999984               0.000205263               0.000792708               0.999999984               0.000212319               0.000820669               0.999999984               0.000218738               0.000852069               0.999999984               0.000223126               0.000884649               0.999999984               0.000224848               0.000916451               0.999999984               0.000223100               0.000946420               0.999999984               0.000217689               0.000973693               0.999999984               0.000208637               0.000998357               0.999999984               0.000196424               0.001021049               0.999999984               0.000181846               0.001042266               0.999999984               0.000165450               0.001062476               0.999999984               0.000148050               0.001081413               0.999999984               0.000130254               0.001099094               0.999999984               0.000263812               0.000939915               0.999999984               0.000183773               0.000873258               0.999999984               0.000160105               0.000850395               0.999999984               0.000156819               0.000852658               0.999999984               0.000160833               0.000869375               0.999999984               0.000167146               0.000894285               0.999999984               0.000173276               0.000923786               0.999999984               0.000177851               0.000955731               0.999999984               0.000180198               0.000987974               0.999999984               0.000179576               0.001019236               0.999999984               0.000175347               0.001048700               0.999999984               0.000167200               0.001075793               0.999999984               0.000155164               0.001100611               0.999999984               0.000140080               0.001123529               0.999999984               0.000122554               0.001145244               0.999999984               0.000103299               0.001166052               0.999999984               0.000083181               0.001186290               0.999999984               0.000223876               0.000999187               0.999999984               0.000148315               0.000951769               0.999999984               0.000123071               0.000932854               0.999999984               0.000117557               0.000933868               0.999999984               0.000119816               0.000947997               0.999999984               0.000124783               0.000970610               0.999999984               0.000130114               0.000998592               0.999999984               0.000134477               0.001029800               0.999999984               0.000137052               0.001062370               0.999999984               0.000137130               0.001094947               0.999999984               0.000133898               0.001126365               0.999999984               0.000126891               0.001156241               0.999999984               0.000115807               0.001183963               0.999999984               0.000100786               0.001209461               0.999999984               0.000082214               0.001233178               0.999999984               0.000060538               0.001255829               0.999999984               0.000036404               0.001277930               0.999999984               0.000181775               0.001048962               0.999999984               0.000115416               0.001021311               0.999999984               0.000090678               0.001009014               0.999999984               0.000083560               0.001011292               0.999999984               0.000083933               0.001024663               0.999999984               0.000087244               0.001046052               0.999999984               0.000091322               0.001073187               0.999999984               0.000094921               0.001104155               0.999999984               0.000097403               0.001137067               0.999999984               0.000097889               0.001170890               0.999999984               0.000095345               0.001204505               0.999999984               0.000089419               0.001237178               0.999999984               0.000079846               0.001268309               0.999999984               0.000066072               0.001297488               0.999999984               0.000047604               0.001324614               0.999999984               0.000024384               0.001350140               0.999999984              -0.000003454               0.001374588               0.999999984               0.000137925               0.001088392               0.999999984               0.000084707               0.001078911               0.999999984               0.000062963               0.001074489               0.999999984               0.000055442               0.001079750               0.999999984               0.000054394               0.001093947               0.999999984               0.000056105               0.001115295               0.999999984               0.000058774               0.001142343               0.999999984               0.000061462               0.001173406               0.999999984               0.000063443               0.001206986               0.999999984               0.000063908               0.001242111               0.999999984               0.000061982               0.001277773               0.999999984               0.000057359               0.001313222               0.999999984               0.000049703               0.001347759               0.999999984               0.000038164               0.001381001               0.999999984               0.000021855               0.001412538               0.999999984              -0.000000196               0.001442237               0.999999984              -0.000028580               0.001470262               0.999999984               0.000092716               0.001116934               0.999999984               0.000055616               0.001121993               0.999999984               0.000039410               0.001125017               0.999999984               0.000033065               0.001133814               0.999999984               0.000031477               0.001149609               0.999999984               0.000032010               0.001171675               0.999999984               0.000033547               0.001199072               0.999999984               0.000035295               0.001230559               0.999999984               0.000036558               0.001264899               0.999999984               0.000036812               0.001301224               0.999999984               0.000035529               0.001338663               0.999999984               0.000032428               0.001376541               0.999999984               0.000026981               0.001414208               0.999999984               0.000018607               0.001451202               0.999999984               0.000006345               0.001486976               0.999999984              -0.000011066               0.001521132               0.999999984              -0.000034796               0.001553279               0.999999984               0.000046566               0.001134237               0.999999984               0.000027567               0.001148633               0.999999984               0.000018936               0.001156951               0.999999984               0.000015286               0.001168648               0.999999984               0.000014144               0.001185910               0.999999984               0.000014171               0.001208707               0.999999984               0.000014849               0.001236586               0.999999984               0.000015676               0.001268513               0.999999984               0.000016265               0.001303465               0.999999984               0.000016323               0.001340640               0.999999984               0.000015726               0.001379274               0.999999984               0.000014098               0.001418884               0.999999984               0.000011300               0.001458814               0.999999984               0.000006922               0.001498570               0.999999984               0.000000179               0.001537525               0.999999984              -0.000009440               0.001575096               0.999999984              -0.000022916               0.001610528               0.999999984               0.000000000               0.001139947               0.999999984               0.000000000               0.001157597               0.999999984               0.000000000               0.001167948               0.999999984               0.000000000               0.001180736               0.999999984              -0.000000000               0.001198530               0.999999984              -0.000000000               0.001221599               0.999999984              -0.000000000               0.001249686               0.999999984               0.000000000               0.001281911               0.999999984              -0.000000000               0.001317097               0.999999984              -0.000000000               0.001354542               0.999999984               0.000000000               0.001393586               0.999999984               0.000000000               0.001433784               0.999999984               0.000000000               0.001474535               0.999999984               0.000000000               0.001515305               0.999999984              -0.000000000               0.001555414               0.999999984              -0.000000000               0.001594219               0.999999984               0.000000000               0.001630933               0.999999984 </DataArray>
<DataArray type="Float64"                                    Name="defo"                                                      NumberOfComponents=" 3" format="ascii">
             -0.000494997               0.000000000               0.999999984              -0.000538668               0.000000000               0.999999984              -0.000558600               0.000000000               0.999999984              -0.000570236               0.000000000               0.999999984              -0.000579480               0.000000000               0.999999984              -0.000588659               0.000000000               0.999999984              -0.000598695               0.000000000               0.999999984              -0.000609813               0.000000000               0.999999984              -0.000621985               0.000000000               0.999999984              -0.000635090               0.000000000               0.999999984              -0.000648979               0.000000000               0.999999984              -0.000663485              -0.000000000               0.999999984              -0.000678344               0.000000000               0.999999984              -0.000693383               0.000000000               0.999999984              -0.000708202              -0.000000000               0.999999984              -0.000722391               0.000000000               0.999999984              -0.000735556               0.000000000               0.999999984              -0.000492216               0.000111400               0.999999984              -0.000532952               0.000092508               0.999999984              -0.000551015               0.000084968               0.999999984              -0.000561505               0.000083104               0.999999984              -0.000570062               0.000084415               0.999999984              -0.000578799               0.000087353               0.999999984              -0.000588462               0.000091147               0.999999984              -0.000599192               0.000095380               0.999999984              -0.000610939               0.000099636               0.999999984              -0.000623549               0.000103692               0.999999984              -0.000636781               0.000107180               0.999999984              -0.000650373               0.000110003               0.999999984              -0.000664186               0.000111952               0.999999984              -0.000678050               0.000112641               0.999999984              -0.000691584               0.000111595               0.999999984              -0.000704479               0.000108324               0.999999984              -0.000716416               0.000101932               0.999999984              -0.000483817               0.000221658               0.999999984              -0.000515956               0.000184378               0.999999984              -0.000528908               0.000170206               0.999999984              -0.000536428               0.000167320               0.999999984              -0.000543228               0.000170428               0.999999984              -0.000550812               0.000176731               0.999999984              -0.000559512               0.000184567               0.999999984              -0.000569359               0.000193109               0.999999984              -0.000580054               0.000201649               0.999999984              -0.000591209               0.000209610               0.999999984              -0.000602642               0.000216462               0.999999984              -0.000614110               0.000222067               0.999999984              -0.000625468               0.000226237               0.999999984              -0.000636480               0.000228236               0.999999984              -0.000646919               0.000227221               0.999999984              -0.000656605               0.000222529               0.999999984              -0.000665399               0.000213270               0.999999984              -0.000470060               0.000329620               0.999999984              -0.000488663               0.000275046               0.999999984              -0.000494203               0.000255933               0.999999984              -0.000497808               0.000253366               0.999999984              -0.000502469               0.000259184               0.999999984              -0.000508724               0.000269284               0.999999984              -0.000516398               0.000281442               0.999999984              -0.000525058               0.000294379               0.999999984              -0.000534145               0.000307098               0.999999984              -0.000543388               0.000318891               0.999999984              -0.000552546               0.000329262               0.999999984              -0.000561344               0.000337913               0.999999984              -0.000569417               0.000344392               0.999999984              -0.000576614               0.000348158               0.999999984              -0.000582866               0.000348683               0.999999984              -0.000588312               0.000345456               0.999999984              -0.000593300               0.000338121               0.999999984              -0.000451217               0.000434191               0.999999984              -0.000452504               0.000364144               0.999999984              -0.000449856               0.000342112               0.999999984              -0.000449743               0.000341327               0.999999984              -0.000452748               0.000350716               0.999999984              -0.000458164               0.000365077               0.999999984              -0.000464993               0.000381646               0.999999984              -0.000472456               0.000398893               0.999999984              -0.000480032               0.000415633               0.999999984              -0.000487280               0.000431129               0.999999984              -0.000493799               0.000444838               0.999999984              -0.000499260               0.000456488               0.999999984              -0.000503632               0.000465765               0.999999984              -0.000506887               0.000472318               0.999999984              -0.000509177               0.000476170               0.999999984              -0.000510930               0.000477368               0.999999984              -0.000512510               0.000475951               0.999999984              -0.000427694               0.000534244               0.999999984              -0.000409470               0.000451480               0.999999984              -0.000399461               0.000428501               0.999999984              -0.000396811               0.000430641               0.999999984              -0.000399100               0.000444198               0.999999984              -0.000404244               0.000463029               0.999999984              -0.000410635               0.000483925               0.999999984              -0.000417250               0.000505200               0.999999984              -0.000423347               0.000525772               0.999999984              -0.000428421               0.000544787               0.999999984              -0.000432305               0.000561723               0.999999984              -0.000434765               0.000576483               0.999999984              -0.000435849               0.000588957               0.999999984              -0.000435740               0.000599068               0.999999984              -0.000434706               0.000607293               0.999999984              -0.000433028               0.000613844               0.999999984              -0.000430872               0.000618698               0.999999984              -0.000400044               0.000628756               0.999999984              -0.000362045               0.000536827               0.999999984              -0.000346534               0.000514622               0.999999984              -0.000343106               0.000520280               0.999999984              -0.000345849               0.000538074               0.999999984              -0.000351304               0.000561238               0.999999984              -0.000357550               0.000586414               0.999999984              -0.000363328               0.000611715               0.999999984              -0.000367988               0.000635911               0.999999984              -0.000371136               0.000658212               0.999999984              -0.000372380               0.000678331               0.999999984              -0.000371673               0.000696201               0.999999984              -0.000369335               0.000711821               0.999999984              -0.000365564               0.000725620               0.999999984              -0.000360633               0.000738084               0.999999984              -0.000354590               0.000749094               0.999999984              -0.000347261               0.000758058               0.999999984              -0.000368883               0.000716808               0.999999984              -0.000312593               0.000619967               0.999999984              -0.000294175               0.000599674               0.999999984              -0.000291911               0.000608808               0.999999984              -0.000295992               0.000630594               0.999999984              -0.000302258               0.000657956               0.999999984              -0.000308511               0.000687238               0.999999984              -0.000313510               0.000716321               0.999999984              -0.000316568               0.000744154               0.999999984              -0.000317081               0.000769810               0.999999984              -0.000314989               0.000792726               0.999999984              -0.000310523               0.000813149               0.999999984              -0.000303920               0.000831593               0.999999984              -0.000295545               0.000848506               0.999999984              -0.000285487               0.000864215               0.999999984              -0.000273716               0.000878354               0.999999984              -0.000260356               0.000890183               0.999999984              -0.000335417               0.000796846               0.999999984              -0.000262781               0.000700857               0.999999984              -0.000245136               0.000682571               0.999999984              -0.000245267               0.000694782               0.999999984              -0.000251288               0.000720280               0.999999984              -0.000258581               0.000751599               0.999999984              -0.000264811               0.000784788               0.999999984              -0.000268608               0.000817745               0.999999984              -0.000269237               0.000848917               0.999999984              -0.000266326               0.000876992               0.999999984              -0.000259880               0.000902139               0.999999984              -0.000250325               0.000924811               0.999999984              -0.000238240               0.000945729               0.999999984              -0.000224130               0.000965299               0.999999984              -0.000208283               0.000983335               0.999999984              -0.000191081               0.000999665               0.999999984              -0.000173007               0.001014269               0.999999984              -0.000301287               0.000871961               0.999999984              -0.000221900               0.000788808               0.999999984              -0.000201194               0.000765721               0.999999984              -0.000199968               0.000772007               0.999999984              -0.000205263               0.000792708               0.999999984              -0.000212319               0.000820669               0.999999984              -0.000218738               0.000852069               0.999999984              -0.000223126               0.000884649               0.999999984              -0.000224848               0.000916451               0.999999984              -0.000223100               0.000946420               0.999999984              -0.000217689               0.000973693               0.999999984              -0.000208637               0.000998357               0.999999984              -0.000196424               0.001021049               0.999999984              -0.000181846               0.001042266               0.999999984              -0.000165450               0.001062476               0.999999984              -0.000148050               0.001081413               0.999999984              -0.000130254               0.001099094               0.999999984              -0.000263812               0.000939915               0.999999984              -0.000183773               0.000873258               0.999999984              -0.000160105               0.000850395               0.999999984              -0.000156819               0.000852658               0.999999984              -0.000160833               0.000869375               0.999999984              -0.000167146               0.000894285               0.999999984              -0.000173276               0.000923786               0.999999984              -0.000177851               0.000955731               0.999999984              -0.000180198               0.000987974               0.999999984              -0.000179576               0.001019236               0.999999984              -0.000175347               0.001048700               0.999999984              -0.000167200               0.001075793               0.999999984              -0.000155164               0.001100611               0.999999984              -0.000140080               0.001123529               0.999999984              -0.000122554               0.001145244               0.999999984              -0.000103299               0.001166052               0.999999984              -0.000083181               0.001186290               0.999999984              -0.000223876               0.000999187               0.999999984              -0.000148315               0.000951769               0.999999984              -0.000123071               0.000932854               0.999999984              -0.000117557               0.000933868               0.999999984              -0.000119816               0.000947997               0.999999984              -0.000124783               0.000970610               0.999999984              -0.000130114               0.000998592               0.999999984              -0.000134477               0.001029800               0.999999984              -0.000137052               0.001062370               0.999999984              -0.000137130               0.001094947               0.999999984              -0.000133898               0.001126365               0.999999984              -0.000126891               0.001156241               0.999999984              -0.000115807               0.001183963               0.999999984              -0.000100786               0.001209461               0.999999984              -0.000082214               0.001233178               0.999999984              -0.000060538               0.001255829               0.999999984              -0.000036404               0.001277930               0.999999984              -0.000181775               0.001048962               0.999999984              -0.000115416               0.001021311               0.999999984              -0.000090678               0.001009014               0.999999984              -0.000083560               0.001011292               0.999999984              -0.000083933               0.001024663               0.999999984              -0.000087244               0.001046052               0.999999984              -0.000091322               0.001073187               0.999999984              -0.000094921               0.001104155               0.999999984              -0.000097403               0.001137067               0.999999984              -0.000097889               0.001170890               0.999999984              -0.000095345               0.001204505               0.999999984              -0.000089419               0.001237178               0.999999984              -0.000079846               0.001268309               0.999999984              -0.000066072               0.001297488               0.999999984              -0.000047604               0.001324614               0.999999984              -0.000024384               0.001350140               0.999999984               0.000003454               0.001374588               0.999999984              -0.000137925               0.001088392               0.999999984              -0.000084707               0.001078911               0.999999984              -0.000062963               0.001074489               0.999999984              -0.000055442               0.001079750               0.999999984              -0.000054394               0.001093947               0.999999984              -0.000056105               0.001115295               0.999999984              -0.000058774               0.001142343               0.999999984              -0.000061462               0.001173406               0.999999984              -0.000063443               0.001206986               0.999999984              -0.000063908               0.001242111               0.999999984              -0.000061982               0.001277773               0.999999984              -0.000057359               0.001313222               0.999999984              -0.000049703               0.001347759               0.999999984              -0.000038164               0.001381001               0.999999984              -0.000021855               0.001412538               0.999999984               0.000000196               0.001442237               0.999999984               0.000028580               0.001470262               0.999999984              -0.000092716               0.001116934               0.999999984              -0.000055616               0.001121993               0.999999984              -0.000039410               0.001125017               0.999999984              -0.000033065               0.001133814               0.999999984              -0.000031477               0.001149609               0.999999984              -0.000032010               0.001171675               0.999999984              -0.000033547               0.001199072               0.999999984              -0.000035295               0.001230559               0.999999984              -0.000036558               0.001264899               0.999999984              -0.000036812               0.001301224               0.999999984              -0.000035529               0.001338663               0.999999984              -0.000032428               0.001376541               0.999999984              -0.000026981               0.001414208               0.999999984              -0.000018607               0.001451202               0.999999984              -0.000006345               0.001486976               0.999999984               0.000011066               0.001521132               0.999999984               0.000034796               0.001553279               0.999999984              -0.000046566               0.001134237               0.999999984              -0.000027567               0.001148633               0.999999984              -0.000018936               0.001156951               0.999999984              -0.000015286               0.001168648               0.999999984              -0.000014144               0.001185910               0.999999984              -0.000014171               0.001208707               0.999999984              -0.000014849               0.001236586               0.999999984              -0.000015676               0.001268513               0.999999984              -0.000016265               0.001303465               0.999999984              -0.000016323               0.001340640               0.999999984              -0.000015726               0.001379274               0.999999984              -0.000014098               0.001418884               0.999999984              -0.000011300               0.001458814               0.999999984              -0.000006922               0.001498570               0.999999984              -0.000000179               0.001537525               0.999999984               0.000009440               0.001575096               0.999999984               0.000022916               0.001610528               0.999999984               0.000000000               0.001139947               0.999999984               0.000000000               0.001157597               0.999999984               0.000000000               0.001167948               0.999999984               0.000000000               0.001180736               0.999999984              -0.000000000               0.001198530               0.999999984              -0.000000000               0.001221599               0.999999984              -0.000000000               0.001249686               0.999999984               0.000000000               0.001281911               0.999999984              -0.000000000               0.001317097               0.999999984              -0.000000000               0.001354542               0.999999984               0.000000000               0.001393586               0.999999984               0.000000000               0.001433784               0.999999984               0.000000000               0.001474535               0.999999984               0.000000000               0.001515305               0.999999984              -0.000000000               0.001555414               0.999999984              -0.000000000               0.001594219               0.999999984               0.000000000               0.001630933               0.999999984              -0.000494997               0.000000000               0.999999984              -0.000538668               0.000000000               0.999999984              -0.000558600               0.000000000               0.999999984              -0.000570236               0.000000000               0.999999984              -0.000579480               0.000000000               0.999999984              -0.000588659               0.000000000               0.999999984              -0.000598695               0.000000000               0.999999984              -0.000609813               0.000000000               0.999999984              -0.000621985               0.000000000               0.999999984              -0.000635090               0.000000000               0.999999984              -0.000648979               0.000000000               0.999999984              -0.000663485              -0.000000000               0.999999984              -0.000678344               0.000000000               0.999999984              -0.000693383               0.000000000               0.999999984              -0.000708202              -0.000000000               0.999999984              -0.000722391               0.000000000               0.999999984              -0.000735556               0.000000000               0.999999984              -0.000492216              -0.000111400               0.999999984              -0.000532952              -0.000092508               0.999999984              -0.000551015              -0.000084968               0.999999984              -0.000561505              -0.000083104               0.999999984              -0.000570062              -0.000084415               0.999999984              -0.000578799              -0.000087353               0.999999984              -0.000588462              -0.000091147               0.999999984              -0.000599192              -0.000095380               0.999999984              -0.000610939              -0.000099636               0.999999984              -0.000623549              -0.000103692               0.999999984              -0.000636781              -0.000107180               0.999999984              -0.000650373              -0.000110003               0.999999984              -0.000664186              -0.000111952               0.999999984              -0.000678050              -0.000112641               0.999999984              -0.000691584              -0.000111595               0.999999984              -0.000704479              -0.000108324               0.999999984              -0.000716416              -0.000101932               0.999999984              -0.000483817              -0.000221658               0.999999984              -0.000515956              -0.000184378               0.999999984              -0.000528908              -0.000170206               0.999999984              -0.000536428              -0.000167320               0.999999984              -0.000543228              -0.000170428               0.999999984              -0.000550812              -0.000176731               0.999999984              -0.000559512              -0.000184567               0.999999984              -0.000569359              -0.000193109               0.999999984              -0.000580054              -0.000201649               0.999999984              -0.000591209              -0.000209610               0.999999984              -0.000602642              -0.000216462               0.999999984              -0.000614110              -0.000222067               0.999999984              -0.000625468              -0.000226237               0.999999984              -0.000636480              -0.000228236               0.999999984              -0.000646919              -0.000227221               0.999999984              -0.000656605              -0.000222529               0.999999984              -0.000665399              -0.000213270               0.999999984              -0.000470060              -0.000329620               0.999999984              -0.000488663              -0.000275046               0.999999984              -0.000494203              -0.000255933               0.999999984              -0.000497808              -0.000253366               0.999999984              -0.000502469              -0.000259184               0.999999984              -0.000508724              -0.000269284               0.999999984              -0.000516398              -0.000281442               0.999999984              -0.000525058              -0.000294379               0.999999984              -0.000534145              -0.000307098               0.999999984              -0.000543388              -0.000318891               0.999999984              -0.000552546              -0.000329262               0.999999984              -0.000561344              -0.000337913               0.999999984              -0.000569417              -0.000344392               0.999999984              -0.000576614              -0.000348158               0.999999984              -0.000582866              -0.000348683               0.999999984              -0.000588312              -0.000345456               0.999999984              -0.000593300              -0.000338121               0.999999984              -0.000451217              -0.000434191               0.999999984              -0.000452504              -0.000364144               0.999999984              -0.000449856              -0.000342112               0.999999984              -0.000449743              -0.000341327               0.999999984              -0.000452748              -0.000350716               0.999999984              -0.000458164              -0.000365077               0.999999984              -0.000464993              -0.000381646               0.999999984              -0.000472456              -0.000398893               0.999999984              -0.000480032              -0.000415633               0.999999984              -0.000487280              -0.000431129               0.999999984              -0.000493799              -0.000444838               0.999999984              -0.000499260              -0.000456488               0.999999984              -0.000503632              -0.000465765               0.999999984              -0.000506887              -0.000472318               0.999999984              -0.000509177              -0.000476170               0.999999984              -0.000510930              -0.000477368               0.999999984              -0.000512510              -0.000475951               0.999999984              -0.000427694              -0.000534244               0.999999984              -0.000409470              -0.000451480               0.999999984              -0.000399461              -0.000428501               0.999999984              -0.000396811              -0.000430641               0.999999984              -0.000399100              -0.000444198               0.999999984              -0.000404244              -0.000463029               0.999999984              -0.000410635              -0.000483925               0.999999984              -0.000417250              -0.000505200               0.999999984              -0.000423347              -0.000525772               0.999999984              -0.000428421              -0.000544787               0.999999984              -0.000432305              -0.000561723               0.999999984              -0.000434765              -0.000576483               0.999999984              -0.000435849              -0.000588957               0.999999984              -0.000435740              -0.000599068               0.999999984              -0.000434706              -0.000607293               0.999999984              -0.000433028              -0.000613844               0.999999984              -0.000430872              -0.000618698               0.999999984              -0.000400044              -0.000628756               0.999999984              -0.000362045              -0.000536827               0.999999984              -0.000346534              -0.000514622               0.999999984              -0.000343106              -0.000520280               0.999999984              -0.000345849              -0.000538074               0.999999984              -0.000351304              -0.000561238               0.999999984              -0.000357550              -0.000586414               0.999999984              -0.000363328              -0.000611715               0.999999984              -0.000367988              -0.000635911               0.999999984              -0.000371136              -0.000658212               0.999999984              -0.000372380              -0.000678331               0.999999984              -0.000371673              -0.000696201               0.999999984              -0.000369335              -0.000711821               0.999999984              -0.000365564              -0.000725620               0.999999984              -0.000360633              -0.000738084               0.999999984              -0.000354590              -0.000749094               0.999999984              -0.000347261              -0.000758058               0.999999984              -0.000368883              -0.000716808               0.999999984              -0.000312593              -0.000619967               0.999999984              -0.000294175              -0.000599674               0.999999984              -0.000291911              -0.000608808               0.999999984              -0.000295992              -0.000630594               0.999999984              -0.000302258              -0.000657956               0.999999984              -0.000308511              -0.000687238               0.999999984              -0.000313510              -0.000716321               0.999999984              -0.000316568              -0.000744154               0.999999984              -0.000317081              -0.000769810               0.999999984              -0.000314989              -0.000792726               0.999999984              -0.000310523              -0.000813149               0.999999984              -0.000303920              -0.000831593               0.999999984              -0.000295545              -0.000848506               0.999999984              -0.000285487              -0.000864215               0.999999984              -0.000273716              -0.000878354               0.999999984              -0.000260356              -0.000890183               0.999999984              -0.000335417              -0.000796846               0.999999984              -0.000262781              -0.000700857               0.999999984              -0.000245136              -0.000682571               0.999999984              -0.000245267              -0.000694782               0.999999984              -0.000251288              -0.000720280               0.999999984              -0.000258581              -0.000751599               0.999999984              -0.000264811              -0.000784788               0.999999984              -0.000268608              -0.000817745               0.999999984              -0.000269237              -0.000848917               0.999999984              -0.000266326              -0.000876992               0.999999984              -0.000259880              -0.000902139               0.999999984              -0.000250325              -0.000924811               0.999999984              -0.000238240              -0.000945729               0.999999984              -0.000224130              -0.000965299               0.999999984              -0.000208283              -0.000983335               0.999999984              -0.000191081              -0.000999665               0.999999984              -0.000173007              -0.001014269               0.999999984              -0.000301287              -0.000871961               0.999999984              -0.000221900              -0.000788808               0.999999984              -0.000201194              -0.000765721               0.999999984              -0.000199968              -0.000772007               0.999999984              -0.000205263              -0.000792708               0.999999984              -0.000212319              -0.000820669               0.999999984              -0.000218738              -0.000852069               0.999999984              -0.000223126              -0.000884649               0.999999984              -0.000224848              -0.000916451               0.999999984              -0.000223100              -0.000946420               0.999999984              -0.000217689              -0.000973693               0.999999984              -0.000208637              -0.000998357               0.999999984              -0.000196424              -0.001021049               0.999999984              -0.000181846              -0.001042266               0.999999984              -0.000165450              -0.001062476               0.999999984              -0.000148050              -0.001081413               0.999999984              -0.000130254              -0.001099094               0.999999984              -0.000263812              -0.000939915               0.999999984              -0.000183773              -0.000873258               0.999999984              -0.000160105              -0.000850395               0.999999984              -0.000156819              -0.000852658               0.999999984              -0.000160833              -0.000869375               0.999999984              -0.000167146              -0.000894285               0.999999984              -0.000173276              -0.000923786               0.999999984              -0.000177851              -0.000955731               0.999999984              -0.000180198              -0.000987974               0.999999984              -0.000179576              -0.001019236               0.999999984              -0.000175347              -0.001048700               0.999999984              -0.000167200              -0.001075793               0.999999984              -0.000155164              -0.001100611               0.999999984              -0.000140080              -0.001123529               0.999999984              -0.000122554              -0.001145244               0.999999984              -0.000103299              -0.001166052               0.999999984              -0.000083181              -0.001186290               0.999999984              -0.000223876              -0.000999187               0.999999984              -0.000148315              -0.000951769               0.999999984              -0.000123071              -0.000932854               0.999999984              -0.000117557              -0.000933868               0.999999984              -0.000119816              -0.000947997               0.999999984              -0.000124783              -0.000970610               0.999999984              -0.000130114              -0.000998592               0.999999984              -0.000134477              -0.001029800               0.999999984              -0.000137052              -0.001062370               0.999999984              -0.000137130              -0.001094947               0.999999984              -0.000133898              -0.001126365               0.999999984              -0.000126891              -0.001156241               0.999999984              -0.000115807              -0.001183963               0.999999984              -0.000100786              -0.001209461               0.999999984              -0.000082214              -0.001233178               0.999999984              -0.000060538              -0.001255829               0.999999984              -0.000036404              -0.001277930               0.999999984              -0.000181775              -0.001048962               0.999999984              -0.000115416              -0.001021311               0.999999984              -0.000090678              -0.001009014               0.999999984              -0.000083560              -0.001011292               0.999999984              -0.000083933              -0.001024663               0.999999984              -0.000087244              -0.001046052               0.999999984              -0.000091322              -0.001073187               0.999999984              -0.000094921              -0.001104155               0.999999984              -0.000097403              -0.001137067               0.999999984              -0.000097889              -0.001170890               0.999999984              -0.000095345              -0.001204505               0.999999984              -0.000089419              -0.001237178               0.999999984              -0.000079846              -0.001268309               0.999999984              -0.000066072              -0.001297488               0.999999984              -0.000047604              -0.001324614               0.999999984              -0.000024384              -0.001350140               0.999999984               0.000003454              -0.001374588               0.999999984              -0.000137925              -0.001088392               0.999999984              -0.000084707              -0.001078911               0.999999984              -0.000062963              -0.001074489               0.999999984              -0.000055442              -0.001079750               0.999999984              -0.000054394              -0.001093947               0.999999984              -0.000056105              -0.001115295               0.999999984              -0.000058774              -0.001142343               0.999999984              -0.000061462              -0.001173406               0.999999984              -0.000063443              -0.001206986               0.999999984              -0.000063908              -0.001242111               0.999999984              -0.000061982              -0.001277773               0.999999984              -0.000057359              -0.001313222               0.999999984              -0.000049703              -0.001347759               0.999999984              -0.000038164              -0.001381001               0.999999984              -0.000021855              -0.001412538               0.999999984               0.000000196              -0.001442237               0.999999984               0.000028580              -0.001470262               0.999999984              -0.000092716              -0.001116934               0.999999984              -0.000055616              -0.001121993               0.999999984              -0.000039410              -0.001125017               0.999999984              -0.000033065              -0.001133814               0.999999984              -0.000031477              -0.001149609               0.999999984              -0.000032010              -0.001171675               0.999999984              -0.000033547              -0.001199072               0.999999984              -0.000035295              -0.001230559               0.999999984              -0.000036558              -0.001264899               0.999999984              -0.000036812              -0.001301224               0.999999984              -0.000035529              -0.001338663               0.999999984              -0.000032428              -0.001376541               0.999999984              -0.000026981              -0.001414208               0.999999984              -0.000018607              -0.001451202               0.999999984              -0.000006345              -0.001486976               0.999999984               0.000011066              -0.001521132               0.999999984               0.000034796              -0.001553279               0.999999984              -0.000046566              -0.001134237               0.999999984              -0.000027567              -0.001148633               0.999999984              -0.000018936              -0.001156951               0.999999984              -0.000015286              -0.001168648               0.999999984              -0.000014144              -0.001185910               0.999999984              -0.000014171              -0.001208707               0.999999984              -0.000014849              -0.001236586               0.999999984              -0.000015676              -0.001268513               0.999999984              -0.000016265              -0.001303465               0.999999984              -0.000016323              -0.001340640               0.999999984              -0.000015726              -0.001379274               0.999999984              -0.000014098              -0.001418884               0.999999984              -0.000011300              -0.001458814               0.999999984              -0.000006922              -0.001498570               0.999999984              -0.000000179              -0.001537525               0.999999984               0.000009440              -0.001575096               0.999999984               0.000022916              -0.001610528               0.999999984              -0.000000000              -0.001139947               0.999999984              -0.000000000              -0.001157597               0.999999984              -0.000000000              -0.001167948               0.999999984               0.000000000              -0.001180736               0.999999984               0.000000000              -0.001198530               0.999999984              -0.000000000              -0.001221599               0.999999984               0.000000000              -0.001249686               0.999999984              -0.000000000              -0.001281911               0.999999984              -0.000000000              -0.001317097               0.999999984               0.000000000              -0.001354542               0.999999984               0.000000000              -0.001393586               0.999999984               0.000000000              -0.001433784               0.999999984               0.000000000              -0.001474535               0.999999984              -0.000000000              -0.001515305               0.999999984              -0.000000000              -0.001555414               0.999999984               0.000000000              -0.001594219               0.999999984              -0.000000000              -0.001630933               0.999999984               0.000494997               0.000000000               0.999999984               0.000538668               0.000000000               0.999999984               0.000558600               0.000000000               0.999999984               0.000570236               0.000000000               0.999999984               0.000579480               0.000000000               0.999999984               0.000588659               0.000000000               0.999999984               0.000598695               0.000000000               0.999999984               0.000609813               0.000000000               0.999999984               0.000621985               0.000000000               0.999999984               0.000635090               0.000000000               0.999999984               0.000648979               0.000000000               0.999999984               0.000663485               0.000000000               0.999999984               0.000678344               0.000000000               0.999999984               0.000693383               0.000000000               0.999999984               0.000708202               0.000000000               0.999999984               0.000722391              -0.000000000               0.999999984               0.000735556              -0.000000000               0.999999984               0.000492216              -0.000111400               0.999999984               0.000532952              -0.000092508               0.999999984               0.000551015              -0.000084968               0.999999984               0.000561505              -0.000083104               0.999999984               0.000570062              -0.000084415               0.999999984               0.000578799              -0.000087353               0.999999984               0.000588462              -0.000091147               0.999999984               0.000599192              -0.000095380               0.999999984               0.000610939              -0.000099636               0.999999984               0.000623549              -0.000103692               0.999999984               0.000636781              -0.000107180               0.999999984               0.000650373              -0.000110003               0.999999984               0.000664186              -0.000111952               0.999999984               0.000678050              -0.000112641               0.999999984               0.000691584              -0.000111595               0.999999984               0.000704479              -0.000108324               0.999999984               0.000716416              -0.000101932               0.999999984               0.000483817              -0.000221658               0.999999984               0.000515956              -0.000184378               0.999999984               0.000528908              -0.000170206               0.999999984               0.000536428              -0.000167320               0.999999984               0.000543228              -0.000170428               0.999999984               0.000550812              -0.000176731               0.999999984               0.000559512              -0.000184567               0.999999984               0.000569359              -0.000193109               0.999999984               0.000580054              -0.000201649               0.999999984               0.000591209              -0.000209610               0.999999984               0.000602642              -0.000216462               0.999999984               0.000614110              -0.000222067               0.999999984               0.000625468              -0.000226237               0.999999984               0.000636480              -0.000228236               0.999999984               0.000646919              -0.000227221               0.999999984               0.000656605              -0.000222529               0.999999984               0.000665399              -0.000213270               0.999999984               0.000470060              -0.000329620               0.999999984               0.000488663              -0.000275046               0.999999984               0.000494203              -0.000255933               0.999999984               0.000497808              -0.000253366               0.999999984               0.000502469              -0.000259184               0.999999984               0.000508724              -0.000269284               0.999999984               0.000516398              -0.000281442               0.999999984               0.000525058              -0.000294379               0.999999984               0.000534145              -0.000307098               0.999999984               0.000543388              -0.000318891               0.999999984               0.000552546              -0.000329262               0.999999984               0.000561344              -0.000337913               0.999999984               0.000569417              -0.000344392               0.999999984               0.000576614              -0.000348158               0.999999984               0.000582866              -0.000348683               0.999999984               0.000588312              -0.000345456               0.999999984               0.000593300              -0.000338121               0.999999984               0.000451217              -0.000434191               0.999999984               0.000452504              -0.000364144               0.999999984               0.000449856              -0.000342112               0.999999984               0.000449743              -0.000341327               0.999999984               0.000452748              -0.000350716               0.999999984               0.000458164              -0.000365077               0.999999984               0.000464993              -0.000381646               0.999999984               0.000472456              -0.000398893               0.999999984               0.000480032              -0.000415633               0.999999984               0.000487280              -0.000431129               0.999999984               0.000493799              -0.000444838               0.999999984               0.000499260              -0.000456488               0.999999984               0.000503632              -0.000465765               0.999999984               0.000506887              -0.000472318               0.999999984               0.000509177              -0.000476170               0.999999984               0.000510930              -0.000477368               0.999999984               0.000512510              -0.000475951               0.999999984               0.000427694              -0.000534244               0.999999984               0.000409470              -0.000451480               0.999999984               0.000399461              -0.000428501               0.999999984               0.000396811              -0.000430641               0.999999984               0.000399100              -0.000444198               0.999999984               0.000404244              -0.000463029               0.999999984               0.000410635              -0.000483925               0.999999984               0.000417250              -0.000505200               0.999999984               0.000423347              -0.000525772               0.999999984               0.000428421              -0.000544787               0.999999984               0.000432305              -0.000561723               0.999999984               0.000434765              -0.000576483               0.999999984               0.000435849              -0.000588957               0.999999984               0.000435740              -0.000599068               0.999999984               0.000434706              -0.000607293               0.999999984               0.000433028              -0.000613844               0.999999984               0.000430872              -0.000618698               0.999999984               0.000400044              -0.000628756               0.999999984               0.000362045              -0.000536827               0.999999984               0.000346534              -0.000514622               0.999999984               0.000343106              -0.000520280               0.999999984               0.000345849              -0.000538074               0.999999984               0.000351304              -0.000561238               0.999999984               0.000357550              -0.000586414               0.999999984               0.000363328              -0.000611715               0.999999984               0.000367988              -0.000635911               0.999999984               0.000371136              -0.000658212               0.999999984               0.000372380              -0.000678331               0.999999984               0.000371673              -0.000696201               0.999999984               0.000369335              -0.000711821               0.999999984               0.000365564              -0.000725620               0.999999984               0.000360633              -0.000738084               0.999999984               0.000354590              -0.000749094               0.999999984               0.000347261              -0.000758058               0.999999984               0.000368883              -0.000716808               0.999999984               0.000312593              -0.000619967               0.999999984               0.000294175              -0.000599674               0.999999984               0.000291911              -0.000608808               0.999999984               0.000295992              -0.000630594               0.999999984               0.000302258              -0.000657956               0.999999984               0.000308511              -0.000687238               0.999999984               0.000313510              -0.000716321               0.999999984               0.000316568              -0.000744154               0.999999984               0.000317081              -0.000769810               0.999999984               0.000314989              -0.000792726               0.999999984               0.000310523              -0.000813149               0.999999984               0.000303920              -0.000831593               0.999999984               0.000295545              -0.000848506               0.999999984               0.000285487              -0.000864215               0.999999984               0.000273716              -0.000878354               0.999999984               0.000260356              -0.000890183               0.999999984               0.000335417              -0.000796846               0.999999984               0.000262781              -0.000700857               0.999999984               0.000245136              -0.000682571               0.999999984               0.000245267              -0.000694782               0.999999984               0.000251288              -0.000720280               0.999999984               0.000258581              -0.000751599               0.999999984               0.000264811              -0.000784788               0.999999984               0.000268608              -0.000817745               0.999999984               0.000269237              -0.000848917               0.999999984               0.000266326              -0.000876992               0.999999984               0.000259880              -0.000902139               0.999999984               0.000250325              -0.000924811               0.999999984               0.000238240              -0.000945729               0.999999984               0.000224130              -0.000965299               0.999999984               0.000208283              -0.000983335               0.999999984               0.000191081              -0.000999665               0.999999984               0.000173007              -0.001014269               0.999999984               0.000301287              -0.000871961               0.999999984               0.000221900              -0.000788808               0.999999984               0.000201194              -0.000765721               0.999999984               0.000199968              -0.000772007               0.999999984               0.000205263              -0.000792708               0.999999984               0.000212319              -0.000820669               0.999999984               0.000218738              -0.000852069               0.999999984               0.000223126              -0.000884649               0.999999984               0.000224848              -0.000916451               0.999999984               0.000223100              -0.000946420               0.999999984               0.000217689              -0.000973693               0.999999984               0.000208637              -0.000998357               0.999999984               0.000196424              -0.001021049               0.999999984               0.000181846              -0.001042266               0.999999984               0.000165450              -0.001062476               0.999999984               0.000148050              -0.001081413               0.999999984               0.000130254              -0.001099094               0.999999984               0.000263812              -0.000939915               0.999999984               0.000183773              -0.000873258               0.999999984               0.000160105              -0.000850395               0.999999984               0.000156819              -0.000852658               0.999999984               0.000160833              -0.000869375               0.999999984               0.000167146              -0.000894285               0.999999984               0.000173276              -0.000923786               0.999999984               0.000177851              -0.000955731               0.999999984               0.000180198              -0.000987974               0.999999984               0.000179576              -0.001019236               0.999999984               0.000175347              -0.001048700               0.999999984               0.000167200              -0.001075793               0.999999984               0.000155164              -0.001100611               0.999999984               0.000140080              -0.001123529               0.999999984               0.000122554              -0.001145244               0.999999984               0.000103299              -0.001166052               0.999999984               0.000083181              -0.001186290               0.999999984               0.000223876              -0.000999187               0.999999984               0.000148315              -0.000951769               0.999999984               0.000123071              -0.000932854               0.999999984               0.000117557              -0.000933868               0.999999984               0.000119816              -0.000947997               0.999999984               0.000124783              -0.000970610               0.999999984               0.000130114              -0.000998592               0.999999984               0.000134477              -0.001029800               0.999999984               0.000137052              -0.001062370               0.999999984               0.000137130              -0.001094947               0.999999984               0.000133898              -0.001126365               0.999999984               0.000126891              -0.001156241               0.999999984               0.000115807              -0.001183963               0.999999984               0.000100786              -0.001209461               0.999999984               0.000082214              -0.001233178               0.999999984               0.000060538              -0.001255829               0.999999984               0.000036404              -0.001277930               0.999999984               0.000181775              -0.001048962               0.999999984               0.000115416              -0.001021311               0.999999984               0.000090678              -0.001009014               0.999999984               0.000083560              -0.001011292               0.999999984               0.000083933              -0.001024663               0.999999984               0.000087244              -0.001046052               0.999999984               0.000091322              -0.001073187               0.999999984               0.000094921              -0.001104155               0.999999984               0.000097403              -0.001137067               0.999999984               0.000097889              -0.001170890               0.999999984               0.000095345              -0.001204505               0.999999984               0.000089419              -0.001237178               0.999999984               0.000079846              -0.001268309               0.999999984               0.000066072              -0.001297488               0.999999984               0.000047604              -0.001324614               0.999999984               0.000024384              -0.001350140               0.999999984              -0.000003454              -0.001374588               0.999999984               0.000137925              -0.001088392               0.999999984               0.000084707              -0.001078911               0.999999984               0.000062963              -0.001074489               0.999999984               0.000055442              -0.001079750               0.999999984               0.000054394              -0.001093947               0.999999984               0.000056105              -0.001115295               0.999999984               0.000058774              -0.001142343               0.999999984               0.000061462              -0.001173406               0.999999984               0.000063443              -0.001206986               0.999999984               0.000063908              -0.001242111               0.999999984               0.000061982              -0.001277773               0.999999984               0.000057359              -0.001313222               0.999999984               0.000049703              -0.001347759               0.999999984               0.000038164              -0.001381001               0.999999984               0.000021855              -0.001412538               0.999999984              -0.000000196              -0.001442237               0.999999984              -0.000028580              -0.001470262               0.999999984               0.000092716              -0.001116934               0.999999984               0.000055616              -0.001121993               0.999999984               0.000039410              -0.001125017               0.999999984               0.000033065              -0.001133814               0.999999984               0.000031477              -0.001149609               0.999999984               0.000032010              -0.001171675               0.999999984               0.000033547              -0.001199072               0.999999984               0.000035295              -0.001230559               0.999999984               0.000036558              -0.001264899               0.999999984               0.000036812              -0.001301224               0.999999984               0.000035529              -0.001338663               0.999999984               0.000032428              -0.001376541               0.999999984               0.000026981              -0.001414208               0.999999984               0.000018607              -0.001451202               0.999999984               0.000006345              -0.001486976               0.999999984              -0.000011066              -0.001521132               0.999999984              -0.000034796              -0.001553279               0.999999984               0.000046566              -0.001134237               0.999999984               0.000027567              -0.001148633               0.999999984               0.000018936              -0.001156951               0.999999984               0.000015286              -0.001168648               0.999999984               0.000014144              -0.001185910               0.999999984               0.000014171              -0.001208707               0.999999984               0.000014849              -0.001236586               0.999999984               0.000015676              -0.001268513               0.999999984               0.000016265              -0.001303465               0.999999984               0.000016323              -0.001340640               0.999999984               0.000015726              -0.001379274               0.999999984               0.000014098              -0.001418884               0.999999984               0.000011300              -0.001458814               0.999999984               0.000006922              -0.001498570               0.999999984               0.000000179              -0.001537525               0.999999984              -0.000009440              -0.001575096               0.999999984              -0.000022916              -0.001610528               0.999999984              -0.000000000              -0.001139947               0.999999984              -0.000000000              -0.001157597               0.999999984              -0.000000000              -0.001167948               0.999999984               0.000000000              -0.001180736               0.999999984               0.000000000              -0.001198530               0.999999984              -0.000000000              -0.001221599               0.999999984               0.000000000              -0.001249686               0.999999984              -0.000000000              -0.001281911               0.999999984              -0.000000000              -0.001317097               0.999999984               0.000000000              -0.001354542               0.999999984               0.000000000              -0.001393586               0.999999984               0.000000000              -0.001433784               0.999999984               0.000000000              -0.001474535               0.999999984              -0.000000000              -0.001515305               0.999999984              -0.000000000              -0.001555414               0.999999984               0.000000000              -0.001594219               0.999999984              -0.000000000              -0.001630933               0.999999984               0.000494997               0.000000000               0.999999984               0.000538668               0.000000000               0.999999984               0.000558600               0.000000000               0.999999984               0.000570236               0.000000000               0.999999984               0.000579480               0.000000000               0.999999984               0.000588659               0.000000000               0.999999984               0.000598695               0.000000000               0.999999984               0.000609813               0.000000000               0.999999984               0.000621985               0.000000000               0.999999984               0.000635090               0.000000000               0.999999984               0.000648979               0.000000000               0.999999984               0.000663485               0.000000000               0.999999984               0.000678344               0.000000000               0.999999984               0.000693383               0.000000000               0.999999984               0.000708202               0.000000000               0.999999984               0.000722391              -0.000000000               0.999999984               0.000735556              -0.000000000               0.999999984               0.000492216               0.000111400               0.999999984               0.000532952               0.000092508               0.999999984               0.000551015               0.000084968               0.999999984               0.000561505               0.000083104               0.999999984               0.000570062               0.000084415               0.999999984               0.000578799               0.000087353               0.999999984               0.000588462               0.000091147               0.999999984               0.000599192               0.000095380               0.999999984               0.000610939               0.000099636               0.999999984               0.000623549               0.000103692               0.999999984               0.000636781               0.000107180               0.999999984               0.000650373               0.000110003               0.999999984               0.000664186               0.000111952               0.999999984               0.000678050               0.000112641               0.999999984               0.000691584               0.000111595               0.999999984               0.000704479               0.000108324               0.999999984               0.000716416               0.000101932               0.999999984               0.000483817               0.000221658               0.999999984               0.000515956               0.000184378               0.999999984               0.000528908               0.000170206               0.999999984               0.000536428               0.000167320               0.999999984               0.000543228               0.000170428               0.999999984               0.000550812               0.000176731               0.999999984               0.000559512               0.000184567               0.999999984               0.000569359               0.000193109               0.999999984               0.000580054               0.000201649               0.999999984               0.000591209               0.000209610               0.999999984               0.000602642               0.000216462               0.999999984               0.000614110               0.000222067               0.999999984               0.000625468               0.000226237               0.999999984               0.000636480               0.000228236               0.999999984               0.000646919               0.000227221               0.999999984               0.000656605               0.000222529               0.999999984               0.000665399               0.000213270               0.999999984               0.000470060               0.000329620               0.999999984               0.000488663               0.000275046               0.999999984               0.000494203               0.000255933               0.999999984               0.000497808               0.000253366               0.999999984               0.000502469               0.000259184               0.999999984               0.000508724               0.000269284               0.999999984               0.000516398               0.000281442               0.999999984               0.000525058               0.000294379               0.999999984               0.000534145               0.000307098               0.999999984               0.000543388               0.000318891               0.999999984               0.000552546               0.000329262               0.999999984               0.000561344               0.000337913               0.999999984               0.000569417               0.000344392               0.999999984               0.000576614               0.000348158               0.999999984               0.000582866               0.000348683               0.999999984               0.000588312               0.000345456               0.999999984               0.000593300               0.000338121               0.999999984               0.000451217               0.000434191               0.999999984               0.000452504               0.000364144               0.999999984               0.000449856               0.000342112               0.999999984               0.000449743               0.000341327               0.999999984               0.000452748               0.000350716               0.999999984               0.000458164               0.000365077               0.999999984               0.000464993               0.000381646               0.999999984               0.000472456               0.000398893               0.999999984               0.000480032               0.000415633               0.999999984               0.000487280               0.000431129               0.999999984               0.000493799               0.000444838               0.999999984               0.000499260               0.000456488               0.999999984               0.000503632               0.000465765               0.999999984               0.000506887               0.000472318               0.999999984               0.000509177               0.000476170               0.999999984               0.000510930               0.000477368               0.999999984               0.000512510               0.000475951               0.999999984               0.000427694               0.000534244               0.999999984               0.000409470               0.000451480               0.999999984               0.000399461               0.000428501               0.999999984               0.000396811               0.000430641               0.999999984               0.000399100               0.000444198               0.999999984               0.000404244               0.000463029               0.999999984               0.000410635               0.000483925               0.999999984               0.000417250               0.000505200               0.999999984               0.000423347               0.000525772               0.999999984               0.000428421               0.000544787               0.999999984               0.000432305               0.000561723               0.999999984               0.000434765               0.000576483               0.999999984               0.000435849               0.000588957               0.999999984               0.000435740               0.000599068               0.999999984               0.000434706               0.000607293               0.999999984               0.000433028               0.000613844               0.999999984               0.000430872               0.000618698               0.999999984               0.000400044               0.000628756               0.999999984               0.000362045               0.000536827               0.999999984               0.000346534               0.000514622               0.999999984               0.000343106               0.000520280               0.999999984               0.000345849               0.000538074               0.999999984               0.000351304               0.000561238               0.999999984               0.000357550               0.000586414               0.999999984               0.000363328               0.000611715               0.999999984               0.000367988               0.000635911               0.999999984               0.000371136               0.000658212               0.999999984               0.000372380               0.000678331               0.999999984               0.000371673               0.000696201               0.999999984               0.000369335               0.000711821               0.999999984               0.000365564               0.000725620               0.999999984               0.000360633               0.000738084               0.999999984               0.000354590               0.000749094               0.999999984               0.000347261               0.000758058               0.999999984               0.000368883               0.000716808               0.999999984               0.000312593               0.000619967               0.999999984               0.000294175               0.000599674               0.999999984               0.000291911               0.000608808               0.999999984               0.000295992               0.000630594               0.999999984               0.000302258               0.000657956               0.999999984               0.000308511               0.000687238               0.999999984               0.000313510               0.000716321               0.999999984               0.000316568               0.000744154               0.999999984               0.000317081               0.000769810               0.999999984               0.000314989               0.000792726               0.999999984               0.000310523               0.000813149               0.999999984               0.000303920               0.000831593               0.999999984               0.000295545               0.000848506               0.999999984               0.000285487               0.000864215               0.999999984               0.000273716               0.000878354               0.999999984               0.000260356               0.000890183               0.999999984               0.000335417               0.000796846               0.999999984               0.000262781               0.000700857               0.999999984               0.000245136               0.000682571               0.999999984               0.000245267               0.000694782               0.999999984               0.000251288               0.000720280               0.999999984               0.000258581               0.000751599               0.999999984               0.000264811               0.000784788               0.999999984               0.000268608               0.000817745               0.999999984               0.000269237               0.000848917               0.999999984               0.000266326               0.000876992               0.999999984               0.000259880               0.000902139               0.999999984               0.000250325               0.000924811               0.999999984               0.000238240               0.000945729               0.999999984               0.000224130               0.000965299               0.999999984               0.000208283               0.000983335               0.999999984               0.000191081               0.000999665               0.999999984               0.000173007               0.001014269               0.999999984               0.000301287               0.000871961               0.999999984               0.000221900               0.000788808               0.999999984               0.000201194               0.000765721               0.999999984               0.000199968               0.000772007               0.999999984               0.000205263               0.000792708               0.999999984               0.000212319               0.000820669               0.999999984               0.000218738               0.000852069               0.999999984               0.000223126               0.000884649               0.999999984               0.000224848               0.000916451               0.999999984               0.000223100               0.000946420               0.999999984               0.000217689               0.000973693               0.999999984               0.000208637               0.000998357               0.999999984               0.000196424               0.001021049               0.999999984               0.000181846               0.001042266               0.999999984               0.000165450               0.001062476               0.999999984               0.000148050               0.001081413               0.999999984               0.000130254               0.001099094               0.999999984               0.000263812               0.000939915               0.999999984               0.000183773               0.000873258               0.999999984               0.000160105               0.000850395               0.999999984               0.000156819               0.000852658               0.999999984               0.000160833               0.000869375               0.999999984               0.000167146               0.000894285               0.999999984               0.000173276               0.000923786               0.999999984               0.000177851               0.000955731               0.999999984               0.000180198               0.000987974               0.999999984               0.000179576               0.001019236               0.999999984               0.000175347               0.001048700               0.999999984               0.000167200               0.001075793               0.999999984               0.000155164               0.001100611               0.999999984               0.000140080               0.001123529               0.999999984               0.000122554               0.001145244               0.999999984               0.000103299               0.001166052               0.999999984               0.000083181               0.001186290               0.999999984               0.000223876               0.000999187               0.999999984               0.000148315               0.000951769               0.999999984               0.000123071               0.000932854               0.999999984               0.000117557               0.000933868               0.999999984               0.000119816               0.000947997               0.999999984               0.000124783               0.000970610               0.999999984               0.000130114               0.000998592               0.999999984               0.000134477               0.001029800               0.999999984               0.000137052               0.001062370               0.999999984               0.000137130               0.001094947               0.999999984               0.000133898               0.001126365               0.999999984               0.000126891               0.001156241               0.999999984               0.000115807               0.001183963               0.999999984               0.000100786               0.001209461               0.999999984               0.000082214               0.001233178               0.999999984               0.000060538               0.001255829               0.999999984               0.000036404               0.001277930               0.999999984               0.000181775               0.001048962               0.999999984               0.000115416               0.001021311               0.999999984               0.000090678               0.001009014               0.999999984               0.000083560               0.001011292               0.999999984               0.000083933               0.001024663               0.999999984               0.000087244               0.001046052               0.999999984               0.000091322               0.001073187               0.999999984               0.000094921               0.001104155               0.999999984               0.000097403               0.001137067               0.999999984               0.000097889               0.001170890               0.999999984               0.000095345               0.001204505               0.999999984               0.000089419               0.001237178               0.999999984               0.000079846               0.001268309               0.999999984               0.000066072               0.001297488               0.999999984               0.000047604               0.001324614               0.999999984               0.000024384               0.001350140               0.999999984              -0.000003454               0.001374588               0.999999984               0.000137925               0.001088392               0.999999984               0.000084707               0.001078911               0.999999984               0.000062963               0.001074489               0.999999984               0.000055442               0.001079750               0.999999984               0.000054394               0.001093947               0.999999984               0.000056105               0.001115295               0.999999984               0.000058774               0.001142343               0.999999984               0.000061462               0.001173406               0.999999984               0.000063443               0.001206986               0.999999984               0.000063908               0.001242111               0.999999984               0.000061982               0.001277773               0.999999984               0.000057359               0.001313222               0.999999984               0.000049703               0.001347759               0.999999984               0.000038164               0.001381001               0.999999984               0.000021855               0.001412538               0.999999984              -0.000000196               0.001442237               0.999999984              -0.000028580               0.001470262               0.999999984               0.000092716               0.001116934               0.999999984               0.000055616               0.001121993               0.999999984               0.000039410               0.001125017               0.999999984               0.000033065               0.001133814               0.999999984               0.000031477               0.001149609               0.999999984               0.000032010               0.001171675               0.999999984               0.000033547               0.001199072               0.999999984               0.000035295               0.001230559               0.999999984               0.000036558               0.001264899               0.999999984               0.000036812               0.001301224               0.999999984               0.000035529               0.001338663               0.999999984               0.000032428               0.001376541               0.999999984               0.000026981               0.001414208               0.999999984               0.000018607               0.001451202               0.999999984               0.000006345               0.001486976               0.999999984              -0.000011066               0.001521132               0.999999984              -0.000034796               0.001553279               0.999999984               0.000046566               0.001134237               0.999999984               0.000027567               0.001148633               0.999999984               0.000018936               0.001156951               0.999999984               0.000015286               0.001168648               0.999999984               0.000014144               0.001185910               0.999999984               0.000014171               0.001208707               0.999999984               0.000014849               0.001236586               0.999999984               0.000015676               0.001268513               0.999999984               0.000016265               0.001303465               0.999999984               0.000016323               0.001340640               0.999999984               0.000015726               0.001379274               0.999999984               0.000014098               0.001418884               0.999999984               0.000011300               0.001458814               0.999999984               0.000006922               0.001498570               0.999999984               0.000000179               0.001537525               0.999999984              -0.000009440               0.001575096               0.999999984              -0.000022916               0.001610528               0.999999984               0.000000000               0.001139947               0.999999984               0.000000000               0.001157597               0.999999984               0.000000000               0.001167948               0.999999984               0.000000000               0.001180736               0.999999984              -0.000000000               0.001198530               0.999999984              -0.000000000               0.001221599               0.999999984              -0.000000000               0.001249686               0.999999984               0.000000000               0.001281911               0.999999984              -0.000000000               0.001317097               0.999999984              -0.000000000               0.001354542               0.999999984               0.000000000               0.001393586               0.999999984               0.000000000               0.001433784               0.999999984               0.000000000               0.001474535               0.999999984               0.000000000               0.001515305               0.999999984              -0.000000000               0.001555414               0.999999984              -0.000000000               0.001594219               0.999999984               0.000000000               0.001630933               0.999999984 </DataArray>
<DataArray type="Float64"                                    Name="stress"                                                      NumberOfComponents="10" format="ascii">
              0.001839251               0.020465443               0.000000000              -0.001868457               0.007444565               0.005576108               0.000000000               0.000000000               0.000000000               0.000000000               0.001842174               0.016177659               0.000000000              -0.001331389               0.005836295               0.004504906               0.000000000               0.000000000               0.000000000               0.000000000               0.002443461               0.012714218               0.000000000              -0.000672978               0.004462356               0.003789378               0.000000000               0.000000000               0.000000000               0.000000000               0.002375795               0.010777497               0.000000000              -0.000456263               0.003744551               0.003288288               0.000000000               0.000000000               0.000000000               0.000000000               0.002103395               0.009585391              -0.000000000              -0.000409400               0.003331565               0.002922165               0.000000000               0.000000000               0.000000000               0.000000000               0.001783524               0.008779453               0.000000000              -0.000428609               0.003069325               0.002640716               0.000000000               0.000000000               0.000000000               0.000000000               0.001476043               0.008191209               0.000000000              -0.000470384               0.002887170               0.002416786               0.000000000               0.000000000               0.000000000               0.000000000               0.001202995               0.007734482              -0.000000000              -0.000515686               0.002750030               0.002234344               0.000000000               0.000000000               0.000000000               0.000000000               0.000964329               0.007352763              -0.000000000              -0.000557471               0.002636720               0.002079249               0.000000000               0.000000000               0.000000000               0.000000000               0.000757109               0.007012524              -0.000000000              -0.000592648               0.002535034               0.001942386               0.000000000               0.000000000               0.000000000               0.000000000               0.000576335               0.006687498              -0.000000000              -0.000619810               0.002435747               0.001815937               0.000000000               0.000000000               0.000000000               0.000000000               0.000420793               0.006366915              -0.000000000              -0.000638065               0.002334972               0.001696907               0.000000000               0.000000000               0.000000000               0.000000000               0.000284935               0.006037989               0.000000000              -0.000647896               0.002228608               0.001580712               0.000000000               0.000000000               0.000000000               0.000000000               0.000174483               0.005686591              -0.000000000              -0.000645391               0.002110642               0.001465250               0.000000000               0.000000000               0.000000000               0.000000000               0.000096238               0.005298244              -0.000000000              -0.000626190               0.001974794               0.001348604               0.000000000               0.000000000               0.000000000               0.000000000               0.000042299               0.004852873               0.000000000              -0.000590746               0.001814524               0.001223778               0.000000000               0.000000000               0.000000000               0.000000000              -0.000015501               0.004509231              -0.000000000              -0.000569465               0.001692884               0.001123418               0.000000000               0.000000000               0.000000000               0.000000000               0.001911730               0.020057435              -0.001414586              -0.001790277               0.007282504               0.005492227               0.000000000               0.000000000               0.000000000               0.000000000               0.001817713               0.015912484              -0.000739270              -0.001307415               0.005739913               0.004432498               0.000000000               0.000000000               0.000000000               0.000000000               0.002314942               0.012600131              -0.000066583              -0.000706912               0.004435639               0.003728727               0.000000000               0.000000000               0.000000000               0.000000000               0.002205364               0.010743104               0.000219881              -0.000515875               0.003752957               0.003237082               0.000000000               0.000000000               0.000000000               0.000000000               0.001921067               0.009588907               0.000338931              -0.000478212               0.003355674               0.002877462               0.000000000               0.000000000               0.000000000               0.000000000               0.001608502               0.008805072               0.000380308              -0.000497445               0.003100810               0.002603365               0.000000000               0.000000000               0.000000000               0.000000000               0.001315741               0.008227640               0.000389279              -0.000535051               0.002920869               0.002385819               0.000000000               0.000000000               0.000000000               0.000000000               0.001058888               0.007773608               0.000382003              -0.000574617               0.002782716               0.002208099               0.000000000               0.000000000               0.000000000               0.000000000               0.000838435               0.007391599               0.000366683              -0.000609535               0.002667020               0.002057485               0.000000000               0.000000000               0.000000000               0.000000000               0.000649941               0.007047648               0.000346966              -0.000637227               0.002561601               0.001924375               0.000000000               0.000000000               0.000000000               0.000000000               0.000490408               0.006720993               0.000326195              -0.000656220               0.002459048               0.001802829               0.000000000               0.000000000               0.000000000               0.000000000               0.000354118               0.006402503               0.000306735              -0.000667517               0.002356652               0.001689135               0.000000000               0.000000000               0.000000000               0.000000000               0.000235188               0.006082899               0.000280571              -0.000672165               0.002251668               0.001579502               0.000000000               0.000000000               0.000000000               0.000000000               0.000141363               0.005749427               0.000241324              -0.000665666               0.002138345               0.001472679               0.000000000               0.000000000               0.000000000               0.000000000               0.000075692               0.005388172               0.000186560              -0.000645135               0.002011085               0.001365949               0.000000000               0.000000000               0.000000000               0.000000000               0.000031632               0.004986579               0.000107947              -0.000611459               0.001865996               0.001254537               0.000000000               0.000000000               0.000000000               0.000000000              -0.000015909               0.004687371               0.000066688              -0.000591886               0.001759737               0.001167851               0.000000000               0.000000000               0.000000000               0.000000000               0.002095360               0.018886172              -0.002635762              -0.001575009               0.006820330               0.005245322               0.000000000               0.000000000               0.000000000               0.000000000               0.001729931               0.015154745              -0.001378276              -0.001245616               0.005466737               0.004221120               0.000000000               0.000000000               0.000000000               0.000000000               0.001937253               0.012273503              -0.000136863              -0.000807716               0.004360366               0.003552650               0.000000000               0.000000000               0.000000000               0.000000000               0.001723013               0.010636762               0.000372537              -0.000683464               0.003773373               0.003089909               0.000000000               0.000000000               0.000000000               0.000000000               0.001420111               0.009590327               0.000578777              -0.000666248               0.003418826               0.002752578               0.000000000               0.000000000               0.000000000               0.000000000               0.001131875               0.008859026               0.000648982              -0.000682924               0.003180620               0.002497697               0.000000000               0.000000000               0.000000000               0.000000000               0.000880150               0.008306202               0.000659881              -0.000708217               0.003004779               0.002296561               0.000000000               0.000000000               0.000000000               0.000000000               0.000670805               0.007859510               0.000644799              -0.000730885               0.002863439               0.002132554               0.000000000               0.000000000               0.000000000               0.000000000               0.000505622               0.007477613               0.000616407              -0.000745092               0.002740876               0.001995785               0.000000000               0.000000000               0.000000000               0.000000000               0.000371153               0.007131678               0.000579059              -0.000752276               0.002627961               0.001875685               0.000000000               0.000000000               0.000000000               0.000000000               0.000261408               0.006809471               0.000538874              -0.000753154               0.002520852               0.001767698               0.000000000               0.000000000               0.000000000               0.000000000               0.000173569               0.006502161               0.000500040              -0.000747680               0.002416592               0.001668912               0.000000000               0.000000000               0.000000000               0.000000000               0.000102747               0.006200751               0.000452082              -0.000736562               0.002312417               0.001575855               0.000000000               0.000000000               0.000000000               0.000000000               0.000052293               0.005902745               0.000382597              -0.000718231               0.002206972               0.001488741               0.000000000               0.000000000               0.000000000               0.000000000               0.000021194               0.005607493               0.000288367              -0.000692987               0.002100141               0.001407154               0.000000000               0.000000000               0.000000000               0.000000000               0.000005469               0.005316401               0.000162697              -0.000662497               0.001992948               0.001330451               0.000000000               0.000000000               0.000000000               0.000000000              -0.000016270               0.005123558               0.000096695              -0.000646544               0.001923350               0.001276806               0.000000000               0.000000000               0.000000000               0.000000000               0.002298015               0.017102064              -0.003521455              -0.001276001               0.006125964               0.004849963               0.000000000               0.000000000               0.000000000               0.000000000               0.001553449               0.014013075              -0.001851657              -0.001169089               0.005060674               0.003891585               0.000000000               0.000000000               0.000000000               0.000000000               0.001355838               0.011776224              -0.000224080              -0.000963587               0.004246564               0.003282978               0.000000000               0.000000000               0.000000000               0.000000000               0.001018693               0.010449765               0.000409658              -0.000924209               0.003791290               0.002867081               0.000000000               0.000000000               0.000000000               0.000000000               0.000716417               0.009554237               0.000653117              -0.000925621               0.003493254               0.002567633               0.000000000               0.000000000               0.000000000               0.000000000               0.000478650               0.008891839               0.000731843              -0.000931984               0.003274578               0.002342594               0.000000000               0.000000000               0.000000000               0.000000000               0.000299487               0.008369211               0.000741923              -0.000933842               0.003100989               0.002167148               0.000000000               0.000000000               0.000000000               0.000000000               0.000171718               0.007933768               0.000722224              -0.000927324               0.002953671               0.002026346               0.000000000               0.000000000               0.000000000               0.000000000               0.000082477               0.007552460               0.000685406              -0.000913126               0.002821837               0.001908710               0.000000000               0.000000000               0.000000000               0.000000000               0.000016621               0.007207844               0.000638624              -0.000894745               0.002700839               0.001806094               0.000000000               0.000000000               0.000000000               0.000000000              -0.000027688               0.006893551               0.000589427              -0.000872075               0.002588519               0.001716444               0.000000000               0.000000000               0.000000000               0.000000000              -0.000048551               0.006603482               0.000538472              -0.000843640               0.002482352               0.001638712               0.000000000               0.000000000               0.000000000               0.000000000              -0.000050886               0.006332187               0.000476474              -0.000810604               0.002380909               0.001570305               0.000000000               0.000000000               0.000000000               0.000000000              -0.000040433               0.006085755               0.000395920              -0.000775880               0.002287191               0.001511311               0.000000000               0.000000000               0.000000000               0.000000000              -0.000023882               0.005877361               0.000291924              -0.000743624               0.002206976               0.001463351               0.000000000               0.000000000               0.000000000               0.000000000              -0.000011724               0.005715980               0.000159965              -0.000718892               0.002144938               0.001426046               0.000000000               0.000000000               0.000000000               0.000000000              -0.000011397               0.005635412               0.000088762              -0.000708699               0.002114685               0.001405986               0.000000000               0.000000000               0.000000000               0.000000000               0.002403124               0.014913066              -0.003997234              -0.000962962               0.005291959               0.004328996               0.000000000               0.000000000               0.000000000               0.000000000               0.001262251               0.012633796              -0.002138385              -0.001105879               0.004579849               0.003473970               0.000000000               0.000000000               0.000000000               0.000000000               0.000643458               0.011162384              -0.000350748              -0.001153998               0.004105424               0.002951425               0.000000000               0.000000000               0.000000000               0.000000000               0.000219925               0.010176309               0.000306241              -0.001189564               0.003788590               0.002599026               0.000000000               0.000000000               0.000000000               0.000000000              -0.000045504               0.009440427               0.000546932              -0.001197115               0.003545816               0.002348701               0.000000000               0.000000000               0.000000000               0.000000000              -0.000198250               0.008854426               0.000623119              -0.001181144               0.003345160               0.002164016               0.000000000               0.000000000               0.000000000               0.000000000              -0.000276601               0.008364346               0.000634368              -0.001149266               0.003171176               0.002021910               0.000000000               0.000000000               0.000000000               0.000000000              -0.000310037               0.007939380               0.000616098              -0.001108684               0.003015995               0.001907311               0.000000000               0.000000000               0.000000000               0.000000000              -0.000314111               0.007564042               0.000580081              -0.001063295               0.002875754               0.001812459               0.000000000               0.000000000               0.000000000               0.000000000              -0.000297873               0.007227259               0.000535481              -0.001015107               0.002747431               0.001732324               0.000000000               0.000000000               0.000000000               0.000000000              -0.000260785               0.006925304               0.000488133              -0.000963455               0.002629563               0.001666108               0.000000000               0.000000000               0.000000000               0.000000000              -0.000210811               0.006656889               0.000437163              -0.000911163               0.002522662               0.001611499               0.000000000               0.000000000               0.000000000               0.000000000              -0.000155200               0.006423785               0.000373732              -0.000861171               0.002428297               0.001567126               0.000000000               0.000000000               0.000000000               0.000000000              -0.000096714               0.006233641               0.000298169              -0.000815471               0.002349683               0.001534212               0.000000000               0.000000000               0.000000000               0.000000000              -0.000048419               0.006096447               0.000211087              -0.000780211               0.002292199               0.001511988               0.000000000               0.000000000               0.000000000               0.000000000              -0.000018730               0.006016652               0.000109401              -0.000759103               0.002258565               0.001499462               0.000000000               0.000000000               0.000000000               0.000000000              -0.000007235               0.005992346               0.000055085              -0.000751755               0.002248014               0.001496259               0.000000000               0.000000000               0.000000000               0.000000000               0.002313718               0.012542595              -0.004070826              -0.000700182               0.004414216               0.003714034               0.000000000               0.000000000               0.000000000               0.000000000               0.000856660               0.011162225              -0.002262941              -0.001074030               0.004078714               0.003004684               0.000000000               0.000000000               0.000000000               0.000000000              -0.000109441               0.010485928              -0.000535519              -0.001351778               0.003945867               0.002594089               0.000000000               0.000000000               0.000000000               0.000000000              -0.000541352               0.009821358               0.000072121              -0.001430673               0.003750644               0.002319971               0.000000000               0.000000000               0.000000000               0.000000000              -0.000721204               0.009228435               0.000294103              -0.001424002               0.003550782               0.002126779               0.000000000               0.000000000               0.000000000               0.000000000              -0.000769237               0.008711141               0.000371769              -0.001377353               0.003362802               0.001985449               0.000000000               0.000000000               0.000000000               0.000000000              -0.000742900               0.008259922               0.000390475              -0.001311074               0.003190305               0.001879230               0.000000000               0.000000000               0.000000000               0.000000000              -0.000678594               0.007859623               0.000383499              -0.001236922               0.003032156               0.001795233               0.000000000               0.000000000               0.000000000               0.000000000              -0.000592544               0.007501315               0.000360227              -0.001159866               0.002887035               0.001727170               0.000000000               0.000000000               0.000000000               0.000000000              -0.000497046               0.007178898               0.000326096              -0.001083752               0.002754193               0.001670441               0.000000000               0.000000000               0.000000000               0.000000000              -0.000394997               0.006894717               0.000288794              -0.001009961               0.002634870               0.001624909               0.000000000               0.000000000               0.000000000               0.000000000              -0.000293777               0.006647785               0.000248894              -0.000941137               0.002529619               0.001588481               0.000000000               0.000000000               0.000000000               0.000000000              -0.000203896               0.006438329               0.000201757              -0.000881250               0.002439838               0.001558588               0.000000000               0.000000000               0.000000000               0.000000000              -0.000126257               0.006276149               0.000152927              -0.000831863               0.002369316               0.001537453               0.000000000               0.000000000               0.000000000               0.000000000              -0.000065916               0.006161002               0.000104610              -0.000794842               0.002318594               0.001523752               0.000000000               0.000000000               0.000000000               0.000000000              -0.000025594               0.006080230               0.000051782              -0.000769625               0.002283264               0.001513640               0.000000000               0.000000000               0.000000000               0.000000000              -0.000019268               0.006033406               0.000029584              -0.000761399               0.002264915               0.001503516               0.000000000               0.000000000               0.000000000               0.000000000               0.001970700               0.010194482              -0.003809972              -0.000535300               0.003576559               0.003041259               0.000000000               0.000000000               0.000000000               0.000000000               0.000361170               0.009719489              -0.002266779              -0.001079496               0.003599629               0.002520132               0.000000000               0.000000000               0.000000000               0.000000000              -0.000813921               0.009780867              -0.000779195              -0.001527825               0.003769531               0.002241706               0.000000000               0.000000000               0.000000000               0.000000000              -0.001169982               0.009386658              -0.000257003              -0.001612072               0.003666212               0.002054140               0.000000000               0.000000000               0.000000000               0.000000000              -0.001222917               0.008915337              -0.000047710              -0.001573007               0.003496085               0.001923078               0.000000000               0.000000000               0.000000000               0.000000000              -0.001152363               0.008467943               0.000043776              -0.001490625               0.003319495               0.001828869               0.000000000               0.000000000               0.000000000               0.000000000              -0.001025025               0.008064074               0.000082699              -0.001392390               0.003152128               0.001759738               0.000000000               0.000000000               0.000000000               0.000000000              -0.000875729               0.007697743               0.000095419              -0.001290613               0.002996093               0.001705480               0.000000000               0.000000000               0.000000000               0.000000000              -0.000721473               0.007365770               0.000090293              -0.001191271               0.002852322               0.001661052               0.000000000               0.000000000               0.000000000               0.000000000              -0.000568357               0.007064649               0.000076867              -0.001096212               0.002720264               0.001624051               0.000000000               0.000000000               0.000000000               0.000000000              -0.000425074               0.006790629               0.000064712              -0.001008229               0.002599597               0.001591368               0.000000000               0.000000000               0.000000000               0.000000000              -0.000306113               0.006544285               0.000053370              -0.000932826               0.002492349               0.001559523               0.000000000               0.000000000               0.000000000               0.000000000              -0.000214141               0.006333959               0.000043575              -0.000872046               0.002401981               0.001529935               0.000000000               0.000000000               0.000000000               0.000000000              -0.000142538               0.006165226               0.000040592              -0.000824103               0.002329756               0.001505653               0.000000000               0.000000000               0.000000000               0.000000000              -0.000088148               0.006027820               0.000039117              -0.000786531               0.002271430               0.001484899               0.000000000               0.000000000               0.000000000               0.000000000              -0.000042118               0.005906606               0.000025789              -0.000754118               0.002220222               0.001466104               0.000000000               0.000000000               0.000000000               0.000000000              -0.000040169               0.005819705               0.000026505              -0.000742525               0.002187391               0.001444866               0.000000000               0.000000000               0.000000000               0.000000000               0.001393125               0.008016156              -0.003298001              -0.000479600               0.002831891               0.002352291               0.000000000               0.000000000               0.000000000               0.000000000              -0.000199394               0.008391752              -0.002189634              -0.001123741               0.003171802               0.002048062               0.000000000               0.000000000               0.000000000               0.000000000              -0.001402834               0.009060680              -0.001072856              -0.001658644               0.003573078               0.001914434               0.000000000               0.000000000               0.000000000               0.000000000              -0.001610367               0.008883771              -0.000630855              -0.001714355               0.003532679               0.001818324               0.000000000               0.000000000               0.000000000               0.000000000              -0.001519606               0.008526686              -0.000413930              -0.001635684               0.003387428               0.001751744               0.000000000               0.000000000               0.000000000               0.000000000              -0.001335762               0.008152327              -0.000295597              -0.001519948               0.003224065               0.001704117               0.000000000               0.000000000               0.000000000               0.000000000              -0.001121555               0.007797547              -0.000227701              -0.001395273               0.003064247               0.001668974               0.000000000               0.000000000               0.000000000               0.000000000              -0.000906559               0.007469477              -0.000186193              -0.001273641               0.002914348               0.001640707               0.000000000               0.000000000               0.000000000               0.000000000              -0.000703299               0.007160054              -0.000159895              -0.001158741               0.002772908               0.001614167               0.000000000               0.000000000               0.000000000               0.000000000              -0.000524039               0.006858194              -0.000140384              -0.001053786               0.002637304               0.001583518               0.000000000               0.000000000               0.000000000               0.000000000              -0.000382320               0.006572369              -0.000118175              -0.000964914               0.002512406               0.001547492               0.000000000               0.000000000               0.000000000               0.000000000              -0.000278187               0.006315350              -0.000087915              -0.000893737               0.002403008               0.001509271               0.000000000               0.000000000               0.000000000               0.000000000              -0.000206320               0.006096080              -0.000051871              -0.000839378               0.002311799               0.001472421               0.000000000               0.000000000               0.000000000               0.000000000              -0.000153962               0.005909352              -0.000013244              -0.000796403               0.002235232               0.001438829               0.000000000               0.000000000               0.000000000               0.000000000              -0.000106941               0.005741588               0.000018420              -0.000757800               0.002166444               0.001408644               0.000000000               0.000000000               0.000000000               0.000000000              -0.000058244               0.005590693               0.000024414              -0.000720676               0.002103771               0.001383095               0.000000000               0.000000000               0.000000000               0.000000000              -0.000048126               0.005494817               0.000028674              -0.000704898               0.002066553               0.001361656               0.000000000               0.000000000               0.000000000               0.000000000               0.000680404               0.006165058              -0.002634310              -0.000515482               0.002226825               0.001711343               0.000000000               0.000000000               0.000000000               0.000000000              -0.000739404               0.007205343              -0.002080086              -0.001177943               0.002794404               0.001616461               0.000000000               0.000000000               0.000000000               0.000000000              -0.001837052               0.008361104              -0.001415252              -0.001734028               0.003365016               0.001630987               0.000000000               0.000000000               0.000000000               0.000000000              -0.001883002               0.008409597              -0.001024098              -0.001757321               0.003388945               0.001631623               0.000000000               0.000000000               0.000000000               0.000000000              -0.001676479               0.008182285              -0.000782727              -0.001651461               0.003277888               0.001626427               0.000000000               0.000000000               0.000000000               0.000000000              -0.001409755               0.007888619              -0.000626353              -0.001514732               0.003134424               0.001619692               0.000000000               0.000000000               0.000000000               0.000000000              -0.001131621               0.007593760              -0.000519170              -0.001373575               0.002989086               0.001615512               0.000000000               0.000000000               0.000000000               0.000000000              -0.000867718               0.007304343              -0.000442044              -0.001238434               0.002847568               0.001609134               0.000000000               0.000000000               0.000000000               0.000000000              -0.000636119               0.006994610              -0.000382763              -0.001112868               0.002702469               0.001589601               0.000000000               0.000000000               0.000000000               0.000000000              -0.000444196               0.006680007              -0.000328543              -0.001001572               0.002560504               0.001558932               0.000000000               0.000000000               0.000000000               0.000000000              -0.000301327               0.006383655              -0.000267655              -0.000910952               0.002431514               0.001520562               0.000000000               0.000000000               0.000000000               0.000000000              -0.000211870               0.006118179              -0.000197068              -0.000844221               0.002320780               0.001476558               0.000000000               0.000000000               0.000000000               0.000000000              -0.000165560               0.005887643              -0.000123228              -0.000798038               0.002228541               0.001430502               0.000000000               0.000000000               0.000000000               0.000000000              -0.000145640               0.005678827              -0.000056095              -0.000764466               0.002147746               0.001383279               0.000000000               0.000000000               0.000000000               0.000000000              -0.000136100               0.005479980              -0.000006993              -0.000736033               0.002071986               0.001335953               0.000000000               0.000000000               0.000000000               0.000000000              -0.000122330               0.005297408               0.000013355              -0.000708048               0.002001801               0.001293753               0.000000000               0.000000000               0.000000000               0.000000000              -0.000108145               0.005206426               0.000016214              -0.000691356               0.001965910               0.001274554               0.000000000               0.000000000               0.000000000               0.000000000              -0.000189031               0.004437037              -0.001919301              -0.000625516               0.001687502               0.001061986               0.000000000               0.000000000               0.000000000               0.000000000              -0.001178352               0.005842224              -0.001951983              -0.001172158               0.002338107               0.001165949               0.000000000               0.000000000               0.000000000               0.000000000              -0.002061259               0.007349862              -0.001784779              -0.001691701               0.003013829               0.001322128               0.000000000               0.000000000               0.000000000               0.000000000              -0.002022721               0.007716691              -0.001458190              -0.001723103               0.003146572               0.001423469               0.000000000               0.000000000               0.000000000               0.000000000              -0.001765626               0.007705696              -0.001190711              -0.001625318               0.003110312               0.001484994               0.000000000               0.000000000               0.000000000               0.000000000              -0.001468275               0.007565821              -0.000990524              -0.001496327               0.003020691               0.001524363               0.000000000               0.000000000               0.000000000               0.000000000              -0.001172280               0.007387802              -0.000837283              -0.001363077               0.002916935               0.001553858               0.000000000               0.000000000               0.000000000               0.000000000              -0.000900873               0.007172132              -0.000720051              -0.001234341               0.002802134               0.001567793               0.000000000               0.000000000               0.000000000               0.000000000              -0.000663731               0.006908634              -0.000622194              -0.001112475               0.002673680               0.001561204               0.000000000               0.000000000               0.000000000               0.000000000              -0.000464996               0.006619874              -0.000530749              -0.001001856               0.002540554               0.001538699               0.000000000               0.000000000               0.000000000               0.000000000              -0.000316673               0.006320429              -0.000436750              -0.000908804               0.002409723               0.001500919               0.000000000               0.000000000               0.000000000               0.000000000              -0.000221345               0.006041542              -0.000334561              -0.000838195               0.002293226               0.001455031               0.000000000               0.000000000               0.000000000               0.000000000              -0.000178475               0.005791326              -0.000231864              -0.000790842               0.002194037               0.001403195               0.000000000               0.000000000               0.000000000               0.000000000              -0.000172034               0.005570153              -0.000137188              -0.000760780               0.002110292               0.001349512               0.000000000               0.000000000               0.000000000               0.000000000              -0.000190075               0.005364656              -0.000062450              -0.000741858               0.002035487               0.001293628               0.000000000               0.000000000               0.000000000               0.000000000              -0.000220609               0.005170529              -0.000018328              -0.000729043               0.001966507               0.001237464               0.000000000               0.000000000               0.000000000               0.000000000              -0.000230987               0.005081317              -0.000005112              -0.000721783               0.001934349               0.001212567               0.000000000               0.000000000               0.000000000               0.000000000              -0.001338601               0.002868327              -0.001196565              -0.000860515               0.001242937               0.000382423               0.000000000               0.000000000               0.000000000               0.000000000              -0.001679895               0.004481996              -0.001756120              -0.001190208               0.001890719               0.000700511               0.000000000               0.000000000               0.000000000               0.000000000              -0.002200879               0.006189590              -0.002073659              -0.001599025               0.002596184               0.000997159               0.000000000               0.000000000               0.000000000               0.000000000              -0.002090251               0.006856971              -0.001873914              -0.001640962               0.002832621               0.001191659               0.000000000               0.000000000               0.000000000               0.000000000              -0.001810554               0.007092250              -0.001609388              -0.001565485               0.002885888               0.001320402               0.000000000               0.000000000               0.000000000               0.000000000              -0.001506587               0.007137762              -0.001377414              -0.001457187               0.002864959               0.001407772               0.000000000               0.000000000               0.000000000               0.000000000              -0.001208143               0.007101727              -0.001185362              -0.001340767               0.002814141               0.001473374               0.000000000               0.000000000               0.000000000               0.000000000              -0.000935668               0.006991441              -0.001030942              -0.001224803               0.002738724               0.001513922               0.000000000               0.000000000               0.000000000               0.000000000              -0.000698712               0.006808878              -0.000901785              -0.001113124               0.002640645               0.001527520               0.000000000               0.000000000               0.000000000               0.000000000              -0.000490875               0.006581602              -0.000780531              -0.001006776               0.002529437               0.001522661               0.000000000               0.000000000               0.000000000               0.000000000              -0.000322727               0.006323328              -0.000658824              -0.000911436               0.002411567               0.001500130               0.000000000               0.000000000               0.000000000               0.000000000              -0.000199379               0.006058388              -0.000533587              -0.000832064               0.002296797               0.001464733               0.000000000               0.000000000               0.000000000               0.000000000              -0.000130745               0.005797929              -0.000408606              -0.000773769               0.002190547               0.001416778               0.000000000               0.000000000               0.000000000               0.000000000              -0.000115843               0.005560940              -0.000287026              -0.000738557               0.002099814               0.001361257               0.000000000               0.000000000               0.000000000               0.000000000              -0.000149253               0.005349764              -0.000171475              -0.000724689               0.002024800               0.001300111               0.000000000               0.000000000               0.000000000               0.000000000              -0.000227186               0.005164334              -0.000074845              -0.000730735               0.001965006               0.001234271               0.000000000               0.000000000               0.000000000               0.000000000              -0.000292649               0.005068722              -0.000025920              -0.000743332               0.001937335               0.001194003               0.000000000               0.000000000               0.000000000               0.000000000              -0.002687644               0.001571535              -0.000521757              -0.001204306               0.000925274              -0.000279032               0.000000000               0.000000000               0.000000000               0.000000000              -0.002291357               0.003201723              -0.001470326              -0.001259472               0.001487053               0.000227581               0.000000000               0.000000000               0.000000000               0.000000000              -0.002294150               0.004894459              -0.002179183              -0.001472111               0.002122173               0.000650062               0.000000000               0.000000000               0.000000000               0.000000000              -0.002051244               0.005774215              -0.002143909              -0.001490991               0.002421715               0.000930725               0.000000000               0.000000000               0.000000000               0.000000000              -0.001743565               0.006238935              -0.001927391              -0.001433701               0.002557524               0.001123823               0.000000000               0.000000000               0.000000000               0.000000000              -0.001439031               0.006484641              -0.001694890              -0.001350214               0.002611597               0.001261382               0.000000000               0.000000000               0.000000000               0.000000000              -0.001149745               0.006608508              -0.001488773              -0.001257215               0.002621885               0.001364670               0.000000000               0.000000000               0.000000000               0.000000000              -0.000886134               0.006627398              -0.001314028              -0.001160723               0.002596018               0.001435295               0.000000000               0.000000000               0.000000000               0.000000000              -0.000650487               0.006556996              -0.001163583              -0.001063555               0.002540162               0.001476607               0.000000000               0.000000000               0.000000000               0.000000000              -0.000442806               0.006419210              -0.001021753              -0.000968452               0.002462532               0.001494081               0.000000000               0.000000000               0.000000000               0.000000000              -0.000266390               0.006236393              -0.000880241              -0.000879444               0.002371925               0.001492481               0.000000000               0.000000000               0.000000000               0.000000000              -0.000119616               0.006025346              -0.000740232              -0.000798022               0.002274436               0.001476414               0.000000000               0.000000000               0.000000000               0.000000000              -0.000011397               0.005788585              -0.000600687              -0.000727845               0.002172124               0.001444279               0.000000000               0.000000000               0.000000000               0.000000000               0.000042743               0.005553669              -0.000456819              -0.000678178               0.002077264               0.001399086               0.000000000               0.000000000               0.000000000               0.000000000               0.000033817               0.005344181              -0.000304550              -0.000655340               0.001999822               0.001344483               0.000000000               0.000000000               0.000000000               0.000000000              -0.000043364               0.005165722              -0.000150171              -0.000661975               0.001942548               0.001280573               0.000000000               0.000000000               0.000000000               0.000000000              -0.000128947               0.005064393              -0.000063491              -0.000681402               0.001915248               0.001233846               0.000000000               0.000000000               0.000000000               0.000000000              -0.004138087               0.000606011               0.000017180              -0.001627532               0.000744509              -0.000883023               0.000000000               0.000000000               0.000000000               0.000000000              -0.002975559               0.002066513              -0.001131848              -0.001374147               0.001146878              -0.000227269               0.000000000               0.000000000               0.000000000               0.000000000              -0.002368014               0.003570418              -0.002077752              -0.001334305               0.001634895               0.000300590               0.000000000               0.000000000               0.000000000               0.000000000              -0.001930659               0.004557728              -0.002192451              -0.001293711               0.001950464               0.000656753               0.000000000               0.000000000               0.000000000               0.000000000              -0.001570239               0.005201791              -0.002053412              -0.001239062               0.002146933               0.000907871               0.000000000               0.000000000               0.000000000               0.000000000              -0.001257346               0.005633451              -0.001854232              -0.001175684               0.002269692               0.001094008               0.000000000               0.000000000               0.000000000               0.000000000              -0.000977353               0.005922663              -0.001660465              -0.001106838               0.002343147               0.001236309               0.000000000               0.000000000               0.000000000               0.000000000              -0.000729346               0.006076682              -0.001489690              -0.001033088               0.002369903               0.001336815               0.000000000               0.000000000               0.000000000               0.000000000              -0.000505538               0.006128635              -0.001336687              -0.000955654               0.002361409               0.001405755               0.000000000               0.000000000               0.000000000               0.000000000              -0.000301678               0.006106910              -0.001185765              -0.000876491               0.002327780               0.001451289               0.000000000               0.000000000               0.000000000               0.000000000              -0.000119189               0.006022439              -0.001038149              -0.000797499               0.002273293               0.001475793               0.000000000               0.000000000               0.000000000               0.000000000               0.000046743               0.005890278              -0.000898610              -0.000718755               0.002202991               0.001484236               0.000000000               0.000000000               0.000000000               0.000000000               0.000194564               0.005719875              -0.000757218              -0.000642022               0.002120613               0.001478592               0.000000000               0.000000000               0.000000000               0.000000000               0.000308142               0.005527686              -0.000600341              -0.000575406               0.002034346               0.001458940               0.000000000               0.000000000               0.000000000               0.000000000               0.000369321               0.005338007              -0.000421952              -0.000528754               0.001955569               0.001426815               0.000000000               0.000000000               0.000000000               0.000000000               0.000359676               0.005164879              -0.000221912              -0.000510730               0.001891853               0.001381123               0.000000000               0.000000000               0.000000000               0.000000000               0.000315952               0.005070339              -0.000110977              -0.000515309               0.001861866               0.001346557               0.000000000               0.000000000               0.000000000               0.000000000              -0.005539408              -0.000033118               0.000343788              -0.002073136               0.000680001              -0.001393135               0.000000000               0.000000000               0.000000000               0.000000000              -0.003665501               0.001143340              -0.000786977              -0.001517478               0.000886933              -0.000630545               0.000000000               0.000000000               0.000000000               0.000000000              -0.002434175               0.002347950              -0.001770629              -0.001206307               0.001184743              -0.000021564               0.000000000               0.000000000               0.000000000               0.000000000              -0.001762838               0.003346371              -0.001977665              -0.001079359               0.001475231               0.000395872               0.000000000               0.000000000               0.000000000               0.000000000              -0.001321867               0.004104571              -0.001915762              -0.001008770               0.001704433               0.000695663               0.000000000               0.000000000               0.000000000               0.000000000              -0.000987777               0.004680431              -0.001770867              -0.000955469               0.001878617               0.000923148               0.000000000               0.000000000               0.000000000               0.000000000              -0.000709043               0.005109195              -0.001614344              -0.000904539               0.002004561               0.001100022               0.000000000               0.000000000               0.000000000               0.000000000              -0.000473073               0.005391381              -0.001467507              -0.000851324               0.002080883               0.001229560               0.000000000               0.000000000               0.000000000               0.000000000              -0.000267658               0.005565136              -0.001329081              -0.000796013               0.002120364               0.001324352               0.000000000               0.000000000               0.000000000               0.000000000              -0.000076306               0.005656846              -0.001190242              -0.000735719               0.002130836               0.001395117               0.000000000               0.000000000               0.000000000               0.000000000               0.000112006               0.005677905              -0.001057074              -0.000667735               0.002115194               0.001447459               0.000000000               0.000000000               0.000000000               0.000000000               0.000298446               0.005641517              -0.000934039              -0.000593271               0.002078244               0.001484973               0.000000000               0.000000000               0.000000000               0.000000000               0.000479655               0.005560581              -0.000805441              -0.000515201               0.002025242               0.001510041               0.000000000               0.000000000               0.000000000               0.000000000               0.000653722               0.005446156              -0.000655799              -0.000435623               0.001960575               0.001524952               0.000000000               0.000000000               0.000000000               0.000000000               0.000809335               0.005306309              -0.000474238              -0.000359787               0.001888681               0.001528894               0.000000000               0.000000000               0.000000000               0.000000000               0.000926881               0.005155065              -0.000255032              -0.000296802               0.001817272               0.001520470               0.000000000               0.000000000               0.000000000               0.000000000               0.000987498               0.005082044              -0.000138513              -0.000264943               0.001782312               0.001517369               0.000000000               0.000000000               0.000000000               0.000000000              -0.006720637              -0.000397972               0.000419980              -0.002470491               0.000690835              -0.001779656               0.000000000               0.000000000               0.000000000               0.000000000              -0.004268499               0.000475960              -0.000477853              -0.001660181               0.000712042              -0.000948139               0.000000000               0.000000000               0.000000000               0.000000000              -0.002493423               0.001361231              -0.001286983              -0.001105186               0.000822133              -0.000283053               0.000000000               0.000000000               0.000000000               0.000000000              -0.001589970               0.002306630              -0.001501659              -0.000884566               0.001063724               0.000179157               0.000000000               0.000000000               0.000000000               0.000000000              -0.001056087               0.003118328              -0.001491111              -0.000785823               0.001301372               0.000515550               0.000000000               0.000000000               0.000000000               0.000000000              -0.000690224               0.003785376              -0.001403544              -0.000732005               0.001505781               0.000773776               0.000000000               0.000000000               0.000000000               0.000000000              -0.000408762               0.004315605              -0.001297982              -0.000692735               0.001669432               0.000976697               0.000000000               0.000000000               0.000000000               0.000000000              -0.000184885               0.004703030              -0.001189700              -0.000657210               0.001786731               0.001129521               0.000000000               0.000000000               0.000000000               0.000000000               0.000005960               0.004978119              -0.001083120              -0.000620029               0.001866032               0.001246004               0.000000000               0.000000000               0.000000000               0.000000000               0.000187337               0.005166324              -0.000978561              -0.000575538               0.001913937               0.001338398               0.000000000               0.000000000               0.000000000               0.000000000               0.000377191               0.005284430              -0.000879788              -0.000519106               0.001934494               0.001415388               0.000000000               0.000000000               0.000000000               0.000000000               0.000575305               0.005342952              -0.000786159              -0.000452129               0.001931676               0.001479547               0.000000000               0.000000000               0.000000000               0.000000000               0.000785037               0.005352569              -0.000687973              -0.000374682               0.001909065               0.001534384               0.000000000               0.000000000               0.000000000               0.000000000               0.001011700               0.005318764              -0.000571124              -0.000285458               0.001868056               0.001582598               0.000000000               0.000000000               0.000000000               0.000000000               0.001255148               0.005242845              -0.000420788              -0.000184675               0.001809156               0.001624481               0.000000000               0.000000000               0.000000000               0.000000000               0.001517781               0.005131699              -0.000228764              -0.000072294               0.001734647               0.001662353               0.000000000               0.000000000               0.000000000               0.000000000               0.001712952               0.005089103              -0.000129396               0.000006219               0.001694278               0.001700496               0.000000000               0.000000000               0.000000000               0.000000000              -0.007509714              -0.000570427               0.000276451              -0.002744838               0.000724799              -0.002020039               0.000000000               0.000000000               0.000000000               0.000000000              -0.004684380               0.000077869              -0.000220152              -0.001766375               0.000614744              -0.001151631               0.000000000               0.000000000               0.000000000               0.000000000              -0.002542798               0.000722660              -0.000677386              -0.001043881               0.000588843              -0.000455038               0.000000000               0.000000000               0.000000000               0.000000000              -0.001465829               0.001600691              -0.000812457              -0.000749771               0.000783481               0.000033711               0.000000000               0.000000000               0.000000000               0.000000000              -0.000854288               0.002422805              -0.000818534              -0.000623207               0.001015329               0.000392122               0.000000000               0.000000000               0.000000000               0.000000000              -0.000456023               0.003139832              -0.000778701              -0.000563487               0.001234429               0.000670942               0.000000000               0.000000000               0.000000000               0.000000000              -0.000172019               0.003733859              -0.000726646              -0.000531239               0.001421687               0.000890448               0.000000000               0.000000000               0.000000000               0.000000000               0.000042755               0.004187917              -0.000670012              -0.000507456               0.001565110               0.001057655               0.000000000               0.000000000               0.000000000               0.000000000               0.000226243               0.004528706              -0.000611870              -0.000481246               0.001669969               0.001188723               0.000000000               0.000000000               0.000000000               0.000000000               0.000403087               0.004781805              -0.000556241              -0.000446567               0.001742775               0.001296208               0.000000000               0.000000000               0.000000000               0.000000000               0.000590617               0.004969717              -0.000502929              -0.000399733               0.001789800               0.001390067               0.000000000               0.000000000               0.000000000               0.000000000               0.000795375               0.005100802              -0.000451691              -0.000339334               0.001813362               0.001474028               0.000000000               0.000000000               0.000000000               0.000000000               0.001024701               0.005177904              -0.000399689              -0.000262975               0.001813609               0.001550634               0.000000000               0.000000000               0.000000000               0.000000000               0.001288148               0.005204272              -0.000333975              -0.000167478               0.001790566               0.001623088               0.000000000               0.000000000               0.000000000               0.000000000               0.001599553               0.005179962              -0.000248895              -0.000047663               0.001742524               0.001694861               0.000000000               0.000000000               0.000000000               0.000000000               0.001975109               0.005104372              -0.000138609               0.000102618               0.001667234               0.001769853               0.000000000               0.000000000               0.000000000               0.000000000               0.002279654               0.005087971              -0.000081946               0.000218872               0.001623016               0.001841888               0.000000000               0.000000000               0.000000000               0.000000000              -0.007784469              -0.000616194               0.000000000              -0.002842150               0.000741980              -0.002100170               0.000000000               0.000000000               0.000000000               0.000000000              -0.004832189              -0.000049510              -0.000000000              -0.001805881               0.000585453              -0.001220428               0.000000000               0.000000000               0.000000000               0.000000000              -0.002564185               0.000503383              -0.000000000              -0.001024491               0.000509288              -0.000515203               0.000000000               0.000000000               0.000000000               0.000000000              -0.001423847               0.001347012              -0.000000000              -0.000702318               0.000683105              -0.000019213               0.000000000               0.000000000               0.000000000               0.000000000              -0.000780957               0.002167921              -0.000000000              -0.000563848               0.000910582               0.000346735               0.000000000               0.000000000               0.000000000               0.000000000              -0.000368173               0.002902557               0.000000000              -0.000500883               0.001134470               0.000633587               0.000000000               0.000000000               0.000000000               0.000000000              -0.000081262               0.003522486              -0.000000000              -0.000470783               0.001331078               0.000860295               0.000000000               0.000000000               0.000000000               0.000000000               0.000130869               0.003999143              -0.000000000              -0.000450816               0.001483306               0.001032490               0.000000000               0.000000000               0.000000000               0.000000000               0.000311047               0.004358650              -0.000000000              -0.000428188               0.001595598               0.001167410               0.000000000               0.000000000               0.000000000               0.000000000               0.000487075               0.004634572              -0.000000000              -0.000396667               0.001677064               0.001280397               0.000000000               0.000000000               0.000000000               0.000000000               0.000672699               0.004847956               0.000000000              -0.000353731               0.001733879               0.001380148               0.000000000               0.000000000               0.000000000               0.000000000               0.000881392               0.005007039               0.000000000              -0.000295357               0.001767449               0.001472092               0.000000000               0.000000000               0.000000000               0.000000000               0.001116674               0.005109601              -0.000000000              -0.000219947               0.001776499               0.001556552               0.000000000               0.000000000               0.000000000               0.000000000               0.001392568               0.005157354              -0.000000000              -0.000122456               0.001759919               0.001637463               0.000000000               0.000000000               0.000000000               0.000000000               0.001731997               0.005152002              -0.000000000               0.000005499               0.001715484               0.001720982               0.000000000               0.000000000               0.000000000               0.000000000               0.002150060               0.005091607               0.000000000               0.000169820               0.001640579               0.001810399               0.000000000               0.000000000               0.000000000               0.000000000               0.002494969               0.005086754               0.000000000               0.000299766               0.001595646               0.001895412               0.000000000               0.000000000               0.000000000               0.000000000               0.000000000               0.000000000               0.000000000               0.000000000               0.000000000               0.000000000               0.000000000               0.000000000               0.000000000               0.000000000               0.000000000               0.000000000               0.000000000               0.000000000               0.000000000               0.000000000               0.000000000               0.000000000               0.000000000               0.000000000               0.000000000               0.000000000               0.000000000               0.000000000               0.000000000               0.000000000               0.000000000               0.000000000               0.000000000               0.000000000               0.000000000               0.000000000               0.000000000               0.000000000               0.000000000               0.000000000               0.000000000               0.000000000               0.000000000               0.000000000               0.000000000               0.000000000               0.000000000               0.000000000               0.000000000               0.000000000               0.000000000               0.000000000               0.000000000               0.000000000               0.000000000               0.000000000               0.000000000               0.000000000               0.000000000               0.000000000               0.000000000               0.000000000               0.000000000               0.000000000               0.000000000               0.000000000               0.000000000               0.000000000               0.000000000               0.000000000               0.000000000               0.000000000               0.000000000               0.000000000               0.000000000               0.000000000               0.000000000               0.000000000               0.000000000               0.000000000               0.000000000               0.000000000               0.000000000               0.000000000               0.000000000               0.000000000               0.000000000               0.000000000               0.000000000               0.000000000               0.000000000               0.000000000               0.000000000               0.000000000               0.000000000               0.000000000               0.000000000               0.000000000               0.000000000               0.000000000               0.000000000               0.000000000               0.000000000               0.000000000               0.000000000               0.000000000               0.000000000               0.000000000               0.000000000               0.000000000               0.000000000               0.000000000               0.000000000               0.000000000               0.000000000               0.000000000               0.000000000               0.000000000               0.000000000               0.000000000               0.000000000               0.000000000               0.000000000               0.000000000               0.000000000               0.000000000               0.000000000               0.000000000               0.000000000               0.000000000               0.000000000               0.000000000               0.000000000               0.000000000               0.000000000               0.000000000               0.000000000               0.000000000               0.000000000               0.000000000               0.000000000               0.000000000               0.000000000               0.000000000               0.000000000               0.000000000               0.000000000               0.000000000               0.000000000               0.000000000               0.000000000               0.000000000               0.000000000               0.000000000               0.000000000               0.000000000               0.000000000               0.000000000               0.000000000               0.000000000               0.000000000               0.000000000               0.000000000               0.000000000               0.000000000               0.000000000               0.000000000               0.000000000               0.000000000               0.000000000               0.000000000               0.000000000               0.000000000               0.000000000               0.001911730               0.020057435               0.001414586              -0.001790277               0.007282504               0.005492227               0.000000000               0.000000000               0.000000000               0.000000000               0.001817713               0.015912484               0.000739270              -0.001307415               0.005739913               0.004432498               0.000000000               0.000000000               0.000000000               0.000000000               0.002314942               0.012600131               0.000066583              -0.000706912               0.004435639               0.003728727               0.000000000               0.000000000               0.000000000               0.000000000               0.002205364               0.010743104              -0.000219881              -0.000515875               0.003752957               0.003237082               0.000000000               0.000000000               0.000000000               0.000000000               0.001921067               0.009588907              -0.000338931              -0.000478212               0.003355674               0.002877462               0.000000000               0.000000000               0.000000000               0.000000000               0.001608502               0.008805072              -0.000380308              -0.000497445               0.003100810               0.002603365               0.000000000               0.000000000               0.000000000               0.000000000               0.001315741               0.008227640              -0.000389279              -0.000535051               0.002920869               0.002385819               0.000000000               0.000000000               0.000000000               0.000000000               0.001058888               0.007773608              -0.000382003              -0.000574617               0.002782716               0.002208099               0.000000000               0.000000000               0.000000000               0.000000000               0.000838435               0.007391599              -0.000366683              -0.000609535               0.002667020               0.002057485               0.000000000               0.000000000               0.000000000               0.000000000               0.000649941               0.007047648              -0.000346966              -0.000637227               0.002561601               0.001924375               0.000000000               0.000000000               0.000000000               0.000000000               0.000490408               0.006720993              -0.000326195              -0.000656220               0.002459048               0.001802829               0.000000000               0.000000000               0.000000000               0.000000000               0.000354118               0.006402503              -0.000306735              -0.000667517               0.002356652               0.001689135               0.000000000               0.000000000               0.000000000               0.000000000               0.000235188               0.006082899              -0.000280571              -0.000672165               0.002251668               0.001579502               0.000000000               0.000000000               0.000000000               0.000000000               0.000141363               0.005749427              -0.000241324              -0.000665666               0.002138345               0.001472679               0.000000000               0.000000000               0.000000000               0.000000000               0.000075692               0.005388172              -0.000186560              -0.000645135               0.002011085               0.001365949               0.000000000               0.000000000               0.000000000               0.000000000               0.000031632               0.004986579              -0.000107947              -0.000611459               0.001865996               0.001254537               0.000000000               0.000000000               0.000000000               0.000000000              -0.000015909               0.004687371              -0.000066688              -0.000591886               0.001759737               0.001167851               0.000000000               0.000000000               0.000000000               0.000000000               0.002095360               0.018886172               0.002635762              -0.001575009               0.006820330               0.005245322               0.000000000               0.000000000               0.000000000               0.000000000               0.001729931               0.015154745               0.001378276              -0.001245616               0.005466737               0.004221120               0.000000000               0.000000000               0.000000000               0.000000000               0.001937253               0.012273503               0.000136863              -0.000807716               0.004360366               0.003552650               0.000000000               0.000000000               0.000000000               0.000000000               0.001723013               0.010636762              -0.000372537              -0.000683464               0.003773373               0.003089909               0.000000000               0.000000000               0.000000000               0.000000000               0.001420111               0.009590327              -0.000578777              -0.000666248               0.003418826               0.002752578               0.000000000               0.000000000               0.000000000               0.000000000               0.001131875               0.008859026              -0.000648982              -0.000682924               0.003180620               0.002497697               0.000000000               0.000000000               0.000000000               0.000000000               0.000880150               0.008306202              -0.000659881              -0.000708217               0.003004779               0.002296561               0.000000000               0.000000000               0.000000000               0.000000000               0.000670805               0.007859510              -0.000644799              -0.000730885               0.002863439               0.002132554               0.000000000               0.000000000               0.000000000               0.000000000               0.000505622               0.007477613              -0.000616407              -0.000745092               0.002740876               0.001995785               0.000000000               0.000000000               0.000000000               0.000000000               0.000371153               0.007131678              -0.000579059              -0.000752276               0.002627961               0.001875685               0.000000000               0.000000000               0.000000000               0.000000000               0.000261408               0.006809471              -0.000538874              -0.000753154               0.002520852               0.001767698               0.000000000               0.000000000               0.000000000               0.000000000               0.000173569               0.006502161              -0.000500040              -0.000747680               0.002416592               0.001668912               0.000000000               0.000000000               0.000000000               0.000000000               0.000102747               0.006200751              -0.000452082              -0.000736562               0.002312417               0.001575855               0.000000000               0.000000000               0.000000000               0.000000000               0.000052293               0.005902745              -0.000382597              -0.000718231               0.002206972               0.001488741               0.000000000               0.000000000               0.000000000               0.000000000               0.000021194               0.005607493              -0.000288367              -0.000692987               0.002100141               0.001407154               0.000000000               0.000000000               0.000000000               0.000000000               0.000005469               0.005316401              -0.000162697              -0.000662497               0.001992948               0.001330451               0.000000000               0.000000000               0.000000000               0.000000000              -0.000016270               0.005123558              -0.000096695              -0.000646544               0.001923350               0.001276806               0.000000000               0.000000000               0.000000000               0.000000000               0.002298015               0.017102064               0.003521455              -0.001276001               0.006125964               0.004849963               0.000000000               0.000000000               0.000000000               0.000000000               0.001553449               0.014013075               0.001851657              -0.001169089               0.005060674               0.003891585               0.000000000               0.000000000               0.000000000               0.000000000               0.001355838               0.011776224               0.000224080              -0.000963587               0.004246564               0.003282978               0.000000000               0.000000000               0.000000000               0.000000000               0.001018693               0.010449765              -0.000409658              -0.000924209               0.003791290               0.002867081               0.000000000               0.000000000               0.000000000               0.000000000               0.000716417               0.009554237              -0.000653117              -0.000925621               0.003493254               0.002567633               0.000000000               0.000000000               0.000000000               0.000000000               0.000478650               0.008891839              -0.000731843              -0.000931984               0.003274578               0.002342594               0.000000000               0.000000000               0.000000000               0.000000000               0.000299487               0.008369211              -0.000741923              -0.000933842               0.003100989               0.002167148               0.000000000               0.000000000               0.000000000               0.000000000               0.000171718               0.007933768              -0.000722224              -0.000927324               0.002953671               0.002026346               0.000000000               0.000000000               0.000000000               0.000000000               0.000082477               0.007552460              -0.000685406              -0.000913126               0.002821837               0.001908710               0.000000000               0.000000000               0.000000000               0.000000000               0.000016621               0.007207844              -0.000638624              -0.000894745               0.002700839               0.001806094               0.000000000               0.000000000               0.000000000               0.000000000              -0.000027688               0.006893551              -0.000589427              -0.000872075               0.002588519               0.001716444               0.000000000               0.000000000               0.000000000               0.000000000              -0.000048551               0.006603482              -0.000538472              -0.000843640               0.002482352               0.001638712               0.000000000               0.000000000               0.000000000               0.000000000              -0.000050886               0.006332187              -0.000476474              -0.000810604               0.002380909               0.001570305               0.000000000               0.000000000               0.000000000               0.000000000              -0.000040433               0.006085755              -0.000395920              -0.000775880               0.002287191               0.001511311               0.000000000               0.000000000               0.000000000               0.000000000              -0.000023882               0.005877361              -0.000291924              -0.000743624               0.002206976               0.001463351               0.000000000               0.000000000               0.000000000               0.000000000              -0.000011724               0.005715980              -0.000159965              -0.000718892               0.002144938               0.001426046               0.000000000               0.000000000               0.000000000               0.000000000              -0.000011397               0.005635412              -0.000088762              -0.000708699               0.002114685               0.001405986               0.000000000               0.000000000               0.000000000               0.000000000               0.002403124               0.014913066               0.003997234              -0.000962962               0.005291959               0.004328996               0.000000000               0.000000000               0.000000000               0.000000000               0.001262251               0.012633796               0.002138385              -0.001105879               0.004579849               0.003473970               0.000000000               0.000000000               0.000000000               0.000000000               0.000643458               0.011162384               0.000350748              -0.001153998               0.004105424               0.002951425               0.000000000               0.000000000               0.000000000               0.000000000               0.000219925               0.010176309              -0.000306241              -0.001189564               0.003788590               0.002599026               0.000000000               0.000000000               0.000000000               0.000000000              -0.000045504               0.009440427              -0.000546932              -0.001197115               0.003545816               0.002348701               0.000000000               0.000000000               0.000000000               0.000000000              -0.000198250               0.008854426              -0.000623119              -0.001181144               0.003345160               0.002164016               0.000000000               0.000000000               0.000000000               0.000000000              -0.000276601               0.008364346              -0.000634368              -0.001149266               0.003171176               0.002021910               0.000000000               0.000000000               0.000000000               0.000000000              -0.000310037               0.007939380              -0.000616098              -0.001108684               0.003015995               0.001907311               0.000000000               0.000000000               0.000000000               0.000000000              -0.000314111               0.007564042              -0.000580081              -0.001063295               0.002875754               0.001812459               0.000000000               0.000000000               0.000000000               0.000000000              -0.000297873               0.007227259              -0.000535481              -0.001015107               0.002747431               0.001732324               0.000000000               0.000000000               0.000000000               0.000000000              -0.000260785               0.006925304              -0.000488133              -0.000963455               0.002629563               0.001666108               0.000000000               0.000000000               0.000000000               0.000000000              -0.000210811               0.006656889              -0.000437163              -0.000911163               0.002522662               0.001611499               0.000000000               0.000000000               0.000000000               0.000000000              -0.000155200               0.006423785              -0.000373732              -0.000861171               0.002428297               0.001567126               0.000000000               0.000000000               0.000000000               0.000000000              -0.000096714               0.006233641              -0.000298169              -0.000815471               0.002349683               0.001534212               0.000000000               0.000000000               0.000000000               0.000000000              -0.000048419               0.006096447              -0.000211087              -0.000780211               0.002292199               0.001511988               0.000000000               0.000000000               0.000000000               0.000000000              -0.000018730               0.006016652              -0.000109401              -0.000759103               0.002258565               0.001499462               0.000000000               0.000000000               0.000000000               0.000000000              -0.000007235               0.005992346              -0.000055085              -0.000751755               0.002248014               0.001496259               0.000000000               0.000000000               0.000000000               0.000000000               0.002313718               0.012542595               0.004070826              -0.000700182               0.004414216               0.003714034               0.000000000               0.000000000               0.000000000               0.000000000               0.000856660               0.011162225               0.002262941              -0.001074030               0.004078714               0.003004684               0.000000000               0.000000000               0.000000000               0.000000000              -0.000109441               0.010485928               0.000535519              -0.001351778               0.003945867               0.002594089               0.000000000               0.000000000               0.000000000               0.000000000              -0.000541352               0.009821358              -0.000072121              -0.001430673               0.003750644               0.002319971               0.000000000               0.000000000               0.000000000               0.000000000              -0.000721204               0.009228435              -0.000294103              -0.001424002               0.003550782               0.002126779               0.000000000               0.000000000               0.000000000               0.000000000              -0.000769237               0.008711141              -0.000371769              -0.001377353               0.003362802               0.001985449               0.000000000               0.000000000               0.000000000               0.000000000              -0.000742900               0.008259922              -0.000390475              -0.001311074               0.003190305               0.001879230               0.000000000               0.000000000               0.000000000               0.000000000              -0.000678594               0.007859623              -0.000383499              -0.001236922               0.003032156               0.001795233               0.000000000               0.000000000               0.000000000               0.000000000              -0.000592544               0.007501315              -0.000360227              -0.001159866               0.002887035               0.001727170               0.000000000               0.000000000               0.000000000               0.000000000              -0.000497046               0.007178898              -0.000326096              -0.001083752               0.002754193               0.001670441               0.000000000               0.000000000               0.000000000               0.000000000              -0.000394997               0.006894717              -0.000288794              -0.001009961               0.002634870               0.001624909               0.000000000               0.000000000               0.000000000               0.000000000              -0.000293777               0.006647785              -0.000248894              -0.000941137               0.002529619               0.001588481               0.000000000               0.000000000               0.000000000               0.000000000              -0.000203896               0.006438329              -0.000201757              -0.000881250               0.002439838               0.001558588               0.000000000               0.000000000               0.000000000               0.000000000              -0.000126257               0.006276149              -0.000152927              -0.000831863               0.002369316               0.001537453               0.000000000               0.000000000               0.000000000               0.000000000              -0.000065916               0.006161002              -0.000104610              -0.000794842               0.002318594               0.001523752               0.000000000               0.000000000               0.000000000               0.000000000              -0.000025594               0.006080230              -0.000051782              -0.000769625               0.002283264               0.001513640               0.000000000               0.000000000               0.000000000               0.000000000              -0.000019268               0.006033406              -0.000029584              -0.000761399               0.002264915               0.001503516               0.000000000               0.000000000               0.000000000               0.000000000               0.001970700               0.010194482               0.003809972              -0.000535300               0.003576559               0.003041259               0.000000000               0.000000000               0.000000000               0.000000000               0.000361170               0.009719489               0.002266779              -0.001079496               0.003599629               0.002520132               0.000000000               0.000000000               0.000000000               0.000000000              -0.000813921               0.009780867               0.000779195              -0.001527825               0.003769531               0.002241706               0.000000000               0.000000000               0.000000000               0.000000000              -0.001169982               0.009386658               0.000257003              -0.001612072               0.003666212               0.002054140               0.000000000               0.000000000               0.000000000               0.000000000              -0.001222917               0.008915337               0.000047710              -0.001573007               0.003496085               0.001923078               0.000000000               0.000000000               0.000000000               0.000000000              -0.001152363               0.008467943              -0.000043776              -0.001490625               0.003319495               0.001828869               0.000000000               0.000000000               0.000000000               0.000000000              -0.001025025               0.008064074              -0.000082699              -0.001392390               0.003152128               0.001759738               0.000000000               0.000000000               0.000000000               0.000000000              -0.000875729               0.007697743              -0.000095419              -0.001290613               0.002996093               0.001705480               0.000000000               0.000000000               0.000000000               0.000000000              -0.000721473               0.007365770              -0.000090293              -0.001191271               0.002852322               0.001661052               0.000000000               0.000000000               0.000000000               0.000000000              -0.000568357               0.007064649              -0.000076867              -0.001096212               0.002720264               0.001624051               0.000000000               0.000000000               0.000000000               0.000000000              -0.000425074               0.006790629              -0.000064712              -0.001008229               0.002599597               0.001591368               0.000000000               0.000000000               0.000000000               0.000000000              -0.000306113               0.006544285              -0.000053370              -0.000932826               0.002492349               0.001559523               0.000000000               0.000000000               0.000000000               0.000000000              -0.000214141               0.006333959              -0.000043575              -0.000872046               0.002401981               0.001529935               0.000000000               0.000000000               0.000000000               0.000000000              -0.000142538               0.006165226              -0.000040592              -0.000824103               0.002329756               0.001505653               0.000000000               0.000000000               0.000000000               0.000000000              -0.000088148               0.006027820              -0.000039117              -0.000786531               0.002271430               0.001484899               0.000000000               0.000000000               0.000000000               0.000000000              -0.000042118               0.005906606              -0.000025789              -0.000754118               0.002220222               0.001466104               0.000000000               0.000000000               0.000000000               0.000000000              -0.000040169               0.005819705              -0.000026505              -0.000742525               0.002187391               0.001444866               0.000000000               0.000000000               0.000000000               0.000000000               0.001393125               0.008016156               0.003298001              -0.000479600               0.002831891               0.002352291               0.000000000               0.000000000               0.000000000               0.000000000              -0.000199394               0.008391752               0.002189634              -0.001123741               0.003171802               0.002048062               0.000000000               0.000000000               0.000000000               0.000000000              -0.001402834               0.009060680               0.001072856              -0.001658644               0.003573078               0.001914434               0.000000000               0.000000000               0.000000000               0.000000000              -0.001610367               0.008883771               0.000630855              -0.001714355               0.003532679               0.001818324               0.000000000               0.000000000               0.000000000               0.000000000              -0.001519606               0.008526686               0.000413930              -0.001635684               0.003387428               0.001751744               0.000000000               0.000000000               0.000000000               0.000000000              -0.001335762               0.008152327               0.000295597              -0.001519948               0.003224065               0.001704117               0.000000000               0.000000000               0.000000000               0.000000000              -0.001121555               0.007797547               0.000227701              -0.001395273               0.003064247               0.001668974               0.000000000               0.000000000               0.000000000               0.000000000              -0.000906559               0.007469477               0.000186193              -0.001273641               0.002914348               0.001640707               0.000000000               0.000000000               0.000000000               0.000000000              -0.000703299               0.007160054               0.000159895              -0.001158741               0.002772908               0.001614167               0.000000000               0.000000000               0.000000000               0.000000000              -0.000524039               0.006858194               0.000140384              -0.001053786               0.002637304               0.001583518               0.000000000               0.000000000               0.000000000               0.000000000              -0.000382320               0.006572369               0.000118175              -0.000964914               0.002512406               0.001547492               0.000000000               0.000000000               0.000000000               0.000000000              -0.000278187               0.006315350               0.000087915              -0.000893737               0.002403008               0.001509271               0.000000000               0.000000000               0.000000000               0.000000000              -0.000206320               0.006096080               0.000051871              -0.000839378               0.002311799               0.001472421               0.000000000               0.000000000               0.000000000               0.000000000              -0.000153962               0.005909352               0.000013244              -0.000796403               0.002235232               0.001438829               0.000000000               0.000000000               0.000000000               0.000000000              -0.000106941               0.005741588              -0.000018420              -0.000757800               0.002166444               0.001408644               0.000000000               0.000000000               0.000000000               0.000000000              -0.000058244               0.005590693              -0.000024414              -0.000720676               0.002103771               0.001383095               0.000000000               0.000000000               0.000000000               0.000000000              -0.000048126               0.005494817              -0.000028674              -0.000704898               0.002066553               0.001361656               0.000000000               0.000000000               0.000000000               0.000000000               0.000680404               0.006165058               0.002634310              -0.000515482               0.002226825               0.001711343               0.000000000               0.000000000               0.000000000               0.000000000              -0.000739404               0.007205343               0.002080086              -0.001177943               0.002794404               0.001616461               0.000000000               0.000000000               0.000000000               0.000000000              -0.001837052               0.008361104               0.001415252              -0.001734028               0.003365016               0.001630987               0.000000000               0.000000000               0.000000000               0.000000000              -0.001883002               0.008409597               0.001024098              -0.001757321               0.003388945               0.001631623               0.000000000               0.000000000               0.000000000               0.000000000              -0.001676479               0.008182285               0.000782727              -0.001651461               0.003277888               0.001626427               0.000000000               0.000000000               0.000000000               0.000000000              -0.001409755               0.007888619               0.000626353              -0.001514732               0.003134424               0.001619692               0.000000000               0.000000000               0.000000000               0.000000000              -0.001131621               0.007593760               0.000519170              -0.001373575               0.002989086               0.001615512               0.000000000               0.000000000               0.000000000               0.000000000              -0.000867718               0.007304343               0.000442044              -0.001238434               0.002847568               0.001609134               0.000000000               0.000000000               0.000000000               0.000000000              -0.000636119               0.006994610               0.000382763              -0.001112868               0.002702469               0.001589601               0.000000000               0.000000000               0.000000000               0.000000000              -0.000444196               0.006680007               0.000328543              -0.001001572               0.002560504               0.001558932               0.000000000               0.000000000               0.000000000               0.000000000              -0.000301327               0.006383655               0.000267655              -0.000910952               0.002431514               0.001520562               0.000000000               0.000000000               0.000000000               0.000000000              -0.000211870               0.006118179               0.000197068              -0.000844221               0.002320780               0.001476558               0.000000000               0.000000000               0.000000000               0.000000000              -0.000165560               0.005887643               0.000123228              -0.000798038               0.002228541               0.001430502               0.000000000               0.000000000               0.000000000               0.000000000              -0.000145640               0.005678827               0.000056095              -0.000764466               0.002147746               0.001383279               0.000000000               0.000000000               0.000000000               0.000000000              -0.000136100               0.005479980               0.000006993              -0.000736033               0.002071986               0.001335953               0.000000000               0.000000000               0.000000000               0.000000000              -0.000122330               0.005297408              -0.000013355              -0.000708048               0.002001801               0.001293753               0.000000000               0.000000000               0.000000000               0.000000000              -0.000108145               0.005206426              -0.000016214              -0.000691356               0.001965910               0.001274554               0.000000000               0.000000000               0.000000000               0.000000000              -0.000189031               0.004437037               0.001919301              -0.000625516               0.001687502               0.001061986               0.000000000               0.000000000               0.000000000               0.000000000              -0.001178352               0.005842224               0.001951983              -0.001172158               0.002338107               0.001165949               0.000000000               0.000000000               0.000000000               0.000000000              -0.002061259               0.007349862               0.001784779              -0.001691701               0.003013829               0.001322128               0.000000000               0.000000000               0.000000000               0.000000000              -0.002022721               0.007716691               0.001458190              -0.001723103               0.003146572               0.001423469               0.000000000               0.000000000               0.000000000               0.000000000              -0.001765626               0.007705696               0.001190711              -0.001625318               0.003110312               0.001484994               0.000000000               0.000000000               0.000000000               0.000000000              -0.001468275               0.007565821               0.000990524              -0.001496327               0.003020691               0.001524363               0.000000000               0.000000000               0.000000000               0.000000000              -0.001172280               0.007387802               0.000837283              -0.001363077               0.002916935               0.001553858               0.000000000               0.000000000               0.000000000               0.000000000              -0.000900873               0.007172132               0.000720051              -0.001234341               0.002802134               0.001567793               0.000000000               0.000000000               0.000000000               0.000000000              -0.000663731               0.006908634               0.000622194              -0.001112475               0.002673680               0.001561204               0.000000000               0.000000000               0.000000000               0.000000000              -0.000464996               0.006619874               0.000530749              -0.001001856               0.002540554               0.001538699               0.000000000               0.000000000               0.000000000               0.000000000              -0.000316673               0.006320429               0.000436750              -0.000908804               0.002409723               0.001500919               0.000000000               0.000000000               0.000000000               0.000000000              -0.000221345               0.006041542               0.000334561              -0.000838195               0.002293226               0.001455031               0.000000000               0.000000000               0.000000000               0.000000000              -0.000178475               0.005791326               0.000231864              -0.000790842               0.002194037               0.001403195               0.000000000               0.000000000               0.000000000               0.000000000              -0.000172034               0.005570153               0.000137188              -0.000760780               0.002110292               0.001349512               0.000000000               0.000000000               0.000000000               0.000000000              -0.000190075               0.005364656               0.000062450              -0.000741858               0.002035487               0.001293628               0.000000000               0.000000000               0.000000000               0.000000000              -0.000220609               0.005170529               0.000018328              -0.000729043               0.001966507               0.001237464               0.000000000               0.000000000               0.000000000               0.000000000              -0.000230987               0.005081317               0.000005112              -0.000721783               0.001934349               0.001212567               0.000000000               0.000000000               0.000000000               0.000000000              -0.001338601               0.002868327               0.001196565              -0.000860515               0.001242937               0.000382423               0.000000000               0.000000000               0.000000000               0.000000000              -0.001679895               0.004481996               0.001756120              -0.001190208               0.001890719               0.000700511               0.000000000               0.000000000               0.000000000               0.000000000              -0.002200879               0.006189590               0.002073659              -0.001599025               0.002596184               0.000997159               0.000000000               0.000000000               0.000000000               0.000000000              -0.002090251               0.006856971               0.001873914              -0.001640962               0.002832621               0.001191659               0.000000000               0.000000000               0.000000000               0.000000000              -0.001810554               0.007092250               0.001609388              -0.001565485               0.002885888               0.001320402               0.000000000               0.000000000               0.000000000               0.000000000              -0.001506587               0.007137762               0.001377414              -0.001457187               0.002864959               0.001407772               0.000000000               0.000000000               0.000000000               0.000000000              -0.001208143               0.007101727               0.001185362              -0.001340767               0.002814141               0.001473374               0.000000000               0.000000000               0.000000000               0.000000000              -0.000935668               0.006991441               0.001030942              -0.001224803               0.002738724               0.001513922               0.000000000               0.000000000               0.000000000               0.000000000              -0.000698712               0.006808878               0.000901785              -0.001113124               0.002640645               0.001527520               0.000000000               0.000000000               0.000000000               0.000000000              -0.000490875               0.006581602               0.000780531              -0.001006776               0.002529437               0.001522661               0.000000000               0.000000000               0.000000000               0.000000000              -0.000322727               0.006323328               0.000658824              -0.000911436               0.002411567               0.001500130               0.000000000               0.000000000               0.000000000               0.000000000              -0.000199379               0.006058388               0.000533587              -0.000832064               0.002296797               0.001464733               0.000000000               0.000000000               0.000000000               0.000000000              -0.000130745               0.005797929               0.000408606              -0.000773769               0.002190547               0.001416778               0.000000000               0.000000000               0.000000000               0.000000000              -0.000115843               0.005560940               0.000287026              -0.000738557               0.002099814               0.001361257               0.000000000               0.000000000               0.000000000               0.000000000              -0.000149253               0.005349764               0.000171475              -0.000724689               0.002024800               0.001300111               0.000000000               0.000000000               0.000000000               0.000000000              -0.000227186               0.005164334               0.000074845              -0.000730735               0.001965006               0.001234271               0.000000000               0.000000000               0.000000000               0.000000000              -0.000292649               0.005068722               0.000025920              -0.000743332               0.001937335               0.001194003               0.000000000               0.000000000               0.000000000               0.000000000              -0.002687644               0.001571535               0.000521757              -0.001204306               0.000925274              -0.000279032               0.000000000               0.000000000               0.000000000               0.000000000              -0.002291357               0.003201723               0.001470326              -0.001259472               0.001487053               0.000227581               0.000000000               0.000000000               0.000000000               0.000000000              -0.002294150               0.004894459               0.002179183              -0.001472111               0.002122173               0.000650062               0.000000000               0.000000000               0.000000000               0.000000000              -0.002051244               0.005774215               0.002143909              -0.001490991               0.002421715               0.000930725               0.000000000               0.000000000               0.000000000               0.000000000              -0.001743565               0.006238935               0.001927391              -0.001433701               0.002557524               0.001123823               0.000000000               0.000000000               0.000000000               0.000000000              -0.001439031               0.006484641               0.001694890              -0.001350214               0.002611597               0.001261382               0.000000000               0.000000000               0.000000000               0.000000000              -0.001149745               0.006608508               0.001488773              -0.001257215               0.002621885               0.001364670               0.000000000               0.000000000               0.000000000               0.000000000              -0.000886134               0.006627398               0.001314028              -0.001160723               0.002596018               0.001435295               0.000000000               0.000000000               0.000000000               0.000000000              -0.000650487               0.006556996               0.001163583              -0.001063555               0.002540162               0.001476607               0.000000000               0.000000000               0.000000000               0.000000000              -0.000442806               0.006419210               0.001021753              -0.000968452               0.002462532               0.001494081               0.000000000               0.000000000               0.000000000               0.000000000              -0.000266390               0.006236393               0.000880241              -0.000879444               0.002371925               0.001492481               0.000000000               0.000000000               0.000000000               0.000000000              -0.000119616               0.006025346               0.000740232              -0.000798022               0.002274436               0.001476414               0.000000000               0.000000000               0.000000000               0.000000000              -0.000011397               0.005788585               0.000600687              -0.000727845               0.002172124               0.001444279               0.000000000               0.000000000               0.000000000               0.000000000               0.000042743               0.005553669               0.000456819              -0.000678178               0.002077264               0.001399086               0.000000000               0.000000000               0.000000000               0.000000000               0.000033817               0.005344181               0.000304550              -0.000655340               0.001999822               0.001344483               0.000000000               0.000000000               0.000000000               0.000000000              -0.000043364               0.005165722               0.000150171              -0.000661975               0.001942548               0.001280573               0.000000000               0.000000000               0.000000000               0.000000000              -0.000128947               0.005064393               0.000063491              -0.000681402               0.001915248               0.001233846               0.000000000               0.000000000               0.000000000               0.000000000              -0.004138087               0.000606011              -0.000017180              -0.001627532               0.000744509              -0.000883023               0.000000000               0.000000000               0.000000000               0.000000000              -0.002975559               0.002066513               0.001131848              -0.001374147               0.001146878              -0.000227269               0.000000000               0.000000000               0.000000000               0.000000000              -0.002368014               0.003570418               0.002077752              -0.001334305               0.001634895               0.000300590               0.000000000               0.000000000               0.000000000               0.000000000              -0.001930659               0.004557728               0.002192451              -0.001293711               0.001950464               0.000656753               0.000000000               0.000000000               0.000000000               0.000000000              -0.001570239               0.005201791               0.002053412              -0.001239062               0.002146933               0.000907871               0.000000000               0.000000000               0.000000000               0.000000000              -0.001257346               0.005633451               0.001854232              -0.001175684               0.002269692               0.001094008               0.000000000               0.000000000               0.000000000               0.000000000              -0.000977353               0.005922663               0.001660465              -0.001106838               0.002343147               0.001236309               0.000000000               0.000000000               0.000000000               0.000000000              -0.000729346               0.006076682               0.001489690              -0.001033088               0.002369903               0.001336815               0.000000000               0.000000000               0.000000000               0.000000000              -0.000505538               0.006128635               0.001336687              -0.000955654               0.002361409               0.001405755               0.000000000               0.000000000               0.000000000               0.000000000              -0.000301678               0.006106910               0.001185765              -0.000876491               0.002327780               0.001451289               0.000000000               0.000000000               0.000000000               0.000000000              -0.000119189               0.006022439               0.001038149              -0.000797499               0.002273293               0.001475793               0.000000000               0.000000000               0.000000000               0.000000000               0.000046743               0.005890278               0.000898610              -0.000718755               0.002202991               0.001484236               0.000000000               0.000000000               0.000000000               0.000000000               0.000194564               0.005719875               0.000757218              -0.000642022               0.002120613               0.001478592               0.000000000               0.000000000               0.000000000               0.000000000               0.000308142               0.005527686               0.000600341              -0.000575406               0.002034346               0.001458940               0.000000000               0.000000000               0.000000000               0.000000000               0.000369321               0.005338007               0.000421952              -0.000528754               0.001955569               0.001426815               0.000000000               0.000000000               0.000000000               0.000000000               0.000359676               0.005164879               0.000221912              -0.000510730               0.001891853               0.001381123               0.000000000               0.000000000               0.000000000               0.000000000               0.000315952               0.005070339               0.000110977              -0.000515309               0.001861866               0.001346557               0.000000000               0.000000000               0.000000000               0.000000000              -0.005539408              -0.000033118              -0.000343788              -0.002073136               0.000680001              -0.001393135               0.000000000               0.000000000               0.000000000               0.000000000              -0.003665501               0.001143340               0.000786977              -0.001517478               0.000886933              -0.000630545               0.000000000               0.000000000               0.000000000               0.000000000              -0.002434175               0.002347950               0.001770629              -0.001206307               0.001184743              -0.000021564               0.000000000               0.000000000               0.000000000               0.000000000              -0.001762838               0.003346371               0.001977665              -0.001079359               0.001475231               0.000395872               0.000000000               0.000000000               0.000000000               0.000000000              -0.001321867               0.004104571               0.001915762              -0.001008770               0.001704433               0.000695663               0.000000000               0.000000000               0.000000000               0.000000000              -0.000987777               0.004680431               0.001770867              -0.000955469               0.001878617               0.000923148               0.000000000               0.000000000               0.000000000               0.000000000              -0.000709043               0.005109195               0.001614344              -0.000904539               0.002004561               0.001100022               0.000000000               0.000000000               0.000000000               0.000000000              -0.000473073               0.005391381               0.001467507              -0.000851324               0.002080883               0.001229560               0.000000000               0.000000000               0.000000000               0.000000000              -0.000267658               0.005565136               0.001329081              -0.000796013               0.002120364               0.001324352               0.000000000               0.000000000               0.000000000               0.000000000              -0.000076306               0.005656846               0.001190242              -0.000735719               0.002130836               0.001395117               0.000000000               0.000000000               0.000000000               0.000000000               0.000112006               0.005677905               0.001057074              -0.000667735               0.002115194               0.001447459               0.000000000               0.000000000               0.000000000               0.000000000               0.000298446               0.005641517               0.000934039              -0.000593271               0.002078244               0.001484973               0.000000000               0.000000000               0.000000000               0.000000000               0.000479655               0.005560581               0.000805441              -0.000515201               0.002025242               0.001510041               0.000000000               0.000000000               0.000000000               0.000000000               0.000653722               0.005446156               0.000655799              -0.000435623               0.001960575               0.001524952               0.000000000               0.000000000               0.000000000               0.000000000               0.000809335               0.005306309               0.000474238              -0.000359787               0.001888681               0.001528894               0.000000000               0.000000000               0.000000000               0.000000000               0.000926881               0.005155065               0.000255032              -0.000296802               0.001817272               0.001520470               0.000000000               0.000000000               0.000000000               0.000000000               0.000987498               0.005082044               0.000138513              -0.000264943               0.001782312               0.001517369               0.000000000               0.000000000               0.000000000               0.000000000              -0.006720637              -0.000397972              -0.000419980              -0.002470491               0.000690835              -0.001779656               0.000000000               0.000000000               0.000000000               0.000000000              -0.004268499               0.000475960               0.000477853              -0.001660181               0.000712042              -0.000948139               0.000000000               0.000000000               0.000000000               0.000000000              -0.002493423               0.001361231               0.001286983              -0.001105186               0.000822133              -0.000283053               0.000000000               0.000000000               0.000000000               0.000000000              -0.001589970               0.002306630               0.001501659              -0.000884566               0.001063724               0.000179157               0.000000000               0.000000000               0.000000000               0.000000000              -0.001056087               0.003118328               0.001491111              -0.000785823               0.001301372               0.000515550               0.000000000               0.000000000               0.000000000               0.000000000              -0.000690224               0.003785376               0.001403544              -0.000732005               0.001505781               0.000773776               0.000000000               0.000000000               0.000000000               0.000000000              -0.000408762               0.004315605               0.001297982              -0.000692735               0.001669432               0.000976697               0.000000000               0.000000000               0.000000000               0.000000000              -0.000184885               0.004703030               0.001189700              -0.000657210               0.001786731               0.001129521               0.000000000               0.000000000               0.000000000               0.000000000               0.000005960               0.004978119               0.001083120              -0.000620029               0.001866032               0.001246004               0.000000000               0.000000000               0.000000000               0.000000000               0.000187337               0.005166324               0.000978561              -0.000575538               0.001913937               0.001338398               0.000000000               0.000000000               0.000000000               0.000000000               0.000377191               0.005284430               0.000879788              -0.000519106               0.001934494               0.001415388               0.000000000               0.000000000               0.000000000               0.000000000               0.000575305               0.005342952               0.000786159              -0.000452129               0.001931676               0.001479547               0.000000000               0.000000000               0.000000000               0.000000000               0.000785037               0.005352569               0.000687973              -0.000374682               0.001909065               0.001534384               0.000000000               0.000000000               0.000000000               0.000000000               0.001011700               0.005318764               0.000571124              -0.000285458               0.001868056               0.001582598               0.000000000               0.000000000               0.000000000               0.000000000               0.001255148               0.005242845               0.000420788              -0.000184675               0.001809156               0.001624481               0.000000000               0.000000000               0.000000000               0.000000000               0.001517781               0.005131699               0.000228764              -0.000072294               0.001734647               0.001662353               0.000000000               0.000000000               0.000000000               0.000000000               0.001712952               0.005089103               0.000129396               0.000006219               0.001694278               0.001700496               0.000000000               0.000000000               0.000000000               0.000000000              -0.007509714              -0.000570427              -0.000276451              -0.002744838               0.000724799              -0.002020039               0.000000000               0.000000000               0.000000000               0.000000000              -0.004684380               0.000077869               0.000220152              -0.001766375               0.000614744              -0.001151631               0.000000000               0.000000000               0.000000000               0.000000000              -0.002542798               0.000722660               0.000677386              -0.001043881               0.000588843              -0.000455038               0.000000000               0.000000000               0.000000000               0.000000000              -0.001465829               0.001600691               0.000812457              -0.000749771               0.000783481               0.000033711               0.000000000               0.000000000               0.000000000               0.000000000              -0.000854288               0.002422805               0.000818534              -0.000623207               0.001015329               0.000392122               0.000000000               0.000000000               0.000000000               0.000000000              -0.000456023               0.003139832               0.000778701              -0.000563487               0.001234429               0.000670942               0.000000000               0.000000000               0.000000000               0.000000000              -0.000172019               0.003733859               0.000726646              -0.000531239               0.001421687               0.000890448               0.000000000               0.000000000               0.000000000               0.000000000               0.000042755               0.004187917               0.000670012              -0.000507456               0.001565110               0.001057655               0.000000000               0.000000000               0.000000000               0.000000000               0.000226243               0.004528706               0.000611870              -0.000481246               0.001669969               0.001188723               0.000000000               0.000000000               0.000000000               0.000000000               0.000403087               0.004781805               0.000556241              -0.000446567               0.001742775               0.001296208               0.000000000               0.000000000               0.000000000               0.000000000               0.000590617               0.004969717               0.000502929              -0.000399733               0.001789800               0.001390067               0.000000000               0.000000000               0.000000000               0.000000000               0.000795375               0.005100802               0.000451691              -0.000339334               0.001813362               0.001474028               0.000000000               0.000000000               0.000000000               0.000000000               0.001024701               0.005177904               0.000399689              -0.000262975               0.001813609               0.001550634               0.000000000               0.000000000               0.000000000               0.000000000               0.001288148               0.005204272               0.000333975              -0.000167478               0.001790566               0.001623088               0.000000000               0.000000000               0.000000000               0.000000000               0.001599553               0.005179962               0.000248895              -0.000047663               0.001742524               0.001694861               0.000000000               0.000000000               0.000000000               0.000000000               0.001975109               0.005104372               0.000138609               0.000102618               0.001667234               0.001769853               0.000000000               0.000000000               0.000000000               0.000000000               0.002279654               0.005087971               0.000081946               0.000218872               0.001623016               0.001841888               0.000000000               0.000000000               0.000000000               0.000000000              -0.007784469              -0.000616194              -0.000000000              -0.002842150               0.000741980              -0.002100170               0.000000000               0.000000000               0.000000000               0.000000000              -0.004832189              -0.000049510              -0.000000000              -0.001805881               0.000585453              -0.001220428               0.000000000               0.000000000               0.000000000               0.000000000              -0.002564185               0.000503383               0.000000000              -0.001024491               0.000509288              -0.000515203               0.000000000               0.000000000               0.000000000               0.000000000              -0.001423847               0.001347012               0.000000000              -0.000702318               0.000683105              -0.000019213               0.000000000               0.000000000               0.000000000               0.000000000              -0.000780957               0.002167921               0.000000000              -0.000563848               0.000910582               0.000346735               0.000000000               0.000000000               0.000000000               0.000000000              -0.000368173               0.002902557               0.000000000              -0.000500883               0.001134470               0.000633587               0.000000000               0.000000000               0.000000000               0.000000000              -0.000081262               0.003522486              -0.000000000              -0.000470783               0.001331078               0.000860295               0.000000000               0.000000000               0.000000000               0.000000000               0.000130869               0.003999143               0.000000000              -0.000450816               0.001483306               0.001032490               0.000000000               0.000000000               0.000000000               0.000000000               0.000311047               0.004358650              -0.000000000              -0.000428188               0.001595598               0.001167410               0.000000000               0.000000000               0.000000000               0.000000000               0.000487075               0.004634572              -0.000000000              -0.000396667               0.001677064               0.001280397               0.000000000               0.000000000               0.000000000               0.000000000               0.000672699               0.004847956              -0.000000000              -0.000353731               0.001733879               0.001380148               0.000000000               0.000000000               0.000000000               0.000000000               0.000881392               0.005007039              -0.000000000              -0.000295357               0.001767449               0.001472092               0.000000000               0.000000000               0.000000000               0.000000000               0.001116674               0.005109601               0.000000000              -0.000219947               0.001776499               0.001556552               0.000000000               0.000000000               0.000000000               0.000000000               0.001392568               0.005157354               0.000000000              -0.000122456               0.001759919               0.001637463               0.000000000               0.000000000               0.000000000               0.000000000               0.001731997               0.005152002               0.000000000               0.000005499               0.001715484               0.001720982               0.000000000               0.000000000               0.000000000               0.000000000               0.002150060               0.005091607               0.000000000               0.000169820               0.001640579               0.001810399               0.000000000               0.000000000               0.000000000               0.000000000               0.002494969               0.005086754               0.000000000               0.000299766               0.001595646               0.001895412               0.000000000               0.000000000               0.000000000               0.000000000               0.001839251               0.020465443              -0.000000000              -0.001868457               0.007444565               0.005576108               0.000000000               0.000000000               0.000000000               0.000000000               0.001842174               0.016177659               0.000000000              -0.001331389               0.005836295               0.004504906               0.000000000               0.000000000               0.000000000               0.000000000               0.002443461               0.012714218               0.000000000              -0.000672978               0.004462356               0.003789378               0.000000000               0.000000000               0.000000000               0.000000000               0.002375795               0.010777497               0.000000000              -0.000456263               0.003744551               0.003288288               0.000000000               0.000000000               0.000000000               0.000000000               0.002103395               0.009585391              -0.000000000              -0.000409400               0.003331565               0.002922165               0.000000000               0.000000000               0.000000000               0.000000000               0.001783524               0.008779453               0.000000000              -0.000428609               0.003069325               0.002640716               0.000000000               0.000000000               0.000000000               0.000000000               0.001476043               0.008191209               0.000000000              -0.000470384               0.002887170               0.002416786               0.000000000               0.000000000               0.000000000               0.000000000               0.001202995               0.007734482               0.000000000              -0.000515686               0.002750030               0.002234344               0.000000000               0.000000000               0.000000000               0.000000000               0.000964329               0.007352763               0.000000000              -0.000557471               0.002636720               0.002079249               0.000000000               0.000000000               0.000000000               0.000000000               0.000757109               0.007012524               0.000000000              -0.000592648               0.002535034               0.001942386               0.000000000               0.000000000               0.000000000               0.000000000               0.000576335               0.006687498               0.000000000              -0.000619810               0.002435747               0.001815937               0.000000000               0.000000000               0.000000000               0.000000000               0.000420793               0.006366915              -0.000000000              -0.000638065               0.002334972               0.001696907               0.000000000               0.000000000               0.000000000               0.000000000               0.000284935               0.006037989              -0.000000000              -0.000647896               0.002228608               0.001580712               0.000000000               0.000000000               0.000000000               0.000000000               0.000174483               0.005686591               0.000000000              -0.000645391               0.002110642               0.001465250               0.000000000               0.000000000               0.000000000               0.000000000               0.000096238               0.005298244               0.000000000              -0.000626190               0.001974794               0.001348604               0.000000000               0.000000000               0.000000000               0.000000000               0.000042299               0.004852873               0.000000000              -0.000590746               0.001814524               0.001223778               0.000000000               0.000000000               0.000000000               0.000000000              -0.000015501               0.004509231               0.000000000              -0.000569465               0.001692884               0.001123418               0.000000000               0.000000000               0.000000000               0.000000000               0.001911730               0.020057435              -0.001414586              -0.001790277               0.007282504               0.005492227               0.000000000               0.000000000               0.000000000               0.000000000               0.001817713               0.015912484              -0.000739270              -0.001307415               0.005739913               0.004432498               0.000000000               0.000000000               0.000000000               0.000000000               0.002314942               0.012600131              -0.000066583              -0.000706912               0.004435639               0.003728727               0.000000000               0.000000000               0.000000000               0.000000000               0.002205364               0.010743104               0.000219881              -0.000515875               0.003752957               0.003237082               0.000000000               0.000000000               0.000000000               0.000000000               0.001921067               0.009588907               0.000338931              -0.000478212               0.003355674               0.002877462               0.000000000               0.000000000               0.000000000               0.000000000               0.001608502               0.008805072               0.000380308              -0.000497445               0.003100810               0.002603365               0.000000000               0.000000000               0.000000000               0.000000000               0.001315741               0.008227640               0.000389279              -0.000535051               0.002920869               0.002385819               0.000000000               0.000000000               0.000000000               0.000000000               0.001058888               0.007773608               0.000382003              -0.000574617               0.002782716               0.002208099               0.000000000               0.000000000               0.000000000               0.000000000               0.000838435               0.007391599               0.000366683              -0.000609535               0.002667020               0.002057485               0.000000000               0.000000000               0.000000000               0.000000000               0.000649941               0.007047648               0.000346966              -0.000637227               0.002561601               0.001924375               0.000000000               0.000000000               0.000000000               0.000000000               0.000490408               0.006720993               0.000326195              -0.000656220               0.002459048               0.001802829               0.000000000               0.000000000               0.000000000               0.000000000               0.000354118               0.006402503               0.000306735              -0.000667517               0.002356652               0.001689135               0.000000000               0.000000000               0.000000000               0.000000000               0.000235188               0.006082899               0.000280571              -0.000672165               0.002251668               0.001579502               0.000000000               0.000000000               0.000000000               0.000000000               0.000141363               0.005749427               0.000241324              -0.000665666               0.002138345               0.001472679               0.000000000               0.000000000               0.000000000               0.000000000               0.000075692               0.005388172               0.000186560              -0.000645135               0.002011085               0.001365949               0.000000000               0.000000000               0.000000000               0.000000000               0.000031632               0.004986579               0.000107947              -0.000611459               0.001865996               0.001254537               0.000000000               0.000000000               0.000000000               0.000000000              -0.000015909               0.004687371               0.000066688              -0.000591886               0.001759737               0.001167851               0.000000000               0.000000000               0.000000000               0.000000000               0.002095360               0.018886172              -0.002635762              -0.001575009               0.006820330               0.005245322               0.000000000               0.000000000               0.000000000               0.000000000               0.001729931               0.015154745              -0.001378276              -0.001245616               0.005466737               0.004221120               0.000000000               0.000000000               0.000000000               0.000000000               0.001937253               0.012273503              -0.000136863              -0.000807716               0.004360366               0.003552650               0.000000000               0.000000000               0.000000000               0.000000000               0.001723013               0.010636762               0.000372537              -0.000683464               0.003773373               0.003089909               0.000000000               0.000000000               0.000000000               0.000000000               0.001420111               0.009590327               0.000578777              -0.000666248               0.003418826               0.002752578               0.000000000               0.000000000               0.000000000               0.000000000               0.001131875               0.008859026               0.000648982              -0.000682924               0.003180620               0.002497697               0.000000000               0.000000000               0.000000000               0.000000000               0.000880150               0.008306202               0.000659881              -0.000708217               0.003004779               0.002296561               0.000000000               0.000000000               0.000000000               0.000000000               0.000670805               0.007859510               0.000644799              -0.000730885               0.002863439               0.002132554               0.000000000               0.000000000               0.000000000               0.000000000               0.000505622               0.007477613               0.000616407              -0.000745092               0.002740876               0.001995785               0.000000000               0.000000000               0.000000000               0.000000000               0.000371153               0.007131678               0.000579059              -0.000752276               0.002627961               0.001875685               0.000000000               0.000000000               0.000000000               0.000000000               0.000261408               0.006809471               0.000538874              -0.000753154               0.002520852               0.001767698               0.000000000               0.000000000               0.000000000               0.000000000               0.000173569               0.006502161               0.000500040              -0.000747680               0.002416592               0.001668912               0.000000000               0.000000000               0.000000000               0.000000000               0.000102747               0.006200751               0.000452082              -0.000736562               0.002312417               0.001575855               0.000000000               0.000000000               0.000000000               0.000000000               0.000052293               0.005902745               0.000382597              -0.000718231               0.002206972               0.001488741               0.000000000               0.000000000               0.000000000               0.000000000               0.000021194               0.005607493               0.000288367              -0.000692987               0.002100141               0.001407154               0.000000000               0.000000000               0.000000000               0.000000000               0.000005469               0.005316401               0.000162697              -0.000662497               0.001992948               0.001330451               0.000000000               0.000000000               0.000000000               0.000000000              -0.000016270               0.005123558               0.000096695              -0.000646544               0.001923350               0.001276806               0.000000000               0.000000000               0.000000000               0.000000000               0.002298015               0.017102064              -0.003521455              -0.001276001               0.006125964               0.004849963               0.000000000               0.000000000               0.000000000               0.000000000               0.001553449               0.014013075              -0.001851657              -0.001169089               0.005060674               0.003891585               0.000000000               0.000000000               0.000000000               0.000000000               0.001355838               0.011776224              -0.000224080              -0.000963587               0.004246564               0.003282978               0.000000000               0.000000000               0.000000000               0.000000000               0.001018693               0.010449765               0.000409658              -0.000924209               0.003791290               0.002867081               0.000000000               0.000000000               0.000000000               0.000000000               0.000716417               0.009554237               0.000653117              -0.000925621               0.003493254               0.002567633               0.000000000               0.000000000               0.000000000               0.000000000               0.000478650               0.008891839               0.000731843              -0.000931984               0.003274578               0.002342594               0.000000000               0.000000000               0.000000000               0.000000000               0.000299487               0.008369211               0.000741923              -0.000933842               0.003100989               0.002167148               0.000000000               0.000000000               0.000000000               0.000000000               0.000171718               0.007933768               0.000722224              -0.000927324               0.002953671               0.002026346               0.000000000               0.000000000               0.000000000               0.000000000               0.000082477               0.007552460               0.000685406              -0.000913126               0.002821837               0.001908710               0.000000000               0.000000000               0.000000000               0.000000000               0.000016621               0.007207844               0.000638624              -0.000894745               0.002700839               0.001806094               0.000000000               0.000000000               0.000000000               0.000000000              -0.000027688               0.006893551               0.000589427              -0.000872075               0.002588519               0.001716444               0.000000000               0.000000000               0.000000000               0.000000000              -0.000048551               0.006603482               0.000538472              -0.000843640               0.002482352               0.001638712               0.000000000               0.000000000               0.000000000               0.000000000              -0.000050886               0.006332187               0.000476474              -0.000810604               0.002380909               0.001570305               0.000000000               0.000000000               0.000000000               0.000000000              -0.000040433               0.006085755               0.000395920              -0.000775880               0.002287191               0.001511311               0.000000000               0.000000000               0.000000000               0.000000000              -0.000023882               0.005877361               0.000291924              -0.000743624               0.002206976               0.001463351               0.000000000               0.000000000               0.000000000               0.000000000              -0.000011724               0.005715980               0.000159965              -0.000718892               0.002144938               0.001426046               0.000000000               0.000000000               0.000000000               0.000000000              -0.000011397               0.005635412               0.000088762              -0.000708699               0.002114685               0.001405986               0.000000000               0.000000000               0.000000000               0.000000000               0.002403124               0.014913066              -0.003997234              -0.000962962               0.005291959               0.004328996               0.000000000               0.000000000               0.000000000               0.000000000               0.001262251               0.012633796              -0.002138385              -0.001105879               0.004579849               0.003473970               0.000000000               0.000000000               0.000000000               0.000000000               0.000643458               0.011162384              -0.000350748              -0.001153998               0.004105424               0.002951425               0.000000000               0.000000000               0.000000000               0.000000000               0.000219925               0.010176309               0.000306241              -0.001189564               0.003788590               0.002599026               0.000000000               0.000000000               0.000000000               0.000000000              -0.000045504               0.009440427               0.000546932              -0.001197115               0.003545816               0.002348701               0.000000000               0.000000000               0.000000000               0.000000000              -0.000198250               0.008854426               0.000623119              -0.001181144               0.003345160               0.002164016               0.000000000               0.000000000               0.000000000               0.000000000              -0.000276601               0.008364346               0.000634368              -0.001149266               0.003171176               0.002021910               0.000000000               0.000000000               0.000000000               0.000000000              -0.000310037               0.007939380               0.000616098              -0.001108684               0.003015995               0.001907311               0.000000000               0.000000000               0.000000000               0.000000000              -0.000314111               0.007564042               0.000580081              -0.001063295               0.002875754               0.001812459               0.000000000               0.000000000               0.000000000               0.000000000              -0.000297873               0.007227259               0.000535481              -0.001015107               0.002747431               0.001732324               0.000000000               0.000000000               0.000000000               0.000000000              -0.000260785               0.006925304               0.000488133              -0.000963455               0.002629563               0.001666108               0.000000000               0.000000000               0.000000000               0.000000000              -0.000210811               0.006656889               0.000437163              -0.000911163               0.002522662               0.001611499               0.000000000               0.000000000               0.000000000               0.000000000              -0.000155200               0.006423785               0.000373732              -0.000861171               0.002428297               0.001567126               0.000000000               0.000000000               0.000000000               0.000000000              -0.000096714               0.006233641               0.000298169              -0.000815471               0.002349683               0.001534212               0.000000000               0.000000000               0.000000000               0.000000000              -0.000048419               0.006096447               0.000211087              -0.000780211               0.002292199               0.001511988               0.000000000               0.000000000               0.000000000               0.000000000              -0.000018730               0.006016652               0.000109401              -0.000759103               0.002258565               0.001499462               0.000000000               0.000000000               0.000000000               0.000000000              -0.000007235               0.005992346               0.000055085              -0.000751755               0.002248014               0.001496259               0.000000000               0.000000000               0.000000000               0.000000000               0.002313718               0.012542595              -0.004070826              -0.000700182               0.004414216               0.003714034               0.000000000               0.000000000               0.000000000               0.000000000               0.000856660               0.011162225              -0.002262941              -0.001074030               0.004078714               0.003004684               0.000000000               0.000000000               0.000000000               0.000000000              -0.000109441               0.010485928              -0.000535519              -0.001351778               0.003945867               0.002594089               0.000000000               0.000000000               0.000000000               0.000000000              -0.000541352               0.009821358               0.000072121              -0.001430673               0.003750644               0.002319971               0.000000000               0.000000000               0.000000000               0.000000000              -0.000721204               0.009228435               0.000294103              -0.001424002               0.003550782               0.002126779               0.000000000               0.000000000               0.000000000               0.000000000              -0.000769237               0.008711141               0.000371769              -0.001377353               0.003362802               0.001985449               0.000000000               0.000000000               0.000000000               0.000000000              -0.000742900               0.008259922               0.000390475              -0.001311074               0.003190305               0.001879230               0.000000000               0.000000000               0.000000000               0.000000000              -0.000678594               0.007859623               0.000383499              -0.001236922               0.003032156               0.001795233               0.000000000               0.000000000               0.000000000               0.000000000              -0.000592544               0.007501315               0.000360227              -0.001159866               0.002887035               0.001727170               0.000000000               0.000000000               0.000000000               0.000000000              -0.000497046               0.007178898               0.000326096              -0.001083752               0.002754193               0.001670441               0.000000000               0.000000000               0.000000000               0.000000000              -0.000394997               0.006894717               0.000288794              -0.001009961               0.002634870               0.001624909               0.000000000               0.000000000               0.000000000               0.000000000              -0.000293777               0.006647785               0.000248894              -0.000941137               0.002529619               0.001588481               0.000000000               0.000000000               0.000000000               0.000000000              -0.000203896               0.006438329               0.000201757              -0.000881250               0.002439838               0.001558588               0.000000000               0.000000000               0.000000000               0.000000000              -0.000126257               0.006276149               0.000152927              -0.000831863               0.002369316               0.001537453               0.000000000               0.000000000               0.000000000               0.000000000              -0.000065916               0.006161002               0.000104610              -0.000794842               0.002318594               0.001523752               0.000000000               0.000000000               0.000000000               0.000000000              -0.000025594               0.006080230               0.000051782              -0.000769625               0.002283264               0.001513640               0.000000000               0.000000000               0.000000000               0.000000000              -0.000019268               0.006033406               0.000029584              -0.000761399               0.002264915               0.001503516               0.000000000               0.000000000               0.000000000               0.000000000               0.001970700               0.010194482              -0.003809972              -0.000535300               0.003576559               0.003041259               0.000000000               0.000000000               0.000000000               0.000000000               0.000361170               0.009719489              -0.002266779              -0.001079496               0.003599629               0.002520132               0.000000000               0.000000000               0.000000000               0.000000000              -0.000813921               0.009780867              -0.000779195              -0.001527825               0.003769531               0.002241706               0.000000000               0.000000000               0.000000000               0.000000000              -0.001169982               0.009386658              -0.000257003              -0.001612072               0.003666212               0.002054140               0.000000000               0.000000000               0.000000000               0.000000000              -0.001222917               0.008915337              -0.000047710              -0.001573007               0.003496085               0.001923078               0.000000000               0.000000000               0.000000000               0.000000000              -0.001152363               0.008467943               0.000043776              -0.001490625               0.003319495               0.001828869               0.000000000               0.000000000               0.000000000               0.000000000              -0.001025025               0.008064074               0.000082699              -0.001392390               0.003152128               0.001759738               0.000000000               0.000000000               0.000000000               0.000000000              -0.000875729               0.007697743               0.000095419              -0.001290613               0.002996093               0.001705480               0.000000000               0.000000000               0.000000000               0.000000000              -0.000721473               0.007365770               0.000090293              -0.001191271               0.002852322               0.001661052               0.000000000               0.000000000               0.000000000               0.000000000              -0.000568357               0.007064649               0.000076867              -0.001096212               0.002720264               0.001624051               0.000000000               0.000000000               0.000000000               0.000000000              -0.000425074               0.006790629               0.000064712              -0.001008229               0.002599597               0.001591368               0.000000000               0.000000000               0.000000000               0.000000000              -0.000306113               0.006544285               0.000053370              -0.000932826               0.002492349               0.001559523               0.000000000               0.000000000               0.000000000               0.000000000              -0.000214141               0.006333959               0.000043575              -0.000872046               0.002401981               0.001529935               0.000000000               0.000000000               0.000000000               0.000000000              -0.000142538               0.006165226               0.000040592              -0.000824103               0.002329756               0.001505653               0.000000000               0.000000000               0.000000000               0.000000000              -0.000088148               0.006027820               0.000039117              -0.000786531               0.002271430               0.001484899               0.000000000               0.000000000               0.000000000               0.000000000              -0.000042118               0.005906606               0.000025789              -0.000754118               0.002220222               0.001466104               0.000000000               0.000000000               0.000000000               0.000000000              -0.000040169               0.005819705               0.000026505              -0.000742525               0.002187391               0.001444866               0.000000000               0.000000000               0.000000000               0.000000000               0.001393125               0.008016156              -0.003298001              -0.000479600               0.002831891               0.002352291               0.000000000               0.000000000               0.000000000               0.000000000              -0.000199394               0.008391752              -0.002189634              -0.001123741               0.003171802               0.002048062               0.000000000               0.000000000               0.000000000               0.000000000              -0.001402834               0.009060680              -0.001072856              -0.001658644               0.003573078               0.001914434               0.000000000               0.000000000               0.000000000               0.000000000              -0.001610367               0.008883771              -0.000630855              -0.001714355               0.003532679               0.001818324               0.000000000               0.000000000               0.000000000               0.000000000              -0.001519606               0.008526686              -0.000413930              -0.001635684               0.003387428               0.001751744               0.000000000               0.000000000               0.000000000               0.000000000              -0.001335762               0.008152327              -0.000295597              -0.001519948               0.003224065               0.001704117               0.000000000               0.000000000               0.000000000               0.000000000              -0.001121555               0.007797547              -0.000227701              -0.001395273               0.003064247               0.001668974               0.000000000               0.000000000               0.000000000               0.000000000              -0.000906559               0.007469477              -0.000186193              -0.001273641               0.002914348               0.001640707               0.000000000               0.000000000               0.000000000               0.000000000              -0.000703299               0.007160054              -0.000159895              -0.001158741               0.002772908               0.001614167               0.000000000               0.000000000               0.000000000               0.000000000              -0.000524039               0.006858194              -0.000140384              -0.001053786               0.002637304               0.001583518               0.000000000               0.000000000               0.000000000               0.000000000              -0.000382320               0.006572369              -0.000118175              -0.000964914               0.002512406               0.001547492               0.000000000               0.000000000               0.000000000               0.000000000              -0.000278187               0.006315350              -0.000087915              -0.000893737               0.002403008               0.001509271               0.000000000               0.000000000               0.000000000               0.000000000              -0.000206320               0.006096080              -0.000051871              -0.000839378               0.002311799               0.001472421               0.000000000               0.000000000               0.000000000               0.000000000              -0.000153962               0.005909352              -0.000013244              -0.000796403               0.002235232               0.001438829               0.000000000               0.000000000               0.000000000               0.000000000              -0.000106941               0.005741588               0.000018420              -0.000757800               0.002166444               0.001408644               0.000000000               0.000000000               0.000000000               0.000000000              -0.000058244               0.005590693               0.000024414              -0.000720676               0.002103771               0.001383095               0.000000000               0.000000000               0.000000000               0.000000000              -0.000048126               0.005494817               0.000028674              -0.000704898               0.002066553               0.001361656               0.000000000               0.000000000               0.000000000               0.000000000               0.000680404               0.006165058              -0.002634310              -0.000515482               0.002226825               0.001711343               0.000000000               0.000000000               0.000000000               0.000000000              -0.000739404               0.007205343              -0.002080086              -0.001177943               0.002794404               0.001616461               0.000000000               0.000000000               0.000000000               0.000000000              -0.001837052               0.008361104              -0.001415252              -0.001734028               0.003365016               0.001630987               0.000000000               0.000000000               0.000000000               0.000000000              -0.001883002               0.008409597              -0.001024098              -0.001757321               0.003388945               0.001631623               0.000000000               0.000000000               0.000000000               0.000000000              -0.001676479               0.008182285              -0.000782727              -0.001651461               0.003277888               0.001626427               0.000000000               0.000000000               0.000000000               0.000000000              -0.001409755               0.007888619              -0.000626353              -0.001514732               0.003134424               0.001619692               0.000000000               0.000000000               0.000000000               0.000000000              -0.001131621               0.007593760              -0.000519170              -0.001373575               0.002989086               0.001615512               0.000000000               0.000000000               0.000000000               0.000000000              -0.000867718               0.007304343              -0.000442044              -0.001238434               0.002847568               0.001609134               0.000000000               0.000000000               0.000000000               0.000000000              -0.000636119               0.006994610              -0.000382763              -0.001112868               0.002702469               0.001589601               0.000000000               0.000000000               0.000000000               0.000000000              -0.000444196               0.006680007              -0.000328543              -0.001001572               0.002560504               0.001558932               0.000000000               0.000000000               0.000000000               0.000000000              -0.000301327               0.006383655              -0.000267655              -0.000910952               0.002431514               0.001520562               0.000000000               0.000000000               0.000000000               0.000000000              -0.000211870               0.006118179              -0.000197068              -0.000844221               0.002320780               0.001476558               0.000000000               0.000000000               0.000000000               0.000000000              -0.000165560               0.005887643              -0.000123228              -0.000798038               0.002228541               0.001430502               0.000000000               0.000000000               0.000000000               0.000000000              -0.000145640               0.005678827              -0.000056095              -0.000764466               0.002147746               0.001383279               0.000000000               0.000000000               0.000000000               0.000000000              -0.000136100               0.005479980              -0.000006993              -0.000736033               0.002071986               0.001335953               0.000000000               0.000000000               0.000000000               0.000000000              -0.000122330               0.005297408               0.000013355              -0.000708048               0.002001801               0.001293753               0.000000000               0.000000000               0.000000000               0.000000000              -0.000108145               0.005206426               0.000016214              -0.000691356               0.001965910               0.001274554               0.000000000               0.000000000               0.000000000               0.000000000              -0.000189031               0.004437037              -0.001919301              -0.000625516               0.001687502               0.001061986               0.000000000               0.000000000               0.000000000               0.000000000              -0.001178352               0.005842224              -0.001951983              -0.001172158               0.002338107               0.001165949               0.000000000               0.000000000               0.000000000               0.000000000              -0.002061259               0.007349862              -0.001784779              -0.001691701               0.003013829               0.001322128               0.000000000               0.000000000               0.000000000               0.000000000              -0.002022721               0.007716691              -0.001458190              -0.001723103               0.003146572               0.001423469               0.000000000               0.000000000               0.000000000               0.000000000              -0.001765626               0.007705696              -0.001190711              -0.001625318               0.003110312               0.001484994               0.000000000               0.000000000               0.000000000               0.000000000              -0.001468275               0.007565821              -0.000990524              -0.001496327               0.003020691               0.001524363               0.000000000               0.000000000               0.000000000               0.000000000              -0.001172280               0.007387802              -0.000837283              -0.001363077               0.002916935               0.001553858               0.000000000               0.000000000               0.000000000               0.000000000              -0.000900873               0.007172132              -0.000720051              -0.001234341               0.002802134               0.001567793               0.000000000               0.000000000               0.000000000               0.000000000              -0.000663731               0.006908634              -0.000622194              -0.001112475               0.002673680               0.001561204               0.000000000               0.000000000               0.000000000               0.000000000              -0.000464996               0.006619874              -0.000530749              -0.001001856               0.002540554               0.001538699               0.000000000               0.000000000               0.000000000               0.000000000              -0.000316673               0.006320429              -0.000436750              -0.000908804               0.002409723               0.001500919               0.000000000               0.000000000               0.000000000               0.000000000              -0.000221345               0.006041542              -0.000334561              -0.000838195               0.002293226               0.001455031               0.000000000               0.000000000               0.000000000               0.000000000              -0.000178475               0.005791326              -0.000231864              -0.000790842               0.002194037               0.001403195               0.000000000               0.000000000               0.000000000               0.000000000              -0.000172034               0.005570153              -0.000137188              -0.000760780               0.002110292               0.001349512               0.000000000               0.000000000               0.000000000               0.000000000              -0.000190075               0.005364656              -0.000062450              -0.000741858               0.002035487               0.001293628               0.000000000               0.000000000               0.000000000               0.000000000              -0.000220609               0.005170529              -0.000018328              -0.000729043               0.001966507               0.001237464               0.000000000               0.000000000               0.000000000               0.000000000              -0.000230987               0.005081317              -0.000005112              -0.000721783               0.001934349               0.001212567               0.000000000               0.000000000               0.000000000               0.000000000              -0.001338601               0.002868327              -0.001196565              -0.000860515               0.001242937               0.000382423               0.000000000               0.000000000               0.000000000               0.000000000              -0.001679895               0.004481996              -0.001756120              -0.001190208               0.001890719               0.000700511               0.000000000               0.000000000               0.000000000               0.000000000              -0.002200879               0.006189590              -0.002073659              -0.001599025               0.002596184               0.000997159               0.000000000               0.000000000               0.000000000               0.000000000              -0.002090251               0.006856971              -0.001873914              -0.001640962               0.002832621               0.001191659               0.000000000               0.000000000               0.000000000               0.000000000              -0.001810554               0.007092250              -0.001609388              -0.001565485               0.002885888               0.001320402               0.000000000               0.000000000               0.000000000               0.000000000              -0.001506587               0.007137762              -0.001377414              -0.001457187               0.002864959               0.001407772               0.000000000               0.000000000               0.000000000               0.000000000              -0.001208143               0.007101727              -0.001185362              -0.001340767               0.002814141               0.001473374               0.000000000               0.000000000               0.000000000               0.000000000              -0.000935668               0.006991441              -0.001030942              -0.001224803               0.002738724               0.001513922               0.000000000               0.000000000               0.000000000               0.000000000              -0.000698712               0.006808878              -0.000901785              -0.001113124               0.002640645               0.001527520               0.000000000               0.000000000               0.000000000               0.000000000              -0.000490875               0.006581602              -0.000780531              -0.001006776               0.002529437               0.001522661               0.000000000               0.000000000               0.000000000               0.000000000              -0.000322727               0.006323328              -0.000658824              -0.000911436               0.002411567               0.001500130               0.000000000               0.000000000               0.000000000               0.000000000              -0.000199379               0.006058388              -0.000533587              -0.000832064               0.002296797               0.001464733               0.000000000               0.000000000               0.000000000               0.000000000              -0.000130745               0.005797929              -0.000408606              -0.000773769               0.002190547               0.001416778               0.000000000               0.000000000               0.000000000               0.000000000              -0.000115843               0.005560940              -0.000287026              -0.000738557               0.002099814               0.001361257               0.000000000               0.000000000               0.000000000               0.000000000              -0.000149253               0.005349764              -0.000171475              -0.000724689               0.002024800               0.001300111               0.000000000               0.000000000               0.000000000               0.000000000              -0.000227186               0.005164334              -0.000074845              -0.000730735               0.001965006               0.001234271               0.000000000               0.000000000               0.000000000               0.000000000              -0.000292649               0.005068722              -0.000025920              -0.000743332               0.001937335               0.001194003               0.000000000               0.000000000               0.000000000               0.000000000              -0.002687644               0.001571535              -0.000521757              -0.001204306               0.000925274              -0.000279032               0.000000000               0.000000000               0.000000000               0.000000000              -0.002291357               0.003201723              -0.001470326              -0.001259472               0.001487053               0.000227581               0.000000000               0.000000000               0.000000000               0.000000000              -0.002294150               0.004894459              -0.002179183              -0.001472111               0.002122173               0.000650062               0.000000000               0.000000000               0.000000000               0.000000000              -0.002051244               0.005774215              -0.002143909              -0.001490991               0.002421715               0.000930725               0.000000000               0.000000000               0.000000000               0.000000000              -0.001743565               0.006238935              -0.001927391              -0.001433701               0.002557524               0.001123823               0.000000000               0.000000000               0.000000000               0.000000000              -0.001439031               0.006484641              -0.001694890              -0.001350214               0.002611597               0.001261382               0.000000000               0.000000000               0.000000000               0.000000000              -0.001149745               0.006608508              -0.001488773              -0.001257215               0.002621885               0.001364670               0.000000000               0.000000000               0.000000000               0.000000000              -0.000886134               0.006627398              -0.001314028              -0.001160723               0.002596018               0.001435295               0.000000000               0.000000000               0.000000000               0.000000000              -0.000650487               0.006556996              -0.001163583              -0.001063555               0.002540162               0.001476607               0.000000000               0.000000000               0.000000000               0.000000000              -0.000442806               0.006419210              -0.001021753              -0.000968452               0.002462532               0.001494081               0.000000000               0.000000000               0.000000000               0.000000000              -0.000266390               0.006236393              -0.000880241              -0.000879444               0.002371925               0.001492481               0.000000000               0.000000000               0.000000000               0.000000000              -0.000119616               0.006025346              -0.000740232              -0.000798022               0.002274436               0.001476414               0.000000000               0.000000000               0.000000000               0.000000000              -0.000011397               0.005788585              -0.000600687              -0.000727845               0.002172124               0.001444279               0.000000000               0.000000000               0.000000000               0.000000000               0.000042743               0.005553669              -0.000456819              -0.000678178               0.002077264               0.001399086               0.000000000               0.000000000               0.000000000               0.000000000               0.000033817               0.005344181              -0.000304550              -0.000655340               0.001999822               0.001344483               0.000000000               0.000000000               0.000000000               0.000000000              -0.000043364               0.005165722              -0.000150171              -0.000661975               0.001942548               0.001280573               0.000000000               0.000000000               0.000000000               0.000000000              -0.000128947               0.005064393              -0.000063491              -0.000681402               0.001915248               0.001233846               0.000000000               0.000000000               0.000000000               0.000000000              -0.004138087               0.000606011               0.000017180              -0.001627532               0.000744509              -0.000883023               0.000000000               0.000000000               0.000000000               0.000000000              -0.002975559               0.002066513              -0.001131848              -0.001374147               0.001146878              -0.000227269               0.000000000               0.000000000               0.000000000               0.000000000              -0.002368014               0.003570418              -0.002077752              -0.001334305               0.001634895               0.000300590               0.000000000               0.000000000               0.000000000               0.000000000              -0.001930659               0.004557728              -0.002192451              -0.001293711               0.001950464               0.000656753               0.000000000               0.000000000               0.000000000               0.000000000              -0.001570239               0.005201791              -0.002053412              -0.001239062               0.002146933               0.000907871               0.000000000               0.000000000               0.000000000               0.000000000              -0.001257346               0.005633451              -0.001854232              -0.001175684               0.002269692               0.001094008               0.000000000               0.000000000               0.000000000               0.000000000              -0.000977353               0.005922663              -0.001660465              -0.001106838               0.002343147               0.001236309               0.000000000               0.000000000               0.000000000               0.000000000              -0.000729346               0.006076682              -0.001489690              -0.001033088               0.002369903               0.001336815               0.000000000               0.000000000               0.000000000               0.000000000              -0.000505538               0.006128635              -0.001336687              -0.000955654               0.002361409               0.001405755               0.000000000               0.000000000               0.000000000               0.000000000              -0.000301678               0.006106910              -0.001185765              -0.000876491               0.002327780               0.001451289               0.000000000               0.000000000               0.000000000               0.000000000              -0.000119189               0.006022439              -0.001038149              -0.000797499               0.002273293               0.001475793               0.000000000               0.000000000               0.000000000               0.000000000               0.000046743               0.005890278              -0.000898610              -0.000718755               0.002202991               0.001484236               0.000000000               0.000000000               0.000000000               0.000000000               0.000194564               0.005719875              -0.000757218              -0.000642022               0.002120613               0.001478592               0.000000000               0.000000000               0.000000000               0.000000000               0.000308142               0.005527686              -0.000600341              -0.000575406               0.002034346               0.001458940               0.000000000               0.000000000               0.000000000               0.000000000               0.000369321               0.005338007              -0.000421952              -0.000528754               0.001955569               0.001426815               0.000000000               0.000000000               0.000000000               0.000000000               0.000359676               0.005164879              -0.000221912              -0.000510730               0.001891853               0.001381123               0.000000000               0.000000000               0.000000000               0.000000000               0.000315952               0.005070339              -0.000110977              -0.000515309               0.001861866               0.001346557               0.000000000               0.000000000               0.000000000               0.000000000              -0.005539408              -0.000033118               0.000343788              -0.002073136               0.000680001              -0.001393135               0.000000000               0.000000000               0.000000000               0.000000000              -0.003665501               0.001143340              -0.000786977              -0.001517478               0.000886933              -0.000630545               0.000000000               0.000000000               0.000000000               0.000000000              -0.002434175               0.002347950              -0.001770629              -0.001206307               0.001184743              -0.000021564               0.000000000               0.000000000               0.000000000               0.000000000              -0.001762838               0.003346371              -0.001977665              -0.001079359               0.001475231               0.000395872               0.000000000               0.000000000               0.000000000               0.000000000              -0.001321867               0.004104571              -0.001915762              -0.001008770               0.001704433               0.000695663               0.000000000               0.000000000               0.000000000               0.000000000              -0.000987777               0.004680431              -0.001770867              -0.000955469               0.001878617               0.000923148               0.000000000               0.000000000               0.000000000               0.000000000              -0.000709043               0.005109195              -0.001614344              -0.000904539               0.002004561               0.001100022               0.000000000               0.000000000               0.000000000               0.000000000              -0.000473073               0.005391381              -0.001467507              -0.000851324               0.002080883               0.001229560               0.000000000               0.000000000               0.000000000               0.000000000              -0.000267658               0.005565136              -0.001329081              -0.000796013               0.002120364               0.001324352               0.000000000               0.000000000               0.000000000               0.000000000              -0.000076306               0.005656846              -0.001190242              -0.000735719               0.002130836               0.001395117               0.000000000               0.000000000               0.000000000               0.000000000               0.000112006               0.005677905              -0.001057074              -0.000667735               0.002115194               0.001447459               0.000000000               0.000000000               0.000000000               0.000000000               0.000298446               0.005641517              -0.000934039              -0.000593271               0.002078244               0.001484973               0.000000000               0.000000000               0.000000000               0.000000000               0.000479655               0.005560581              -0.000805441              -0.000515201               0.002025242               0.001510041               0.000000000               0.000000000               0.000000000               0.000000000               0.000653722               0.005446156              -0.000655799              -0.000435623               0.001960575               0.001524952               0.000000000               0.000000000               0.000000000               0.000000000               0.000809335               0.005306309              -0.000474238              -0.000359787               0.001888681               0.001528894               0.000000000               0.000000000               0.000000000               0.000000000               0.000926881               0.005155065              -0.000255032              -0.000296802               0.001817272               0.001520470               0.000000000               0.000000000               0.000000000               0.000000000               0.000987498               0.005082044              -0.000138513              -0.000264943               0.001782312               0.001517369               0.000000000               0.000000000               0.000000000               0.000000000              -0.006720637              -0.000397972               0.000419980              -0.002470491               0.000690835              -0.001779656               0.000000000               0.000000000               0.000000000               0.000000000              -0.004268499               0.000475960              -0.000477853              -0.001660181               0.000712042              -0.000948139               0.000000000               0.000000000               0.000000000               0.000000000              -0.002493423               0.001361231              -0.001286983              -0.001105186               0.000822133              -0.000283053               0.000000000               0.000000000               0.000000000               0.000000000              -0.001589970               0.002306630              -0.001501659              -0.000884566               0.001063724               0.000179157               0.000000000               0.000000000               0.000000000               0.000000000              -0.001056087               0.003118328              -0.001491111              -0.000785823               0.001301372               0.000515550               0.000000000               0.000000000               0.000000000               0.000000000              -0.000690224               0.003785376              -0.001403544              -0.000732005               0.001505781               0.000773776               0.000000000               0.000000000               0.000000000               0.000000000              -0.000408762               0.004315605              -0.001297982              -0.000692735               0.001669432               0.000976697               0.000000000               0.000000000               0.000000000               0.000000000              -0.000184885               0.004703030              -0.001189700              -0.000657210               0.001786731               0.001129521               0.000000000               0.000000000               0.000000000               0.000000000               0.000005960               0.004978119              -0.001083120              -0.000620029               0.001866032               0.001246004               0.000000000               0.000000000               0.000000000               0.000000000               0.000187337               0.005166324              -0.000978561              -0.000575538               0.001913937               0.001338398               0.000000000               0.000000000               0.000000000               0.000000000               0.000377191               0.005284430              -0.000879788              -0.000519106               0.001934494               0.001415388               0.000000000               0.000000000               0.000000000               0.000000000               0.000575305               0.005342952              -0.000786159              -0.000452129               0.001931676               0.001479547               0.000000000               0.000000000               0.000000000               0.000000000               0.000785037               0.005352569              -0.000687973              -0.000374682               0.001909065               0.001534384               0.000000000               0.000000000               0.000000000               0.000000000               0.001011700               0.005318764              -0.000571124              -0.000285458               0.001868056               0.001582598               0.000000000               0.000000000               0.000000000               0.000000000               0.001255148               0.005242845              -0.000420788              -0.000184675               0.001809156               0.001624481               0.000000000               0.000000000               0.000000000               0.000000000               0.001517781               0.005131699              -0.000228764              -0.000072294               0.001734647               0.001662353               0.000000000               0.000000000               0.000000000               0.000000000               0.001712952               0.005089103              -0.000129396               0.000006219               0.001694278               0.001700496               0.000000000               0.000000000               0.000000000               0.000000000              -0.007509714              -0.000570427               0.000276451              -0.002744838               0.000724799              -0.002020039               0.000000000               0.000000000               0.000000000               0.000000000              -0.004684380               0.000077869              -0.000220152              -0.001766375               0.000614744              -0.001151631               0.000000000               0.000000000               0.000000000               0.000000000              -0.002542798               0.000722660              -0.000677386              -0.001043881               0.000588843              -0.000455038               0.000000000               0.000000000               0.000000000               0.000000000              -0.001465829               0.001600691              -0.000812457              -0.000749771               0.000783481               0.000033711               0.000000000               0.000000000               0.000000000               0.000000000              -0.000854288               0.002422805              -0.000818534              -0.000623207               0.001015329               0.000392122               0.000000000               0.000000000               0.000000000               0.000000000              -0.000456023               0.003139832              -0.000778701              -0.000563487               0.001234429               0.000670942               0.000000000               0.000000000               0.000000000               0.000000000              -0.000172019               0.003733859              -0.000726646              -0.000531239               0.001421687               0.000890448               0.000000000               0.000000000               0.000000000               0.000000000               0.000042755               0.004187917              -0.000670012              -0.000507456               0.001565110               0.001057655               0.000000000               0.000000000               0.000000000               0.000000000               0.000226243               0.004528706              -0.000611870              -0.000481246               0.001669969               0.001188723               0.000000000               0.000000000               0.000000000               0.000000000               0.000403087               0.004781805              -0.000556241              -0.000446567               0.001742775               0.001296208               0.000000000               0.000000000               0.000000000               0.000000000               0.000590617               0.004969717              -0.000502929              -0.000399733               0.001789800               0.001390067               0.000000000               0.000000000               0.000000000               0.000000000               0.000795375               0.005100802              -0.000451691              -0.000339334               0.001813362               0.001474028               0.000000000               0.000000000               0.000000000               0.000000000               0.001024701               0.005177904              -0.000399689              -0.000262975               0.001813609               0.001550634               0.000000000               0.000000000               0.000000000               0.000000000               0.001288148               0.005204272              -0.000333975              -0.000167478               0.001790566               0.001623088               0.000000000               0.000000000               0.000000000               0.000000000               0.001599553               0.005179962              -0.000248895              -0.000047663               0.001742524               0.001694861               0.000000000               0.000000000               0.000000000               0.000000000               0.001975109               0.005104372              -0.000138609               0.000102618               0.001667234               0.001769853               0.000000000               0.000000000               0.000000000               0.000000000               0.002279654               0.005087971              -0.000081946               0.000218872               0.001623016               0.001841888               0.000000000               0.000000000               0.000000000               0.000000000               0.000000000               0.000000000               0.000000000               0.000000000               0.000000000               0.000000000               0.000000000               0.000000000               0.000000000               0.000000000               0.000000000               0.000000000               0.000000000               0.000000000               0.000000000               0.000000000               0.000000000               0.000000000               0.000000000               0.000000000               0.000000000               0.000000000               0.000000000               0.000000000               0.000000000               0.000000000               0.000000000               0.000000000               0.000000000               0.000000000               0.000000000               0.000000000               0.000000000               0.000000000               0.000000000               0.000000000               0.000000000               0.000000000               0.000000000               0.000000000               0.000000000               0.000000000               0.000000000               0.000000000               0.000000000               0.000000000               0.000000000               0.000000000               0.000000000               0.000000000               0.000000000               0.000000000               0.000000000               0.000000000               0.000000000               0.000000000               0.000000000               0.000000000               0.000000000               0.000000000               0.000000000               0.000000000               0.000000000               0.000000000               0.000000000               0.000000000               0.000000000               0.000000000               0.000000000               0.000000000               0.000000000               0.000000000               0.000000000               0.000000000               0.000000000               0.000000000               0.000000000               0.000000000               0.000000000               0.000000000               0.000000000               0.000000000               0.000000000               0.000000000               0.000000000               0.000000000               0.000000000               0.000000000               0.000000000               0.000000000               0.000000000               0.000000000               0.000000000               0.000000000               0.000000000               0.000000000               0.000000000               0.000000000               0.000000000               0.000000000               0.000000000               0.000000000               0.000000000               0.000000000               0.000000000               0.000000000               0.000000000               0.000000000               0.000000000               0.000000000               0.000000000               0.000000000               0.000000000               0.000000000               0.000000000               0.000000000               0.000000000               0.000000000               0.000000000               0.000000000               0.000000000               0.000000000               0.000000000               0.000000000               0.000000000               0.000000000               0.000000000               0.000000000               0.000000000               0.000000000               0.000000000               0.000000000               0.000000000               0.000000000               0.000000000               0.000000000               0.000000000               0.000000000               0.000000000               0.000000000               0.000000000               0.000000000               0.000000000               0.000000000               0.000000000               0.000000000               0.000000000               0.000000000               0.000000000               0.000000000               0.000000000               0.000000000               0.000000000               0.000000000               0.000000000               0.000000000               0.000000000               0.000000000               0.000000000               0.000000000               0.000000000               0.000000000               0.000000000               0.000000000               0.000000000               0.000000000               0.000000000               0.000000000               0.000000000               0.000000000               0.000000000               0.000000000               0.000000000               0.000000000               0.000000000               0.000000000               0.000000000               0.000000000               0.000000000               0.000000000               0.000000000               0.000000000               0.000000000               0.000000000               0.000000000               0.000000000               0.000000000               0.000000000               0.000000000               0.000000000               0.000000000               0.000000000               0.000000000               0.000000000               0.000000000               0.000000000               0.000000000               0.000000000               0.000000000               0.000000000               0.000000000               0.000000000               0.000000000               0.000000000               0.000000000               0.000000000               0.000000000               0.000000000               0.000000000               0.000000000               0.000000000               0.000000000               0.000000000               0.000000000               0.000000000               0.000000000               0.000000000               0.000000000               0.000000000               0.000000000               0.000000000               0.000000000               0.000000000               0.000000000               0.000000000               0.000000000               0.000000000               0.000000000               0.000000000               0.000000000               0.000000000               0.000000000               0.000000000               0.000000000               0.000000000               0.000000000               0.000000000               0.000000000               0.000000000               0.000000000               0.000000000               0.000000000               0.000000000               0.000000000               0.000000000               0.000000000               0.000000000               0.000000000               0.000000000               0.000000000               0.000000000               0.000000000               0.000000000               0.000000000               0.000000000               0.000000000               0.000000000               0.000000000               0.000000000               0.000000000               0.000000000               0.000000000               0.000000000               0.000000000               0.000000000               0.000000000               0.000000000               0.000000000               0.000000000               0.000000000               0.000000000               0.000000000               0.000000000               0.000000000               0.000000000               0.000000000               0.000000000               0.000000000               0.000000000               0.000000000               0.000000000               0.000000000               0.000000000               0.000000000               0.000000000               0.000000000               0.000000000               0.000000000               0.000000000               0.000000000               0.000000000               0.000000000               0.000000000               0.000000000               0.000000000               0.000000000               0.000000000               0.000000000               0.000000000               0.000000000               0.000000000               0.000000000               0.000000000               0.000000000               0.000000000               0.000000000               0.000000000               0.000000000               0.000000000               0.000000000               0.000000000               0.000000000               0.000000000               0.000000000               0.000000000               0.000000000               0.000000000               0.000000000               0.000000000               0.000000000               0.000000000               0.000000000               0.000000000               0.000000000               0.000000000               0.000000000               0.000000000               0.000000000               0.000000000               0.000000000               0.000000000               0.000000000               0.000000000               0.000000000               0.000000000               0.000000000               0.000000000               0.000000000               0.000000000               0.000000000               0.001911730               0.020057435               0.001414586              -0.001790277               0.007282504               0.005492227               0.000000000               0.000000000               0.000000000               0.000000000               0.001817713               0.015912484               0.000739270              -0.001307415               0.005739913               0.004432498               0.000000000               0.000000000               0.000000000               0.000000000               0.002314942               0.012600131               0.000066583              -0.000706912               0.004435639               0.003728727               0.000000000               0.000000000               0.000000000               0.000000000               0.002205364               0.010743104              -0.000219881              -0.000515875               0.003752957               0.003237082               0.000000000               0.000000000               0.000000000               0.000000000               0.001921067               0.009588907              -0.000338931              -0.000478212               0.003355674               0.002877462               0.000000000               0.000000000               0.000000000               0.000000000               0.001608502               0.008805072              -0.000380308              -0.000497445               0.003100810               0.002603365               0.000000000               0.000000000               0.000000000               0.000000000               0.001315741               0.008227640              -0.000389279              -0.000535051               0.002920869               0.002385819               0.000000000               0.000000000               0.000000000               0.000000000               0.001058888               0.007773608              -0.000382003              -0.000574617               0.002782716               0.002208099               0.000000000               0.000000000               0.000000000               0.000000000               0.000838435               0.007391599              -0.000366683              -0.000609535               0.002667020               0.002057485               0.000000000               0.000000000               0.000000000               0.000000000               0.000649941               0.007047648              -0.000346966              -0.000637227               0.002561601               0.001924375               0.000000000               0.000000000               0.000000000               0.000000000               0.000490408               0.006720993              -0.000326195              -0.000656220               0.002459048               0.001802829               0.000000000               0.000000000               0.000000000               0.000000000               0.000354118               0.006402503              -0.000306735              -0.000667517               0.002356652               0.001689135               0.000000000               0.000000000               0.000000000               0.000000000               0.000235188               0.006082899              -0.000280571              -0.000672165               0.002251668               0.001579502               0.000000000               0.000000000               0.000000000               0.000000000               0.000141363               0.005749427              -0.000241324              -0.000665666               0.002138345               0.001472679               0.000000000               0.000000000               0.000000000               0.000000000               0.000075692               0.005388172              -0.000186560              -0.000645135               0.002011085               0.001365949               0.000000000               0.000000000               0.000000000               0.000000000               0.000031632               0.004986579              -0.000107947              -0.000611459               0.001865996               0.001254537               0.000000000               0.000000000               0.000000000               0.000000000              -0.000015909               0.004687371              -0.000066688              -0.000591886               0.001759737               0.001167851               0.000000000               0.000000000               0.000000000               0.000000000               0.002095360               0.018886172               0.002635762              -0.001575009               0.006820330               0.005245322               0.000000000               0.000000000               0.000000000               0.000000000               0.001729931               0.015154745               0.001378276              -0.001245616               0.005466737               0.004221120               0.000000000               0.000000000               0.000000000               0.000000000               0.001937253               0.012273503               0.000136863              -0.000807716               0.004360366               0.003552650               0.000000000               0.000000000               0.000000000               0.000000000               0.001723013               0.010636762              -0.000372537              -0.000683464               0.003773373               0.003089909               0.000000000               0.000000000               0.000000000               0.000000000               0.001420111               0.009590327              -0.000578777              -0.000666248               0.003418826               0.002752578               0.000000000               0.000000000               0.000000000               0.000000000               0.001131875               0.008859026              -0.000648982              -0.000682924               0.003180620               0.002497697               0.000000000               0.000000000               0.000000000               0.000000000               0.000880150               0.008306202              -0.000659881              -0.000708217               0.003004779               0.002296561               0.000000000               0.000000000               0.000000000               0.000000000               0.000670805               0.007859510              -0.000644799              -0.000730885               0.002863439               0.002132554               0.000000000               0.000000000               0.000000000               0.000000000               0.000505622               0.007477613              -0.000616407              -0.000745092               0.002740876               0.001995785               0.000000000               0.000000000               0.000000000               0.000000000               0.000371153               0.007131678              -0.000579059              -0.000752276               0.002627961               0.001875685               0.000000000               0.000000000               0.000000000               0.000000000               0.000261408               0.006809471              -0.000538874              -0.000753154               0.002520852               0.001767698               0.000000000               0.000000000               0.000000000               0.000000000               0.000173569               0.006502161              -0.000500040              -0.000747680               0.002416592               0.001668912               0.000000000               0.000000000               0.000000000               0.000000000               0.000102747               0.006200751              -0.000452082              -0.000736562               0.002312417               0.001575855               0.000000000               0.000000000               0.000000000               0.000000000               0.000052293               0.005902745              -0.000382597              -0.000718231               0.002206972               0.001488741               0.000000000               0.000000000               0.000000000               0.000000000               0.000021194               0.005607493              -0.000288367              -0.000692987               0.002100141               0.001407154               0.000000000               0.000000000               0.000000000               0.000000000               0.000005469               0.005316401              -0.000162697              -0.000662497               0.001992948               0.001330451               0.000000000               0.000000000               0.000000000               0.000000000              -0.000016270               0.005123558              -0.000096695              -0.000646544               0.001923350               0.001276806               0.000000000               0.000000000               0.000000000               0.000000000               0.002298015               0.017102064               0.003521455              -0.001276001               0.006125964               0.004849963               0.000000000               0.000000000               0.000000000               0.000000000               0.001553449               0.014013075               0.001851657              -0.001169089               0.005060674               0.003891585               0.000000000               0.000000000               0.000000000               0.000000000               0.001355838               0.011776224               0.000224080              -0.000963587               0.004246564               0.003282978               0.000000000               0.000000000               0.000000000               0.000000000               0.001018693               0.010449765              -0.000409658              -0.000924209               0.003791290               0.002867081               0.000000000               0.000000000               0.000000000               0.000000000               0.000716417               0.009554237              -0.000653117              -0.000925621               0.003493254               0.002567633               0.000000000               0.000000000               0.000000000               0.000000000               0.000478650               0.008891839              -0.000731843              -0.000931984               0.003274578               0.002342594               0.000000000               0.000000000               0.000000000               0.000000000               0.000299487               0.008369211              -0.000741923              -0.000933842               0.003100989               0.002167148               0.000000000               0.000000000               0.000000000               0.000000000               0.000171718               0.007933768              -0.000722224              -0.000927324               0.002953671               0.002026346               0.000000000               0.000000000               0.000000000               0.000000000               0.000082477               0.007552460              -0.000685406              -0.000913126               0.002821837               0.001908710               0.000000000               0.000000000               0.000000000               0.000000000               0.000016621               0.007207844              -0.000638624              -0.000894745               0.002700839               0.001806094               0.000000000               0.000000000               0.000000000               0.000000000              -0.000027688               0.006893551              -0.000589427              -0.000872075               0.002588519               0.001716444               0.000000000               0.000000000               0.000000000               0.000000000              -0.000048551               0.006603482              -0.000538472              -0.000843640               0.002482352               0.001638712               0.000000000               0.000000000               0.000000000               0.000000000              -0.000050886               0.006332187              -0.000476474              -0.000810604               0.002380909               0.001570305               0.000000000               0.000000000               0.000000000               0.000000000              -0.000040433               0.006085755              -0.000395920              -0.000775880               0.002287191               0.001511311               0.000000000               0.000000000               0.000000000               0.000000000              -0.000023882               0.005877361              -0.000291924              -0.000743624               0.002206976               0.001463351               0.000000000               0.000000000               0.000000000               0.000000000              -0.000011724               0.005715980              -0.000159965              -0.000718892               0.002144938               0.001426046               0.000000000               0.000000000               0.000000000               0.000000000              -0.000011397               0.005635412              -0.000088762              -0.000708699               0.002114685               0.001405986               0.000000000               0.000000000               0.000000000               0.000000000               0.002403124               0.014913066               0.003997234              -0.000962962               0.005291959               0.004328996               0.000000000               0.000000000               0.000000000               0.000000000               0.001262251               0.012633796               0.002138385              -0.001105879               0.004579849               0.003473970               0.000000000               0.000000000               0.000000000               0.000000000               0.000643458               0.011162384               0.000350748              -0.001153998               0.004105424               0.002951425               0.000000000               0.000000000               0.000000000               0.000000000               0.000219925               0.010176309              -0.000306241              -0.001189564               0.003788590               0.002599026               0.000000000               0.000000000               0.000000000               0.000000000              -0.000045504               0.009440427              -0.000546932              -0.001197115               0.003545816               0.002348701               0.000000000               0.000000000               0.000000000               0.000000000              -0.000198250               0.008854426              -0.000623119              -0.001181144               0.003345160               0.002164016               0.000000000               0.000000000               0.000000000               0.000000000              -0.000276601               0.008364346              -0.000634368              -0.001149266               0.003171176               0.002021910               0.000000000               0.000000000               0.000000000               0.000000000              -0.000310037               0.007939380              -0.000616098              -0.001108684               0.003015995               0.001907311               0.000000000               0.000000000               0.000000000               0.000000000              -0.000314111               0.007564042              -0.000580081              -0.001063295               0.002875754               0.001812459               0.000000000               0.000000000               0.000000000               0.000000000              -0.000297873               0.007227259              -0.000535481              -0.001015107               0.002747431               0.001732324               0.000000000               0.000000000               0.000000000               0.000000000              -0.000260785               0.006925304              -0.000488133              -0.000963455               0.002629563               0.001666108               0.000000000               0.000000000               0.000000000               0.000000000              -0.000210811               0.006656889              -0.000437163              -0.000911163               0.002522662               0.001611499               0.000000000               0.000000000               0.000000000               0.000000000              -0.000155200               0.006423785              -0.000373732              -0.000861171               0.002428297               0.001567126               0.000000000               0.000000000               0.000000000               0.000000000              -0.000096714               0.006233641              -0.000298169              -0.000815471               0.002349683               0.001534212               0.000000000               0.000000000               0.000000000               0.000000000              -0.000048419               0.006096447              -0.000211087              -0.000780211               0.002292199               0.001511988               0.000000000               0.000000000               0.000000000               0.000000000              -0.000018730               0.006016652              -0.000109401              -0.000759103               0.002258565               0.001499462               0.000000000               0.000000000               0.000000000               0.000000000              -0.000007235               0.005992346              -0.000055085              -0.000751755               0.002248014               0.001496259               0.000000000               0.000000000               0.000000000               0.000000000               0.002313718               0.012542595               0.004070826              -0.000700182               0.004414216               0.003714034               0.000000000               0.000000000               0.000000000               0.000000000               0.000856660               0.011162225               0.002262941              -0.001074030               0.004078714               0.003004684               0.000000000               0.000000000               0.000000000               0.000000000              -0.000109441               0.010485928               0.000535519              -0.001351778               0.003945867               0.002594089               0.000000000               0.000000000               0.000000000               0.000000000              -0.000541352               0.009821358              -0.000072121              -0.001430673               0.003750644               0.002319971               0.000000000               0.000000000               0.000000000               0.000000000              -0.000721204               0.009228435              -0.000294103              -0.001424002               0.003550782               0.002126779               0.000000000               0.000000000               0.000000000               0.000000000              -0.000769237               0.008711141              -0.000371769              -0.001377353               0.003362802               0.001985449               0.000000000               0.000000000               0.000000000               0.000000000              -0.000742900               0.008259922              -0.000390475              -0.001311074               0.003190305               0.001879230               0.000000000               0.000000000               0.000000000               0.000000000              -0.000678594               0.007859623              -0.000383499              -0.001236922               0.003032156               0.001795233               0.000000000               0.000000000               0.000000000               0.000000000              -0.000592544               0.007501315              -0.000360227              -0.001159866               0.002887035               0.001727170               0.000000000               0.000000000               0.000000000               0.000000000              -0.000497046               0.007178898              -0.000326096              -0.001083752               0.002754193               0.001670441               0.000000000               0.000000000               0.000000000               0.000000000              -0.000394997               0.006894717              -0.000288794              -0.001009961               0.002634870               0.001624909               0.000000000               0.000000000               0.000000000               0.000000000              -0.000293777               0.006647785              -0.000248894              -0.000941137               0.002529619               0.001588481               0.000000000               0.000000000               0.000000000               0.000000000              -0.000203896               0.006438329              -0.000201757              -0.000881250               0.002439838               0.001558588               0.000000000               0.000000000               0.000000000               0.000000000              -0.000126257               0.006276149              -0.000152927              -0.000831863               0.002369316               0.001537453               0.000000000               0.000000000               0.000000000               0.000000000              -0.000065916               0.006161002              -0.000104610              -0.000794842               0.002318594               0.001523752               0.000000000               0.000000000               0.000000000               0.000000000              -0.000025594               0.006080230              -0.000051782              -0.000769625               0.002283264               0.001513640               0.000000000               0.000000000               0.000000000               0.000000000              -0.000019268               0.006033406              -0.000029584              -0.000761399               0.002264915               0.001503516               0.000000000               0.000000000               0.000000000               0.000000000               0.001970700               0.010194482               0.003809972              -0.000535300               0.003576559               0.003041259               0.000000000               0.000000000               0.000000000               0.000000000               0.000361170               0.009719489               0.002266779              -0.001079496               0.003599629               0.002520132               0.000000000               0.000000000               0.000000000               0.000000000              -0.000813921               0.009780867               0.000779195              -0.001527825               0.003769531               0.002241706               0.000000000               0.000000000               0.000000000               0.000000000              -0.001169982               0.009386658               0.000257003              -0.001612072               0.003666212               0.002054140               0.000000000               0.000000000               0.000000000               0.000000000              -0.001222917               0.008915337               0.000047710              -0.001573007               0.003496085               0.001923078               0.000000000               0.000000000               0.000000000               0.000000000              -0.001152363               0.008467943              -0.000043776              -0.001490625               0.003319495               0.001828869               0.000000000               0.000000000               0.000000000               0.000000000              -0.001025025               0.008064074              -0.000082699              -0.001392390               0.003152128               0.001759738               0.000000000               0.000000000               0.000000000               0.000000000              -0.000875729               0.007697743              -0.000095419              -0.001290613               0.002996093               0.001705480               0.000000000               0.000000000               0.000000000               0.000000000              -0.000721473               0.007365770              -0.000090293              -0.001191271               0.002852322               0.001661052               0.000000000               0.000000000               0.000000000               0.000000000              -0.000568357               0.007064649              -0.000076867              -0.001096212               0.002720264               0.001624051               0.000000000               0.000000000               0.000000000               0.000000000              -0.000425074               0.006790629              -0.000064712              -0.001008229               0.002599597               0.001591368               0.000000000               0.000000000               0.000000000               0.000000000              -0.000306113               0.006544285              -0.000053370              -0.000932826               0.002492349               0.001559523               0.000000000               0.000000000               0.000000000               0.000000000              -0.000214141               0.006333959              -0.000043575              -0.000872046               0.002401981               0.001529935               0.000000000               0.000000000               0.000000000               0.000000000              -0.000142538               0.006165226              -0.000040592              -0.000824103               0.002329756               0.001505653               0.000000000               0.000000000               0.000000000               0.000000000              -0.000088148               0.006027820              -0.000039117              -0.000786531               0.002271430               0.001484899               0.000000000               0.000000000               0.000000000               0.000000000              -0.000042118               0.005906606              -0.000025789              -0.000754118               0.002220222               0.001466104               0.000000000               0.000000000               0.000000000               0.000000000              -0.000040169               0.005819705              -0.000026505              -0.000742525               0.002187391               0.001444866               0.000000000               0.000000000               0.000000000               0.000000000               0.001393125               0.008016156               0.003298001              -0.000479600               0.002831891               0.002352291               0.000000000               0.000000000               0.000000000               0.000000000              -0.000199394               0.008391752               0.002189634              -0.001123741               0.003171802               0.002048062               0.000000000               0.000000000               0.000000000               0.000000000              -0.001402834               0.009060680               0.001072856              -0.001658644               0.003573078               0.001914434               0.000000000               0.000000000               0.000000000               0.000000000              -0.001610367               0.008883771               0.000630855              -0.001714355               0.003532679               0.001818324               0.000000000               0.000000000               0.000000000               0.000000000              -0.001519606               0.008526686               0.000413930              -0.001635684               0.003387428               0.001751744               0.000000000               0.000000000               0.000000000               0.000000000              -0.001335762               0.008152327               0.000295597              -0.001519948               0.003224065               0.001704117               0.000000000               0.000000000               0.000000000               0.000000000              -0.001121555               0.007797547               0.000227701              -0.001395273               0.003064247               0.001668974               0.000000000               0.000000000               0.000000000               0.000000000              -0.000906559               0.007469477               0.000186193              -0.001273641               0.002914348               0.001640707               0.000000000               0.000000000               0.000000000               0.000000000              -0.000703299               0.007160054               0.000159895              -0.001158741               0.002772908               0.001614167               0.000000000               0.000000000               0.000000000               0.000000000              -0.000524039               0.006858194               0.000140384              -0.001053786               0.002637304               0.001583518               0.000000000               0.000000000               0.000000000               0.000000000              -0.000382320               0.006572369               0.000118175              -0.000964914               0.002512406               0.001547492               0.000000000               0.000000000               0.000000000               0.000000000              -0.000278187               0.006315350               0.000087915              -0.000893737               0.002403008               0.001509271               0.000000000               0.000000000               0.000000000               0.000000000              -0.000206320               0.006096080               0.000051871              -0.000839378               0.002311799               0.001472421               0.000000000               0.000000000               0.000000000               0.000000000              -0.000153962               0.005909352               0.000013244              -0.000796403               0.002235232               0.001438829               0.000000000               0.000000000               0.000000000               0.000000000              -0.000106941               0.005741588              -0.000018420              -0.000757800               0.002166444               0.001408644               0.000000000               0.000000000               0.000000000               0.000000000              -0.000058244               0.005590693              -0.000024414              -0.000720676               0.002103771               0.001383095               0.000000000               0.000000000               0.000000000               0.000000000              -0.000048126               0.005494817              -0.000028674              -0.000704898               0.002066553               0.001361656               0.000000000               0.000000000               0.000000000               0.000000000               0.000680404               0.006165058               0.002634310              -0.000515482               0.002226825               0.001711343               0.000000000               0.000000000               0.000000000               0.000000000              -0.000739404               0.007205343               0.002080086              -0.001177943               0.002794404               0.001616461               0.000000000               0.000000000               0.000000000               0.000000000              -0.001837052               0.008361104               0.001415252              -0.001734028               0.003365016               0.001630987               0.000000000               0.000000000               0.000000000               0.000000000              -0.001883002               0.008409597               0.001024098              -0.001757321               0.003388945               0.001631623               0.000000000               0.000000000               0.000000000               0.000000000              -0.001676479               0.008182285               0.000782727              -0.001651461               0.003277888               0.001626427               0.000000000               0.000000000               0.000000000               0.000000000              -0.001409755               0.007888619               0.000626353              -0.001514732               0.003134424               0.001619692               0.000000000               0.000000000               0.000000000               0.000000000              -0.001131621               0.007593760               0.000519170              -0.001373575               0.002989086               0.001615512               0.000000000               0.000000000               0.000000000               0.000000000              -0.000867718               0.007304343               0.000442044              -0.001238434               0.002847568               0.001609134               0.000000000               0.000000000               0.000000000               0.000000000              -0.000636119               0.006994610               0.000382763              -0.001112868               0.002702469               0.001589601               0.000000000               0.000000000               0.000000000               0.000000000              -0.000444196               0.006680007               0.000328543              -0.001001572               0.002560504               0.001558932               0.000000000               0.000000000               0.000000000               0.000000000              -0.000301327               0.006383655               0.000267655              -0.000910952               0.002431514               0.001520562               0.000000000               0.000000000               0.000000000               0.000000000              -0.000211870               0.006118179               0.000197068              -0.000844221               0.002320780               0.001476558               0.000000000               0.000000000               0.000000000               0.000000000              -0.000165560               0.005887643               0.000123228              -0.000798038               0.002228541               0.001430502               0.000000000               0.000000000               0.000000000               0.000000000              -0.000145640               0.005678827               0.000056095              -0.000764466               0.002147746               0.001383279               0.000000000               0.000000000               0.000000000               0.000000000              -0.000136100               0.005479980               0.000006993              -0.000736033               0.002071986               0.001335953               0.000000000               0.000000000               0.000000000               0.000000000              -0.000122330               0.005297408              -0.000013355              -0.000708048               0.002001801               0.001293753               0.000000000               0.000000000               0.000000000               0.000000000              -0.000108145               0.005206426              -0.000016214              -0.000691356               0.001965910               0.001274554               0.000000000               0.000000000               0.000000000               0.000000000              -0.000189031               0.004437037               0.001919301              -0.000625516               0.001687502               0.001061986               0.000000000               0.000000000               0.000000000               0.000000000              -0.001178352               0.005842224               0.001951983              -0.001172158               0.002338107               0.001165949               0.000000000               0.000000000               0.000000000               0.000000000              -0.002061259               0.007349862               0.001784779              -0.001691701               0.003013829               0.001322128               0.000000000               0.000000000               0.000000000               0.000000000              -0.002022721               0.007716691               0.001458190              -0.001723103               0.003146572               0.001423469               0.000000000               0.000000000               0.000000000               0.000000000              -0.001765626               0.007705696               0.001190711              -0.001625318               0.003110312               0.001484994               0.000000000               0.000000000               0.000000000               0.000000000              -0.001468275               0.007565821               0.000990524              -0.001496327               0.003020691               0.001524363               0.000000000               0.000000000               0.000000000               0.000000000              -0.001172280               0.007387802               0.000837283              -0.001363077               0.002916935               0.001553858               0.000000000               0.000000000               0.000000000               0.000000000              -0.000900873               0.007172132               0.000720051              -0.001234341               0.002802134               0.001567793               0.000000000               0.000000000               0.000000000               0.000000000              -0.000663731               0.006908634               0.000622194              -0.001112475               0.002673680               0.001561204               0.000000000               0.000000000               0.000000000               0.000000000              -0.000464996               0.006619874               0.000530749              -0.001001856               0.002540554               0.001538699               0.000000000               0.000000000               0.000000000               0.000000000              -0.000316673               0.006320429               0.000436750              -0.000908804               0.002409723               0.001500919               0.000000000               0.000000000               0.000000000               0.000000000              -0.000221345               0.006041542               0.000334561              -0.000838195               0.002293226               0.001455031               0.000000000               0.000000000               0.000000000               0.000000000              -0.000178475               0.005791326               0.000231864              -0.000790842               0.002194037               0.001403195               0.000000000               0.000000000               0.000000000               0.000000000              -0.000172034               0.005570153               0.000137188              -0.000760780               0.002110292               0.001349512               0.000000000               0.000000000               0.000000000               0.000000000              -0.000190075               0.005364656               0.000062450              -0.000741858               0.002035487               0.001293628               0.000000000               0.000000000               0.000000000               0.000000000              -0.000220609               0.005170529               0.000018328              -0.000729043               0.001966507               0.001237464               0.000000000               0.000000000               0.000000000               0.000000000              -0.000230987               0.005081317               0.000005112              -0.000721783               0.001934349               0.001212567               0.000000000               0.000000000               0.000000000               0.000000000              -0.001338601               0.002868327               0.001196565              -0.000860515               0.001242937               0.000382423               0.000000000               0.000000000               0.000000000               0.000000000              -0.001679895               0.004481996               0.001756120              -0.001190208               0.001890719               0.000700511               0.000000000               0.000000000               0.000000000               0.000000000              -0.002200879               0.006189590               0.002073659              -0.001599025               0.002596184               0.000997159               0.000000000               0.000000000               0.000000000               0.000000000              -0.002090251               0.006856971               0.001873914              -0.001640962               0.002832621               0.001191659               0.000000000               0.000000000               0.000000000               0.000000000              -0.001810554               0.007092250               0.001609388              -0.001565485               0.002885888               0.001320402               0.000000000               0.000000000               0.000000000               0.000000000              -0.001506587               0.007137762               0.001377414              -0.001457187               0.002864959               0.001407772               0.000000000               0.000000000               0.000000000               0.000000000              -0.001208143               0.007101727               0.001185362              -0.001340767               0.002814141               0.001473374               0.000000000               0.000000000               0.000000000               0.000000000              -0.000935668               0.006991441               0.001030942              -0.001224803               0.002738724               0.001513922               0.000000000               0.000000000               0.000000000               0.000000000              -0.000698712               0.006808878               0.000901785              -0.001113124               0.002640645               0.001527520               0.000000000               0.000000000               0.000000000               0.000000000              -0.000490875               0.006581602               0.000780531              -0.001006776               0.002529437               0.001522661               0.000000000               0.000000000               0.000000000               0.000000000              -0.000322727               0.006323328               0.000658824              -0.000911436               0.002411567               0.001500130               0.000000000               0.000000000               0.000000000               0.000000000              -0.000199379               0.006058388               0.000533587              -0.000832064               0.002296797               0.001464733               0.000000000               0.000000000               0.000000000               0.000000000              -0.000130745               0.005797929               0.000408606              -0.000773769               0.002190547               0.001416778               0.000000000               0.000000000               0.000000000               0.000000000              -0.000115843               0.005560940               0.000287026              -0.000738557               0.002099814               0.001361257               0.000000000               0.000000000               0.000000000               0.000000000              -0.000149253               0.005349764               0.000171475              -0.000724689               0.002024800               0.001300111               0.000000000               0.000000000               0.000000000               0.000000000              -0.000227186               0.005164334               0.000074845              -0.000730735               0.001965006               0.001234271               0.000000000               0.000000000               0.000000000               0.000000000              -0.000292649               0.005068722               0.000025920              -0.000743332               0.001937335               0.001194003               0.000000000               0.000000000               0.000000000               0.000000000              -0.002687644               0.001571535               0.000521757              -0.001204306               0.000925274              -0.000279032               0.000000000               0.000000000               0.000000000               0.000000000              -0.002291357               0.003201723               0.001470326              -0.001259472               0.001487053               0.000227581               0.000000000               0.000000000               0.000000000               0.000000000              -0.002294150               0.004894459               0.002179183              -0.001472111               0.002122173               0.000650062               0.000000000               0.000000000               0.000000000               0.000000000              -0.002051244               0.005774215               0.002143909              -0.001490991               0.002421715               0.000930725               0.000000000               0.000000000               0.000000000               0.000000000              -0.001743565               0.006238935               0.001927391              -0.001433701               0.002557524               0.001123823               0.000000000               0.000000000               0.000000000               0.000000000              -0.001439031               0.006484641               0.001694890              -0.001350214               0.002611597               0.001261382               0.000000000               0.000000000               0.000000000               0.000000000              -0.001149745               0.006608508               0.001488773              -0.001257215               0.002621885               0.001364670               0.000000000               0.000000000               0.000000000               0.000000000              -0.000886134               0.006627398               0.001314028              -0.001160723               0.002596018               0.001435295               0.000000000               0.000000000               0.000000000               0.000000000              -0.000650487               0.006556996               0.001163583              -0.001063555               0.002540162               0.001476607               0.000000000               0.000000000               0.000000000               0.000000000              -0.000442806               0.006419210               0.001021753              -0.000968452               0.002462532               0.001494081               0.000000000               0.000000000               0.000000000               0.000000000              -0.000266390               0.006236393               0.000880241              -0.000879444               0.002371925               0.001492481               0.000000000               0.000000000               0.000000000               0.000000000              -0.000119616               0.006025346               0.000740232              -0.000798022               0.002274436               0.001476414               0.000000000               0.000000000               0.000000000               0.000000000              -0.000011397               0.005788585               0.000600687              -0.000727845               0.002172124               0.001444279               0.000000000               0.000000000               0.000000000               0.000000000               0.000042743               0.005553669               0.000456819              -0.000678178               0.002077264               0.001399086               0.000000000               0.000000000               0.000000000               0.000000000               0.000033817               0.005344181               0.000304550              -0.000655340               0.001999822               0.001344483               0.000000000               0.000000000               0.000000000               0.000000000              -0.000043364               0.005165722               0.000150171              -0.000661975               0.001942548               0.001280573               0.000000000               0.000000000               0.000000000               0.000000000              -0.000128947               0.005064393               0.000063491              -0.000681402               0.001915248               0.001233846               0.000000000               0.000000000               0.000000000               0.000000000              -0.004138087               0.000606011              -0.000017180              -0.001627532               0.000744509              -0.000883023               0.000000000               0.000000000               0.000000000               0.000000000              -0.002975559               0.002066513               0.001131848              -0.001374147               0.001146878              -0.000227269               0.000000000               0.000000000               0.000000000               0.000000000              -0.002368014               0.003570418               0.002077752              -0.001334305               0.001634895               0.000300590               0.000000000               0.000000000               0.000000000               0.000000000              -0.001930659               0.004557728               0.002192451              -0.001293711               0.001950464               0.000656753               0.000000000               0.000000000               0.000000000               0.000000000              -0.001570239               0.005201791               0.002053412              -0.001239062               0.002146933               0.000907871               0.000000000               0.000000000               0.000000000               0.000000000              -0.001257346               0.005633451               0.001854232              -0.001175684               0.002269692               0.001094008               0.000000000               0.000000000               0.000000000               0.000000000              -0.000977353               0.005922663               0.001660465              -0.001106838               0.002343147               0.001236309               0.000000000               0.000000000               0.000000000               0.000000000              -0.000729346               0.006076682               0.001489690              -0.001033088               0.002369903               0.001336815               0.000000000               0.000000000               0.000000000               0.000000000              -0.000505538               0.006128635               0.001336687              -0.000955654               0.002361409               0.001405755               0.000000000               0.000000000               0.000000000               0.000000000              -0.000301678               0.006106910               0.001185765              -0.000876491               0.002327780               0.001451289               0.000000000               0.000000000               0.000000000               0.000000000              -0.000119189               0.006022439               0.001038149              -0.000797499               0.002273293               0.001475793               0.000000000               0.000000000               0.000000000               0.000000000               0.000046743               0.005890278               0.000898610              -0.000718755               0.002202991               0.001484236               0.000000000               0.000000000               0.000000000               0.000000000               0.000194564               0.005719875               0.000757218              -0.000642022               0.002120613               0.001478592               0.000000000               0.000000000               0.000000000               0.000000000               0.000308142               0.005527686               0.000600341              -0.000575406               0.002034346               0.001458940               0.000000000               0.000000000               0.000000000               0.000000000               0.000369321               0.005338007               0.000421952              -0.000528754               0.001955569               0.001426815               0.000000000               0.000000000               0.000000000               0.000000000               0.000359676               0.005164879               0.000221912              -0.000510730               0.001891853               0.001381123               0.000000000               0.000000000               0.000000000               0.000000000               0.000315952               0.005070339               0.000110977              -0.000515309               0.001861866               0.001346557               0.000000000               0.000000000               0.000000000               0.000000000              -0.005539408              -0.000033118              -0.000343788              -0.002073136               0.000680001              -0.001393135               0.000000000               0.000000000               0.000000000               0.000000000              -0.003665501               0.001143340               0.000786977              -0.001517478               0.000886933              -0.000630545               0.000000000               0.000000000               0.000000000               0.000000000              -0.002434175               0.002347950               0.001770629              -0.001206307               0.001184743              -0.000021564               0.000000000               0.000000000               0.000000000               0.000000000              -0.001762838               0.003346371               0.001977665              -0.001079359               0.001475231               0.000395872               0.000000000               0.000000000               0.000000000               0.000000000              -0.001321867               0.004104571               0.001915762              -0.001008770               0.001704433               0.000695663               0.000000000               0.000000000               0.000000000               0.000000000              -0.000987777               0.004680431               0.001770867              -0.000955469               0.001878617               0.000923148               0.000000000               0.000000000               0.000000000               0.000000000              -0.000709043               0.005109195               0.001614344              -0.000904539               0.002004561               0.001100022               0.000000000               0.000000000               0.000000000               0.000000000              -0.000473073               0.005391381               0.001467507              -0.000851324               0.002080883               0.001229560               0.000000000               0.000000000               0.000000000               0.000000000              -0.000267658               0.005565136               0.001329081              -0.000796013               0.002120364               0.001324352               0.000000000               0.000000000               0.000000000               0.000000000              -0.000076306               0.005656846               0.001190242              -0.000735719               0.002130836               0.001395117               0.000000000               0.000000000               0.000000000               0.000000000               0.000112006               0.005677905               0.001057074              -0.000667735               0.002115194               0.001447459               0.000000000               0.000000000               0.000000000               0.000000000               0.000298446               0.005641517               0.000934039              -0.000593271               0.002078244               0.001484973               0.000000000               0.000000000               0.000000000               0.000000000               0.000479655               0.005560581               0.000805441              -0.000515201               0.002025242               0.001510041               0.000000000               0.000000000               0.000000000               0.000000000               0.000653722               0.005446156               0.000655799              -0.000435623               0.001960575               0.001524952               0.000000000               0.000000000               0.000000000               0.000000000               0.000809335               0.005306309               0.000474238              -0.000359787               0.001888681               0.001528894               0.000000000               0.000000000               0.000000000               0.000000000               0.000926881               0.005155065               0.000255032              -0.000296802               0.001817272               0.001520470               0.000000000               0.000000000               0.000000000               0.000000000               0.000987498               0.005082044               0.000138513              -0.000264943               0.001782312               0.001517369               0.000000000               0.000000000               0.000000000               0.000000000              -0.006720637              -0.000397972              -0.000419980              -0.002470491               0.000690835              -0.001779656               0.000000000               0.000000000               0.000000000               0.000000000              -0.004268499               0.000475960               0.000477853              -0.001660181               0.000712042              -0.000948139               0.000000000               0.000000000               0.000000000               0.000000000              -0.002493423               0.001361231               0.001286983              -0.001105186               0.000822133              -0.000283053               0.000000000               0.000000000               0.000000000               0.000000000              -0.001589970               0.002306630               0.001501659              -0.000884566               0.001063724               0.000179157               0.000000000               0.000000000               0.000000000               0.000000000              -0.001056087               0.003118328               0.001491111              -0.000785823               0.001301372               0.000515550               0.000000000               0.000000000               0.000000000               0.000000000              -0.000690224               0.003785376               0.001403544              -0.000732005               0.001505781               0.000773776               0.000000000               0.000000000               0.000000000               0.000000000              -0.000408762               0.004315605               0.001297982              -0.000692735               0.001669432               0.000976697               0.000000000               0.000000000               0.000000000               0.000000000              -0.000184885               0.004703030               0.001189700              -0.000657210               0.001786731               0.001129521               0.000000000               0.000000000               0.000000000               0.000000000               0.000005960               0.004978119               0.001083120              -0.000620029               0.001866032               0.001246004               0.000000000               0.000000000               0.000000000               0.000000000               0.000187337               0.005166324               0.000978561              -0.000575538               0.001913937               0.001338398               0.000000000               0.000000000               0.000000000               0.000000000               0.000377191               0.005284430               0.000879788              -0.000519106               0.001934494               0.001415388               0.000000000               0.000000000               0.000000000               0.000000000               0.000575305               0.005342952               0.000786159              -0.000452129               0.001931676               0.001479547               0.000000000               0.000000000               0.000000000               0.000000000               0.000785037               0.005352569               0.000687973              -0.000374682               0.001909065               0.001534384               0.000000000               0.000000000               0.000000000               0.000000000               0.001011700               0.005318764               0.000571124              -0.000285458               0.001868056               0.001582598               0.000000000               0.000000000               0.000000000               0.000000000               0.001255148               0.005242845               0.000420788              -0.000184675               0.001809156               0.001624481               0.000000000               0.000000000               0.000000000               0.000000000               0.001517781               0.005131699               0.000228764              -0.000072294               0.001734647               0.001662353               0.000000000               0.000000000               0.000000000               0.000000000               0.001712952               0.005089103               0.000129396               0.000006219               0.001694278               0.001700496               0.000000000               0.000000000               0.000000000               0.000000000              -0.007509714              -0.000570427              -0.000276451              -0.002744838               0.000724799              -0.002020039               0.000000000               0.000000000               0.000000000               0.000000000              -0.004684380               0.000077869               0.000220152              -0.001766375               0.000614744              -0.001151631               0.000000000               0.000000000               0.000000000               0.000000000              -0.002542798               0.000722660               0.000677386              -0.001043881               0.000588843              -0.000455038               0.000000000               0.000000000               0.000000000               0.000000000              -0.001465829               0.001600691               0.000812457              -0.000749771               0.000783481               0.000033711               0.000000000               0.000000000               0.000000000               0.000000000              -0.000854288               0.002422805               0.000818534              -0.000623207               0.001015329               0.000392122               0.000000000               0.000000000               0.000000000               0.000000000              -0.000456023               0.003139832               0.000778701              -0.000563487               0.001234429               0.000670942               0.000000000               0.000000000               0.000000000               0.000000000              -0.000172019               0.003733859               0.000726646              -0.000531239               0.001421687               0.000890448               0.000000000               0.000000000               0.000000000               0.000000000               0.000042755               0.004187917               0.000670012              -0.000507456               0.001565110               0.001057655               0.000000000               0.000000000               0.000000000               0.000000000               0.000226243               0.004528706               0.000611870              -0.000481246               0.001669969               0.001188723               0.000000000               0.000000000               0.000000000               0.000000000               0.000403087               0.004781805               0.000556241              -0.000446567               0.001742775               0.001296208               0.000000000               0.000000000               0.000000000               0.000000000               0.000590617               0.004969717               0.000502929              -0.000399733               0.001789800               0.001390067               0.000000000               0.000000000               0.000000000               0.000000000               0.000795375               0.005100802               0.000451691              -0.000339334               0.001813362               0.001474028               0.000000000               0.000000000               0.000000000               0.000000000               0.001024701               0.005177904               0.000399689              -0.000262975               0.001813609               0.001550634               0.000000000               0.000000000               0.000000000               0.000000000               0.001288148               0.005204272               0.000333975              -0.000167478               0.001790566               0.001623088               0.000000000               0.000000000               0.000000000               0.000000000               0.001599553               0.005179962               0.000248895              -0.000047663               0.001742524               0.001694861               0.000000000               0.000000000               0.000000000               0.000000000               0.001975109               0.005104372               0.000138609               0.000102618               0.001667234               0.001769853               0.000000000               0.000000000               0.000000000               0.000000000               0.002279654               0.005087971               0.000081946               0.000218872               0.001623016               0.001841888               0.000000000               0.000000000               0.000000000               0.000000000               0.000000000               0.000000000               0.000000000               0.000000000               0.000000000               0.000000000               0.000000000               0.000000000               0.000000000               0.000000000               0.000000000               0.000000000               0.000000000               0.000000000               0.000000000               0.000000000               0.000000000               0.000000000               0.000000000               0.000000000               0.000000000               0.000000000               0.000000000               0.000000000               0.000000000               0.000000000               0.000000000               0.000000000               0.000000000               0.000000000               0.000000000               0.000000000               0.000000000               0.000000000               0.000000000               0.000000000               0.000000000               0.000000000               0.000000000               0.000000000               0.000000000               0.000000000               0.000000000               0.000000000               0.000000000               0.000000000               0.000000000               0.000000000               0.000000000               0.000000000               0.000000000               0.000000000               0.000000000               0.000000000               0.000000000               0.000000000               0.000000000               0.000000000               0.000000000               0.000000000               0.000000000               0.000000000               0.000000000               0.000000000               0.000000000               0.000000000               0.000000000               0.000000000               0.000000000               0.000000000               0.000000000               0.000000000               0.000000000               0.000000000               0.000000000               0.000000000               0.000000000               0.000000000               0.000000000               0.000000000               0.000000000               0.000000000               0.000000000               0.000000000               0.000000000               0.000000000               0.000000000               0.000000000               0.000000000               0.000000000               0.000000000               0.000000000               0.000000000               0.000000000               0.000000000               0.000000000               0.000000000               0.000000000               0.000000000               0.000000000               0.000000000               0.000000000               0.000000000               0.000000000               0.000000000               0.000000000               0.000000000               0.000000000               0.000000000               0.000000000               0.000000000               0.000000000               0.000000000               0.000000000               0.000000000               0.000000000               0.000000000               0.000000000               0.000000000               0.000000000               0.000000000               0.000000000               0.000000000               0.000000000               0.000000000               0.000000000               0.000000000               0.000000000               0.000000000               0.000000000               0.000000000               0.000000000               0.000000000               0.000000000               0.000000000               0.000000000               0.000000000               0.000000000               0.000000000               0.000000000               0.000000000               0.000000000               0.000000000               0.000000000               0.000000000               0.000000000               0.000000000               0.000000000               0.000000000               0.000000000               0.000000000               0.000000000               0.000000000               0.000000000               0.000000000               0.000000000               0.000000000               0.000000000               0.000000000               0.000000000               0.000000000               0.000000000               0.000000000               0.000000000               0.000000000               0.000000000               0.000000000               0.000000000               0.000000000               0.000000000 </DataArray>
</PointData>
</Piece>
</UnstructuredGrid> </VTKFile>
